*SPEF "ieee 1481-1999"
*DESIGN "alu8bit"
*DATE "13:42:12 Wednesday August 05, 2026"
*VENDOR "The OpenROAD Project"
*PROGRAM "OpenROAD"
*VERSION "edf00dff99f6c40d67a30c0e22a8191c5d2ed9d6"
*DESIGN_FLOW "NAME_SCOPE LOCAL" "PIN_CAP NONE"
*DIVIDER /
*DELIMITER :
*BUS_DELIMITER []
*T_UNIT 1 NS
*C_UNIT 1 PF
*R_UNIT 1 OHM
*L_UNIT 1 HENRY

*NAME_MAP
*3 inst[0]
*4 inst[1]
*5 inst[2]
*6 inst[3]
*7 op_a[0]
*8 op_a[1]
*9 op_a[2]
*10 op_a[3]
*11 op_a[4]
*12 op_a[5]
*13 op_a[6]
*14 op_a[7]
*15 op_b[0]
*16 op_b[1]
*17 op_b[2]
*18 op_b[3]
*19 op_b[4]
*20 op_b[5]
*21 op_b[6]
*22 op_b[7]
*23 op_out[0]
*24 op_out[1]
*25 op_out[2]
*26 op_out[3]
*27 op_out[4]
*28 op_out[5]
*29 op_out[6]
*30 op_out[7]
*31 _000_
*32 _001_
*33 _002_
*34 _003_
*35 _004_
*36 _005_
*37 _006_
*38 _007_
*39 _008_
*40 _009_
*41 _010_
*42 _011_
*43 _012_
*44 _013_
*45 _014_
*46 _015_
*47 _016_
*48 _017_
*49 _018_
*50 _019_
*51 _020_
*52 _021_
*53 _022_
*54 _023_
*55 _024_
*56 _025_
*57 _026_
*58 _027_
*59 _028_
*60 _029_
*61 _030_
*62 _031_
*63 _032_
*64 _033_
*65 _034_
*66 _035_
*67 _036_
*68 _037_
*69 _038_
*70 _039_
*71 _040_
*72 _041_
*73 _042_
*74 _043_
*75 _044_
*76 _045_
*77 _046_
*78 _047_
*79 _048_
*80 _049_
*81 _050_
*82 _051_
*83 _052_
*84 _053_
*85 _054_
*86 _055_
*87 _056_
*88 _057_
*89 _058_
*90 _059_
*91 _060_
*92 _061_
*93 _062_
*94 _063_
*95 _064_
*96 _065_
*97 _066_
*98 _067_
*99 _068_
*100 _069_
*101 _070_
*102 _071_
*103 _072_
*104 _073_
*105 _074_
*106 _075_
*107 _076_
*108 _077_
*109 _078_
*110 _079_
*111 _080_
*112 _081_
*113 _082_
*114 _083_
*115 _084_
*116 _085_
*117 _086_
*118 _087_
*119 _088_
*120 _089_
*121 _090_
*122 _091_
*123 _092_
*124 _093_
*125 _094_
*126 _095_
*127 _096_
*128 _097_
*129 _098_
*130 _099_
*131 _100_
*132 _101_
*133 _102_
*134 _103_
*135 _104_
*136 _105_
*137 _106_
*138 _107_
*139 _108_
*140 _109_
*141 _110_
*142 _111_
*143 _112_
*144 _113_
*145 _114_
*146 _115_
*147 _116_
*148 _117_
*149 _118_
*150 _119_
*151 _120_
*152 _121_
*153 _122_
*154 _123_
*155 _124_
*156 _125_
*157 _126_
*158 _127_
*159 _128_
*160 _129_
*161 _130_
*162 _131_
*163 _132_
*164 _133_
*165 _134_
*166 _135_
*167 _136_
*168 _137_
*169 _138_
*170 _139_
*171 _140_
*172 _141_
*173 _142_
*174 _143_
*175 _144_
*176 _145_
*177 _146_
*178 _147_
*179 _148_
*180 _149_
*181 _150_
*182 _151_
*183 _152_
*184 _153_
*185 _154_
*186 _155_
*187 _156_
*188 _157_
*189 _158_
*190 _159_
*191 _160_
*192 _161_
*193 _162_
*194 _163_
*195 _164_
*196 _165_
*197 _166_
*198 _167_
*199 _168_
*200 _169_
*201 _170_
*202 _171_
*203 _172_
*204 _173_
*205 _174_
*206 _175_
*207 _176_
*208 _177_
*209 _178_
*210 _179_
*211 _180_
*212 _181_
*213 _182_
*214 _183_
*215 _184_
*216 _185_
*217 _186_
*218 _187_
*219 _188_
*220 _189_
*221 _190_
*222 _191_
*223 _192_
*224 _193_
*225 _194_
*226 _195_
*227 _196_
*228 _197_
*229 _198_
*230 _199_
*231 _200_
*232 _201_
*233 _202_
*234 _203_
*235 _204_
*236 _205_
*237 _206_
*238 _207_
*239 _208_
*240 _209_
*241 _210_
*242 _211_
*243 _212_
*244 _213_
*245 _214_
*246 _215_
*247 _216_
*248 _217_
*249 _218_
*250 _219_
*251 _220_
*252 _221_
*253 _222_
*254 _223_
*255 _224_
*256 _225_
*257 _226_
*258 _227_
*259 _228_
*260 _229_
*261 _230_
*262 _231_
*263 _232_
*264 _233_
*265 _234_
*266 _235_
*267 _236_
*268 _237_
*269 _238_
*270 _239_
*271 _240_
*272 _241_
*273 _242_
*274 _243_
*275 _244_
*276 _245_
*277 _246_
*278 _247_
*279 _248_
*280 _249_
*281 _250_
*282 _251_
*283 _252_
*284 _253_
*285 _254_
*286 _255_
*287 _256_
*288 _257_
*289 _258_
*290 _259_
*291 _260_
*292 _261_
*293 _262_
*294 _263_
*295 _264_
*296 _265_
*297 _266_
*298 _267_
*299 _268_
*300 _269_
*301 _270_
*302 _271_
*303 _272_
*304 _273_
*305 _274_
*306 _275_
*307 _276_
*308 _277_
*309 _278_
*310 _279_
*311 _280_
*312 _281_
*313 _282_
*314 _283_
*315 _284_
*316 _285_
*317 _286_
*318 _287_
*319 _288_
*320 _289_
*321 _290_
*322 _291_
*323 _292_
*324 _293_
*325 _294_
*326 _295_
*327 _296_
*328 _297_
*329 _298_
*330 _299_
*331 _300_
*332 _301_
*333 _302_
*334 _303_
*335 _304_
*336 _305_
*337 _306_
*338 _307_
*339 _308_
*340 _309_
*341 _310_
*342 _311_
*343 _312_
*344 _313_
*345 _314_
*346 _315_
*347 _316_
*348 _317_
*349 _318_
*350 _319_
*351 _320_
*352 _321_
*353 _322_
*354 _323_
*355 _324_
*356 _325_
*357 _326_
*358 _327_
*359 _328_
*360 _329_
*361 _330_
*362 _331_
*363 _332_
*364 _333_
*365 _334_
*366 _335_
*367 _336_
*368 _337_
*369 _338_
*370 _339_
*371 _340_
*372 _341_
*373 _342_
*374 _343_
*375 _344_
*376 _345_
*377 _346_
*378 _347_
*379 _348_
*380 _349_
*381 _350_
*382 _351_
*383 _352_
*384 _353_
*385 _354_
*386 _355_
*387 _356_
*388 _357_
*389 _358_
*390 _359_
*391 _360_
*392 _361_
*393 _362_
*394 _363_
*395 _364_
*396 _365_
*397 _366_
*398 _367_
*399 _368_
*400 _369_
*401 _370_
*402 _371_
*403 _372_
*404 _373_
*405 _374_
*406 _375_
*407 _376_
*408 _377_
*409 _378_
*410 _379_
*411 _380_
*412 _381_
*413 _382_
*414 _383_
*415 _384_
*416 _385_
*417 _386_
*418 _387_
*419 _388_
*420 _389_
*421 _390_
*422 _391_
*423 _392_
*424 _393_
*425 _394_
*426 _395_
*427 _396_
*428 _397_
*429 _398_
*430 _399_
*431 _400_
*432 _401_
*433 _402_
*434 _403_
*435 _404_
*436 _405_
*437 _406_
*438 _407_
*439 _408_
*440 _409_
*441 _410_
*442 _411_
*443 _412_
*444 _413_
*445 _414_
*446 _415_
*447 _416_
*448 _417_
*449 _418_
*450 _419_
*451 _420_
*452 _421_
*453 _422_
*454 _423_
*455 _424_
*456 _425_
*457 _426_
*458 _427_
*459 _428_
*460 _429_
*461 _430_
*462 _431_
*463 _432_
*464 _433_
*465 _434_
*466 _435_
*467 _436_
*468 _437_
*469 _438_
*470 _439_
*471 _440_
*472 _441_
*473 _442_
*474 _443_
*475 _444_
*476 _445_
*477 _446_
*478 _447_
*479 _448_
*480 _449_
*481 _450_
*482 _451_
*483 _452_
*484 _453_
*485 _454_
*486 _455_
*487 _456_
*488 _457_
*489 net1
*490 net10
*491 net11
*492 net12
*493 net13
*494 net14
*495 net15
*496 net16
*497 net17
*498 net18
*499 net19
*500 net2
*501 net20
*502 net21
*503 net22
*504 net23
*505 net24
*506 net25
*507 net26
*508 net27
*509 net28
*510 net29
*511 net3
*512 net30
*513 net31
*514 net32
*515 net33
*516 net34
*517 net35
*518 net36
*519 net37
*520 net38
*521 net39
*522 net4
*523 net40
*524 net41
*525 net42
*526 net43
*527 net44
*528 net45
*529 net46
*530 net47
*531 net48
*532 net49
*533 net5
*534 net50
*535 net51
*536 net52
*537 net53
*538 net54
*539 net55
*540 net56
*541 net57
*542 net58
*543 net59
*544 net6
*545 net60
*546 net61
*547 net62
*548 net63
*549 net64
*550 net65
*551 net66
*552 net67
*553 net68
*554 net69
*555 net7
*556 net70
*557 net71
*558 net72
*559 net73
*560 net74
*561 net8
*562 net9
*563 FILLER_0_110
*564 FILLER_0_113
*565 FILLER_0_125
*566 FILLER_0_137
*567 FILLER_0_141
*568 FILLER_0_15
*569 FILLER_0_153
*570 FILLER_0_165
*571 FILLER_0_169
*572 FILLER_0_181
*573 FILLER_0_193
*574 FILLER_0_197
*575 FILLER_0_209
*576 FILLER_0_221
*577 FILLER_0_27
*578 FILLER_0_29
*579 FILLER_0_3
*580 FILLER_0_41
*581 FILLER_0_49
*582 FILLER_0_55
*583 FILLER_0_57
*584 FILLER_0_69
*585 FILLER_0_77
*586 FILLER_0_83
*587 FILLER_0_98
*588 FILLER_10_116
*589 FILLER_10_141
*590 FILLER_10_15
*591 FILLER_10_153
*592 FILLER_10_165
*593 FILLER_10_177
*594 FILLER_10_189
*595 FILLER_10_193
*596 FILLER_10_205
*597 FILLER_10_215
*598 FILLER_10_219
*599 FILLER_10_27
*600 FILLER_10_29
*601 FILLER_10_3
*602 FILLER_10_41
*603 FILLER_10_53
*604 FILLER_10_79
*605 FILLER_10_83
*606 FILLER_10_95
*607 FILLER_11_100
*608 FILLER_11_106
*609 FILLER_11_125
*610 FILLER_11_133
*611 FILLER_11_141
*612 FILLER_11_148
*613 FILLER_11_15
*614 FILLER_11_160
*615 FILLER_11_169
*616 FILLER_11_177
*617 FILLER_11_189
*618 FILLER_11_201
*619 FILLER_11_213
*620 FILLER_11_221
*621 FILLER_11_27
*622 FILLER_11_3
*623 FILLER_11_39
*624 FILLER_11_51
*625 FILLER_11_55
*626 FILLER_11_57
*627 FILLER_11_61
*628 FILLER_11_73
*629 FILLER_11_81
*630 FILLER_11_88
*631 FILLER_12_117
*632 FILLER_12_129
*633 FILLER_12_137
*634 FILLER_12_146
*635 FILLER_12_15
*636 FILLER_12_158
*637 FILLER_12_170
*638 FILLER_12_183
*639 FILLER_12_195
*640 FILLER_12_197
*641 FILLER_12_209
*642 FILLER_12_217
*643 FILLER_12_23
*644 FILLER_12_27
*645 FILLER_12_3
*646 FILLER_12_32
*647 FILLER_12_58
*648 FILLER_12_77
*649 FILLER_12_83
*650 FILLER_12_85
*651 FILLER_13_105
*652 FILLER_13_111
*653 FILLER_13_113
*654 FILLER_13_125
*655 FILLER_13_137
*656 FILLER_13_148
*657 FILLER_13_15
*658 FILLER_13_179
*659 FILLER_13_183
*660 FILLER_13_19
*661 FILLER_13_223
*662 FILLER_13_3
*663 FILLER_13_35
*664 FILLER_13_45
*665 FILLER_13_53
*666 FILLER_13_63
*667 FILLER_13_75
*668 FILLER_13_89
*669 FILLER_13_93
*670 FILLER_14_108
*671 FILLER_14_120
*672 FILLER_14_124
*673 FILLER_14_136
*674 FILLER_14_15
*675 FILLER_14_161
*676 FILLER_14_173
*677 FILLER_14_195
*678 FILLER_14_205
*679 FILLER_14_217
*680 FILLER_14_3
*681 FILLER_14_38
*682 FILLER_14_49
*683 FILLER_14_61
*684 FILLER_14_73
*685 FILLER_14_96
*686 FILLER_15_113
*687 FILLER_15_134
*688 FILLER_15_150
*689 FILLER_15_162
*690 FILLER_15_169
*691 FILLER_15_181
*692 FILLER_15_19
*693 FILLER_15_197
*694 FILLER_15_207
*695 FILLER_15_219
*696 FILLER_15_223
*697 FILLER_15_3
*698 FILLER_15_31
*699 FILLER_15_43
*700 FILLER_15_55
*701 FILLER_15_63
*702 FILLER_15_74
*703 FILLER_15_86
*704 FILLER_15_98
*705 FILLER_16_11
*706 FILLER_16_114
*707 FILLER_16_139
*708 FILLER_16_141
*709 FILLER_16_153
*710 FILLER_16_161
*711 FILLER_16_165
*712 FILLER_16_177
*713 FILLER_16_189
*714 FILLER_16_195
*715 FILLER_16_197
*716 FILLER_16_209
*717 FILLER_16_21
*718 FILLER_16_217
*719 FILLER_16_223
*720 FILLER_16_27
*721 FILLER_16_29
*722 FILLER_16_3
*723 FILLER_16_41
*724 FILLER_16_82
*725 FILLER_16_85
*726 FILLER_16_97
*727 FILLER_17_101
*728 FILLER_17_107
*729 FILLER_17_11
*730 FILLER_17_111
*731 FILLER_17_120
*732 FILLER_17_134
*733 FILLER_17_142
*734 FILLER_17_160
*735 FILLER_17_177
*736 FILLER_17_189
*737 FILLER_17_20
*738 FILLER_17_201
*739 FILLER_17_207
*740 FILLER_17_219
*741 FILLER_17_223
*742 FILLER_17_3
*743 FILLER_17_35
*744 FILLER_17_47
*745 FILLER_17_55
*746 FILLER_17_64
*747 FILLER_17_70
*748 FILLER_17_76
*749 FILLER_17_83
*750 FILLER_17_88
*751 FILLER_17_94
*752 FILLER_18_107
*753 FILLER_18_115
*754 FILLER_18_131
*755 FILLER_18_139
*756 FILLER_18_141
*757 FILLER_18_15
*758 FILLER_18_150
*759 FILLER_18_162
*760 FILLER_18_166
*761 FILLER_18_184
*762 FILLER_18_197
*763 FILLER_18_218
*764 FILLER_18_27
*765 FILLER_18_29
*766 FILLER_18_3
*767 FILLER_18_41
*768 FILLER_18_53
*769 FILLER_18_65
*770 FILLER_18_7
*771 FILLER_18_79
*772 FILLER_18_83
*773 FILLER_18_85
*774 FILLER_18_97
*775 FILLER_19_111
*776 FILLER_19_113
*777 FILLER_19_117
*778 FILLER_19_125
*779 FILLER_19_134
*780 FILLER_19_142
*781 FILLER_19_148
*782 FILLER_19_15
*783 FILLER_19_160
*784 FILLER_19_169
*785 FILLER_19_181
*786 FILLER_19_207
*787 FILLER_19_217
*788 FILLER_19_223
*789 FILLER_19_29
*790 FILLER_19_3
*791 FILLER_19_52
*792 FILLER_19_67
*793 FILLER_19_87
*794 FILLER_19_99
*795 FILLER_1_105
*796 FILLER_1_111
*797 FILLER_1_113
*798 FILLER_1_125
*799 FILLER_1_137
*800 FILLER_1_149
*801 FILLER_1_15
*802 FILLER_1_161
*803 FILLER_1_167
*804 FILLER_1_169
*805 FILLER_1_181
*806 FILLER_1_193
*807 FILLER_1_205
*808 FILLER_1_217
*809 FILLER_1_223
*810 FILLER_1_27
*811 FILLER_1_3
*812 FILLER_1_39
*813 FILLER_1_51
*814 FILLER_1_55
*815 FILLER_1_57
*816 FILLER_1_69
*817 FILLER_1_81
*818 FILLER_1_93
*819 FILLER_20_106
*820 FILLER_20_11
*821 FILLER_20_110
*822 FILLER_20_127
*823 FILLER_20_135
*824 FILLER_20_139
*825 FILLER_20_146
*826 FILLER_20_153
*827 FILLER_20_163
*828 FILLER_20_175
*829 FILLER_20_187
*830 FILLER_20_195
*831 FILLER_20_197
*832 FILLER_20_208
*833 FILLER_20_220
*834 FILLER_20_26
*835 FILLER_20_3
*836 FILLER_20_41
*837 FILLER_20_48
*838 FILLER_20_65
*839 FILLER_20_79
*840 FILLER_20_83
*841 FILLER_20_85
*842 FILLER_20_93
*843 FILLER_20_99
*844 FILLER_21_109
*845 FILLER_21_11
*846 FILLER_21_145
*847 FILLER_21_154
*848 FILLER_21_166
*849 FILLER_21_172
*850 FILLER_21_189
*851 FILLER_21_201
*852 FILLER_21_213
*853 FILLER_21_221
*854 FILLER_21_23
*855 FILLER_21_3
*856 FILLER_21_35
*857 FILLER_21_47
*858 FILLER_21_55
*859 FILLER_21_57
*860 FILLER_21_65
*861 FILLER_21_77
*862 FILLER_21_85
*863 FILLER_22_14
*864 FILLER_22_141
*865 FILLER_22_147
*866 FILLER_22_153
*867 FILLER_22_162
*868 FILLER_22_174
*869 FILLER_22_195
*870 FILLER_22_200
*871 FILLER_22_217
*872 FILLER_22_223
*873 FILLER_22_26
*874 FILLER_22_3
*875 FILLER_22_38
*876 FILLER_22_44
*877 FILLER_22_52
*878 FILLER_22_64
*879 FILLER_22_75
*880 FILLER_22_83
*881 FILLER_22_85
*882 FILLER_22_93
*883 FILLER_23_106
*884 FILLER_23_113
*885 FILLER_23_123
*886 FILLER_23_138
*887 FILLER_23_15
*888 FILLER_23_150
*889 FILLER_23_162
*890 FILLER_23_172
*891 FILLER_23_184
*892 FILLER_23_196
*893 FILLER_23_208
*894 FILLER_23_222
*895 FILLER_23_27
*896 FILLER_23_3
*897 FILLER_23_41
*898 FILLER_23_52
*899 FILLER_23_7
*900 FILLER_23_72
*901 FILLER_23_80
*902 FILLER_23_94
*903 FILLER_24_105
*904 FILLER_24_11
*905 FILLER_24_112
*906 FILLER_24_124
*907 FILLER_24_138
*908 FILLER_24_141
*909 FILLER_24_152
*910 FILLER_24_167
*911 FILLER_24_179
*912 FILLER_24_190
*913 FILLER_24_202
*914 FILLER_24_214
*915 FILLER_24_222
*916 FILLER_24_3
*917 FILLER_24_32
*918 FILLER_24_40
*919 FILLER_24_46
*920 FILLER_24_59
*921 FILLER_24_73
*922 FILLER_24_81
*923 FILLER_24_85
*924 FILLER_24_97
*925 FILLER_25_100
*926 FILLER_25_108
*927 FILLER_25_121
*928 FILLER_25_154
*929 FILLER_25_165
*930 FILLER_25_169
*931 FILLER_25_177
*932 FILLER_25_193
*933 FILLER_25_199
*934 FILLER_25_208
*935 FILLER_25_215
*936 FILLER_25_223
*937 FILLER_25_3
*938 FILLER_25_31
*939 FILLER_25_50
*940 FILLER_25_57
*941 FILLER_25_82
*942 FILLER_26_108
*943 FILLER_26_127
*944 FILLER_26_139
*945 FILLER_26_141
*946 FILLER_26_159
*947 FILLER_26_189
*948 FILLER_26_205
*949 FILLER_26_209
*950 FILLER_26_220
*951 FILLER_26_29
*952 FILLER_26_40
*953 FILLER_26_44
*954 FILLER_26_56
*955 FILLER_26_64
*956 FILLER_26_7
*957 FILLER_26_74
*958 FILLER_26_82
*959 FILLER_26_85
*960 FILLER_26_96
*961 FILLER_27_101
*962 FILLER_27_109
*963 FILLER_27_113
*964 FILLER_27_125
*965 FILLER_27_137
*966 FILLER_27_151
*967 FILLER_27_163
*968 FILLER_27_167
*969 FILLER_27_169
*970 FILLER_27_181
*971 FILLER_27_193
*972 FILLER_27_205
*973 FILLER_27_209
*974 FILLER_27_217
*975 FILLER_27_223
*976 FILLER_27_29
*977 FILLER_27_3
*978 FILLER_27_37
*979 FILLER_27_51
*980 FILLER_27_65
*981 FILLER_27_77
*982 FILLER_27_89
*983 FILLER_28_103
*984 FILLER_28_115
*985 FILLER_28_131
*986 FILLER_28_139
*987 FILLER_28_141
*988 FILLER_28_15
*989 FILLER_28_153
*990 FILLER_28_165
*991 FILLER_28_184
*992 FILLER_28_206
*993 FILLER_28_218
*994 FILLER_28_25
*995 FILLER_28_29
*996 FILLER_28_3
*997 FILLER_28_37
*998 FILLER_28_54
*999 FILLER_28_66
*1000 FILLER_28_81
*1001 FILLER_28_85
*1002 FILLER_28_93
*1003 FILLER_29_111
*1004 FILLER_29_113
*1005 FILLER_29_128
*1006 FILLER_29_141
*1007 FILLER_29_149
*1008 FILLER_29_158
*1009 FILLER_29_167
*1010 FILLER_29_177
*1011 FILLER_29_188
*1012 FILLER_29_200
*1013 FILLER_29_21
*1014 FILLER_29_212
*1015 FILLER_29_222
*1016 FILLER_29_25
*1017 FILLER_29_3
*1018 FILLER_29_37
*1019 FILLER_29_45
*1020 FILLER_29_55
*1021 FILLER_29_67
*1022 FILLER_29_75
*1023 FILLER_29_87
*1024 FILLER_29_99
*1025 FILLER_2_109
*1026 FILLER_2_121
*1027 FILLER_2_136
*1028 FILLER_2_141
*1029 FILLER_2_15
*1030 FILLER_2_153
*1031 FILLER_2_165
*1032 FILLER_2_177
*1033 FILLER_2_189
*1034 FILLER_2_195
*1035 FILLER_2_197
*1036 FILLER_2_209
*1037 FILLER_2_221
*1038 FILLER_2_27
*1039 FILLER_2_29
*1040 FILLER_2_3
*1041 FILLER_2_41
*1042 FILLER_2_53
*1043 FILLER_2_65
*1044 FILLER_2_77
*1045 FILLER_2_83
*1046 FILLER_2_85
*1047 FILLER_2_97
*1048 FILLER_30_109
*1049 FILLER_30_132
*1050 FILLER_30_138
*1051 FILLER_30_141
*1052 FILLER_30_149
*1053 FILLER_30_168
*1054 FILLER_30_176
*1055 FILLER_30_190
*1056 FILLER_30_197
*1057 FILLER_30_205
*1058 FILLER_30_223
*1059 FILLER_30_26
*1060 FILLER_30_29
*1061 FILLER_30_41
*1062 FILLER_30_50
*1063 FILLER_30_67
*1064 FILLER_30_76
*1065 FILLER_30_80
*1066 FILLER_30_9
*1067 FILLER_30_90
*1068 FILLER_31_113
*1069 FILLER_31_125
*1070 FILLER_31_137
*1071 FILLER_31_149
*1072 FILLER_31_15
*1073 FILLER_31_161
*1074 FILLER_31_167
*1075 FILLER_31_169
*1076 FILLER_31_177
*1077 FILLER_31_184
*1078 FILLER_31_192
*1079 FILLER_31_210
*1080 FILLER_31_220
*1081 FILLER_31_3
*1082 FILLER_31_32
*1083 FILLER_31_44
*1084 FILLER_31_57
*1085 FILLER_31_69
*1086 FILLER_31_81
*1087 FILLER_31_98
*1088 FILLER_32_105
*1089 FILLER_32_117
*1090 FILLER_32_129
*1091 FILLER_32_137
*1092 FILLER_32_141
*1093 FILLER_32_147
*1094 FILLER_32_154
*1095 FILLER_32_160
*1096 FILLER_32_168
*1097 FILLER_32_177
*1098 FILLER_32_194
*1099 FILLER_32_207
*1100 FILLER_32_219
*1101 FILLER_32_22
*1102 FILLER_32_36
*1103 FILLER_32_48
*1104 FILLER_32_54
*1105 FILLER_32_66
*1106 FILLER_32_78
*1107 FILLER_32_85
*1108 FILLER_32_97
*1109 FILLER_33_100
*1110 FILLER_33_113
*1111 FILLER_33_125
*1112 FILLER_33_160
*1113 FILLER_33_176
*1114 FILLER_33_188
*1115 FILLER_33_192
*1116 FILLER_33_196
*1117 FILLER_33_207
*1118 FILLER_33_219
*1119 FILLER_33_223
*1120 FILLER_33_26
*1121 FILLER_33_36
*1122 FILLER_33_48
*1123 FILLER_33_76
*1124 FILLER_33_88
*1125 FILLER_34_101
*1126 FILLER_34_113
*1127 FILLER_34_12
*1128 FILLER_34_136
*1129 FILLER_34_158
*1130 FILLER_34_170
*1131 FILLER_34_180
*1132 FILLER_34_192
*1133 FILLER_34_197
*1134 FILLER_34_216
*1135 FILLER_34_26
*1136 FILLER_34_45
*1137 FILLER_34_57
*1138 FILLER_34_61
*1139 FILLER_34_79
*1140 FILLER_34_83
*1141 FILLER_34_85
*1142 FILLER_34_91
*1143 FILLER_35_107
*1144 FILLER_35_111
*1145 FILLER_35_122
*1146 FILLER_35_142
*1147 FILLER_35_163
*1148 FILLER_35_167
*1149 FILLER_35_169
*1150 FILLER_35_173
*1151 FILLER_35_191
*1152 FILLER_35_203
*1153 FILLER_35_209
*1154 FILLER_35_213
*1155 FILLER_35_217
*1156 FILLER_35_223
*1157 FILLER_35_27
*1158 FILLER_35_3
*1159 FILLER_35_39
*1160 FILLER_35_47
*1161 FILLER_35_53
*1162 FILLER_35_57
*1163 FILLER_35_69
*1164 FILLER_35_7
*1165 FILLER_35_89
*1166 FILLER_36_100
*1167 FILLER_36_112
*1168 FILLER_36_116
*1169 FILLER_36_131
*1170 FILLER_36_138
*1171 FILLER_36_141
*1172 FILLER_36_173
*1173 FILLER_36_177
*1174 FILLER_36_194
*1175 FILLER_36_218
*1176 FILLER_36_3
*1177 FILLER_36_50
*1178 FILLER_36_58
*1179 FILLER_36_66
*1180 FILLER_36_75
*1181 FILLER_36_83
*1182 FILLER_36_85
*1183 FILLER_36_91
*1184 FILLER_37_105
*1185 FILLER_37_111
*1186 FILLER_37_113
*1187 FILLER_37_125
*1188 FILLER_37_135
*1189 FILLER_37_139
*1190 FILLER_37_155
*1191 FILLER_37_167
*1192 FILLER_37_172
*1193 FILLER_37_184
*1194 FILLER_37_197
*1195 FILLER_37_208
*1196 FILLER_37_220
*1197 FILLER_37_25
*1198 FILLER_37_29
*1199 FILLER_37_3
*1200 FILLER_37_41
*1201 FILLER_37_53
*1202 FILLER_37_57
*1203 FILLER_37_69
*1204 FILLER_37_81
*1205 FILLER_3_105
*1206 FILLER_3_111
*1207 FILLER_3_113
*1208 FILLER_3_125
*1209 FILLER_3_131
*1210 FILLER_3_139
*1211 FILLER_3_15
*1212 FILLER_3_151
*1213 FILLER_3_158
*1214 FILLER_3_166
*1215 FILLER_3_169
*1216 FILLER_3_181
*1217 FILLER_3_193
*1218 FILLER_3_205
*1219 FILLER_3_217
*1220 FILLER_3_223
*1221 FILLER_3_27
*1222 FILLER_3_3
*1223 FILLER_3_39
*1224 FILLER_3_51
*1225 FILLER_3_55
*1226 FILLER_3_57
*1227 FILLER_3_69
*1228 FILLER_3_81
*1229 FILLER_3_93
*1230 FILLER_4_109
*1231 FILLER_4_121
*1232 FILLER_4_134
*1233 FILLER_4_141
*1234 FILLER_4_15
*1235 FILLER_4_153
*1236 FILLER_4_166
*1237 FILLER_4_178
*1238 FILLER_4_190
*1239 FILLER_4_197
*1240 FILLER_4_209
*1241 FILLER_4_221
*1242 FILLER_4_27
*1243 FILLER_4_29
*1244 FILLER_4_3
*1245 FILLER_4_41
*1246 FILLER_4_53
*1247 FILLER_4_65
*1248 FILLER_4_77
*1249 FILLER_4_83
*1250 FILLER_4_85
*1251 FILLER_4_97
*1252 FILLER_5_104
*1253 FILLER_5_113
*1254 FILLER_5_125
*1255 FILLER_5_130
*1256 FILLER_5_142
*1257 FILLER_5_15
*1258 FILLER_5_150
*1259 FILLER_5_164
*1260 FILLER_5_169
*1261 FILLER_5_179
*1262 FILLER_5_191
*1263 FILLER_5_203
*1264 FILLER_5_215
*1265 FILLER_5_223
*1266 FILLER_5_27
*1267 FILLER_5_3
*1268 FILLER_5_39
*1269 FILLER_5_51
*1270 FILLER_5_55
*1271 FILLER_5_57
*1272 FILLER_5_69
*1273 FILLER_5_80
*1274 FILLER_5_92
*1275 FILLER_6_123
*1276 FILLER_6_135
*1277 FILLER_6_139
*1278 FILLER_6_141
*1279 FILLER_6_147
*1280 FILLER_6_15
*1281 FILLER_6_159
*1282 FILLER_6_171
*1283 FILLER_6_183
*1284 FILLER_6_194
*1285 FILLER_6_197
*1286 FILLER_6_209
*1287 FILLER_6_221
*1288 FILLER_6_27
*1289 FILLER_6_29
*1290 FILLER_6_3
*1291 FILLER_6_41
*1292 FILLER_6_53
*1293 FILLER_6_65
*1294 FILLER_6_81
*1295 FILLER_6_85
*1296 FILLER_6_97
*1297 FILLER_7_116
*1298 FILLER_7_126
*1299 FILLER_7_130
*1300 FILLER_7_136
*1301 FILLER_7_140
*1302 FILLER_7_15
*1303 FILLER_7_150
*1304 FILLER_7_162
*1305 FILLER_7_169
*1306 FILLER_7_184
*1307 FILLER_7_196
*1308 FILLER_7_208
*1309 FILLER_7_220
*1310 FILLER_7_27
*1311 FILLER_7_3
*1312 FILLER_7_39
*1313 FILLER_7_51
*1314 FILLER_7_55
*1315 FILLER_7_57
*1316 FILLER_7_69
*1317 FILLER_7_98
*1318 FILLER_8_121
*1319 FILLER_8_133
*1320 FILLER_8_139
*1321 FILLER_8_141
*1322 FILLER_8_15
*1323 FILLER_8_155
*1324 FILLER_8_178
*1325 FILLER_8_190
*1326 FILLER_8_197
*1327 FILLER_8_212
*1328 FILLER_8_27
*1329 FILLER_8_29
*1330 FILLER_8_3
*1331 FILLER_8_37
*1332 FILLER_8_45
*1333 FILLER_8_55
*1334 FILLER_8_59
*1335 FILLER_8_63
*1336 FILLER_8_71
*1337 FILLER_8_85
*1338 FILLER_8_97
*1339 FILLER_9_100
*1340 FILLER_9_108
*1341 FILLER_9_113
*1342 FILLER_9_125
*1343 FILLER_9_137
*1344 FILLER_9_149
*1345 FILLER_9_15
*1346 FILLER_9_166
*1347 FILLER_9_169
*1348 FILLER_9_177
*1349 FILLER_9_182
*1350 FILLER_9_194
*1351 FILLER_9_205
*1352 FILLER_9_213
*1353 FILLER_9_217
*1354 FILLER_9_27
*1355 FILLER_9_3
*1356 FILLER_9_53
*1357 FILLER_9_57
*1358 FILLER_9_61
*1359 FILLER_9_68
*1360 FILLER_9_80
*1361 FILLER_9_92
*1362 PHY_EDGE_ROW_0_Left_38
*1363 PHY_EDGE_ROW_0_Right_0
*1364 PHY_EDGE_ROW_10_Left_48
*1365 PHY_EDGE_ROW_10_Right_10
*1366 PHY_EDGE_ROW_11_Left_49
*1367 PHY_EDGE_ROW_11_Right_11
*1368 PHY_EDGE_ROW_12_Left_50
*1369 PHY_EDGE_ROW_12_Right_12
*1370 PHY_EDGE_ROW_13_Left_51
*1371 PHY_EDGE_ROW_13_Right_13
*1372 PHY_EDGE_ROW_14_Left_52
*1373 PHY_EDGE_ROW_14_Right_14
*1374 PHY_EDGE_ROW_15_Left_53
*1375 PHY_EDGE_ROW_15_Right_15
*1376 PHY_EDGE_ROW_16_Left_54
*1377 PHY_EDGE_ROW_16_Right_16
*1378 PHY_EDGE_ROW_17_Left_55
*1379 PHY_EDGE_ROW_17_Right_17
*1380 PHY_EDGE_ROW_18_Left_56
*1381 PHY_EDGE_ROW_18_Right_18
*1382 PHY_EDGE_ROW_19_Left_57
*1383 PHY_EDGE_ROW_19_Right_19
*1384 PHY_EDGE_ROW_1_Left_39
*1385 PHY_EDGE_ROW_1_Right_1
*1386 PHY_EDGE_ROW_20_Left_58
*1387 PHY_EDGE_ROW_20_Right_20
*1388 PHY_EDGE_ROW_21_Left_59
*1389 PHY_EDGE_ROW_21_Right_21
*1390 PHY_EDGE_ROW_22_Left_60
*1391 PHY_EDGE_ROW_22_Right_22
*1392 PHY_EDGE_ROW_23_Left_61
*1393 PHY_EDGE_ROW_23_Right_23
*1394 PHY_EDGE_ROW_24_Left_62
*1395 PHY_EDGE_ROW_24_Right_24
*1396 PHY_EDGE_ROW_25_Left_63
*1397 PHY_EDGE_ROW_25_Right_25
*1398 PHY_EDGE_ROW_26_Left_64
*1399 PHY_EDGE_ROW_26_Right_26
*1400 PHY_EDGE_ROW_27_Left_65
*1401 PHY_EDGE_ROW_27_Right_27
*1402 PHY_EDGE_ROW_28_Left_66
*1403 PHY_EDGE_ROW_28_Right_28
*1404 PHY_EDGE_ROW_29_Left_67
*1405 PHY_EDGE_ROW_29_Right_29
*1406 PHY_EDGE_ROW_2_Left_40
*1407 PHY_EDGE_ROW_2_Right_2
*1408 PHY_EDGE_ROW_30_Left_68
*1409 PHY_EDGE_ROW_30_Right_30
*1410 PHY_EDGE_ROW_31_Left_69
*1411 PHY_EDGE_ROW_31_Right_31
*1412 PHY_EDGE_ROW_32_Left_70
*1413 PHY_EDGE_ROW_32_Right_32
*1414 PHY_EDGE_ROW_33_Left_71
*1415 PHY_EDGE_ROW_33_Right_33
*1416 PHY_EDGE_ROW_34_Left_72
*1417 PHY_EDGE_ROW_34_Right_34
*1418 PHY_EDGE_ROW_35_Left_73
*1419 PHY_EDGE_ROW_35_Right_35
*1420 PHY_EDGE_ROW_36_Left_74
*1421 PHY_EDGE_ROW_36_Right_36
*1422 PHY_EDGE_ROW_37_Left_75
*1423 PHY_EDGE_ROW_37_Right_37
*1424 PHY_EDGE_ROW_3_Left_41
*1425 PHY_EDGE_ROW_3_Right_3
*1426 PHY_EDGE_ROW_4_Left_42
*1427 PHY_EDGE_ROW_4_Right_4
*1428 PHY_EDGE_ROW_5_Left_43
*1429 PHY_EDGE_ROW_5_Right_5
*1430 PHY_EDGE_ROW_6_Left_44
*1431 PHY_EDGE_ROW_6_Right_6
*1432 PHY_EDGE_ROW_7_Left_45
*1433 PHY_EDGE_ROW_7_Right_7
*1434 PHY_EDGE_ROW_8_Left_46
*1435 PHY_EDGE_ROW_8_Right_8
*1436 PHY_EDGE_ROW_9_Left_47
*1437 PHY_EDGE_ROW_9_Right_9
*1438 TAP_TAPCELL_ROW_0_76
*1439 TAP_TAPCELL_ROW_0_77
*1440 TAP_TAPCELL_ROW_0_78
*1441 TAP_TAPCELL_ROW_0_79
*1442 TAP_TAPCELL_ROW_0_80
*1443 TAP_TAPCELL_ROW_0_81
*1444 TAP_TAPCELL_ROW_0_82
*1445 TAP_TAPCELL_ROW_10_114
*1446 TAP_TAPCELL_ROW_10_115
*1447 TAP_TAPCELL_ROW_10_116
*1448 TAP_TAPCELL_ROW_10_117
*1449 TAP_TAPCELL_ROW_11_118
*1450 TAP_TAPCELL_ROW_11_119
*1451 TAP_TAPCELL_ROW_11_120
*1452 TAP_TAPCELL_ROW_12_121
*1453 TAP_TAPCELL_ROW_12_122
*1454 TAP_TAPCELL_ROW_12_123
*1455 TAP_TAPCELL_ROW_12_124
*1456 TAP_TAPCELL_ROW_13_125
*1457 TAP_TAPCELL_ROW_13_126
*1458 TAP_TAPCELL_ROW_13_127
*1459 TAP_TAPCELL_ROW_14_128
*1460 TAP_TAPCELL_ROW_14_129
*1461 TAP_TAPCELL_ROW_14_130
*1462 TAP_TAPCELL_ROW_14_131
*1463 TAP_TAPCELL_ROW_15_132
*1464 TAP_TAPCELL_ROW_15_133
*1465 TAP_TAPCELL_ROW_15_134
*1466 TAP_TAPCELL_ROW_16_135
*1467 TAP_TAPCELL_ROW_16_136
*1468 TAP_TAPCELL_ROW_16_137
*1469 TAP_TAPCELL_ROW_16_138
*1470 TAP_TAPCELL_ROW_17_139
*1471 TAP_TAPCELL_ROW_17_140
*1472 TAP_TAPCELL_ROW_17_141
*1473 TAP_TAPCELL_ROW_18_142
*1474 TAP_TAPCELL_ROW_18_143
*1475 TAP_TAPCELL_ROW_18_144
*1476 TAP_TAPCELL_ROW_18_145
*1477 TAP_TAPCELL_ROW_19_146
*1478 TAP_TAPCELL_ROW_19_147
*1479 TAP_TAPCELL_ROW_19_148
*1480 TAP_TAPCELL_ROW_1_83
*1481 TAP_TAPCELL_ROW_1_84
*1482 TAP_TAPCELL_ROW_1_85
*1483 TAP_TAPCELL_ROW_20_149
*1484 TAP_TAPCELL_ROW_20_150
*1485 TAP_TAPCELL_ROW_20_151
*1486 TAP_TAPCELL_ROW_20_152
*1487 TAP_TAPCELL_ROW_21_153
*1488 TAP_TAPCELL_ROW_21_154
*1489 TAP_TAPCELL_ROW_21_155
*1490 TAP_TAPCELL_ROW_22_156
*1491 TAP_TAPCELL_ROW_22_157
*1492 TAP_TAPCELL_ROW_22_158
*1493 TAP_TAPCELL_ROW_22_159
*1494 TAP_TAPCELL_ROW_23_160
*1495 TAP_TAPCELL_ROW_23_161
*1496 TAP_TAPCELL_ROW_23_162
*1497 TAP_TAPCELL_ROW_24_163
*1498 TAP_TAPCELL_ROW_24_164
*1499 TAP_TAPCELL_ROW_24_165
*1500 TAP_TAPCELL_ROW_24_166
*1501 TAP_TAPCELL_ROW_25_167
*1502 TAP_TAPCELL_ROW_25_168
*1503 TAP_TAPCELL_ROW_25_169
*1504 TAP_TAPCELL_ROW_26_170
*1505 TAP_TAPCELL_ROW_26_171
*1506 TAP_TAPCELL_ROW_26_172
*1507 TAP_TAPCELL_ROW_26_173
*1508 TAP_TAPCELL_ROW_27_174
*1509 TAP_TAPCELL_ROW_27_175
*1510 TAP_TAPCELL_ROW_27_176
*1511 TAP_TAPCELL_ROW_28_177
*1512 TAP_TAPCELL_ROW_28_178
*1513 TAP_TAPCELL_ROW_28_179
*1514 TAP_TAPCELL_ROW_28_180
*1515 TAP_TAPCELL_ROW_29_181
*1516 TAP_TAPCELL_ROW_29_182
*1517 TAP_TAPCELL_ROW_29_183
*1518 TAP_TAPCELL_ROW_2_86
*1519 TAP_TAPCELL_ROW_2_87
*1520 TAP_TAPCELL_ROW_2_88
*1521 TAP_TAPCELL_ROW_2_89
*1522 TAP_TAPCELL_ROW_30_184
*1523 TAP_TAPCELL_ROW_30_185
*1524 TAP_TAPCELL_ROW_30_186
*1525 TAP_TAPCELL_ROW_30_187
*1526 TAP_TAPCELL_ROW_31_188
*1527 TAP_TAPCELL_ROW_31_189
*1528 TAP_TAPCELL_ROW_31_190
*1529 TAP_TAPCELL_ROW_32_191
*1530 TAP_TAPCELL_ROW_32_192
*1531 TAP_TAPCELL_ROW_32_193
*1532 TAP_TAPCELL_ROW_32_194
*1533 TAP_TAPCELL_ROW_33_195
*1534 TAP_TAPCELL_ROW_33_196
*1535 TAP_TAPCELL_ROW_33_197
*1536 TAP_TAPCELL_ROW_34_198
*1537 TAP_TAPCELL_ROW_34_199
*1538 TAP_TAPCELL_ROW_34_200
*1539 TAP_TAPCELL_ROW_34_201
*1540 TAP_TAPCELL_ROW_35_202
*1541 TAP_TAPCELL_ROW_35_203
*1542 TAP_TAPCELL_ROW_35_204
*1543 TAP_TAPCELL_ROW_36_205
*1544 TAP_TAPCELL_ROW_36_206
*1545 TAP_TAPCELL_ROW_36_207
*1546 TAP_TAPCELL_ROW_36_208
*1547 TAP_TAPCELL_ROW_37_209
*1548 TAP_TAPCELL_ROW_37_210
*1549 TAP_TAPCELL_ROW_37_211
*1550 TAP_TAPCELL_ROW_37_212
*1551 TAP_TAPCELL_ROW_37_213
*1552 TAP_TAPCELL_ROW_37_214
*1553 TAP_TAPCELL_ROW_37_215
*1554 TAP_TAPCELL_ROW_3_90
*1555 TAP_TAPCELL_ROW_3_91
*1556 TAP_TAPCELL_ROW_3_92
*1557 TAP_TAPCELL_ROW_4_93
*1558 TAP_TAPCELL_ROW_4_94
*1559 TAP_TAPCELL_ROW_4_95
*1560 TAP_TAPCELL_ROW_4_96
*1561 TAP_TAPCELL_ROW_5_97
*1562 TAP_TAPCELL_ROW_5_98
*1563 TAP_TAPCELL_ROW_5_99
*1564 TAP_TAPCELL_ROW_6_100
*1565 TAP_TAPCELL_ROW_6_101
*1566 TAP_TAPCELL_ROW_6_102
*1567 TAP_TAPCELL_ROW_6_103
*1568 TAP_TAPCELL_ROW_7_104
*1569 TAP_TAPCELL_ROW_7_105
*1570 TAP_TAPCELL_ROW_7_106
*1571 TAP_TAPCELL_ROW_8_107
*1572 TAP_TAPCELL_ROW_8_108
*1573 TAP_TAPCELL_ROW_8_109
*1574 TAP_TAPCELL_ROW_8_110
*1575 TAP_TAPCELL_ROW_9_111
*1576 TAP_TAPCELL_ROW_9_112
*1577 TAP_TAPCELL_ROW_9_113
*1578 _458_
*1579 _459_
*1580 _460_
*1581 _461_
*1582 _462_
*1583 _463_
*1584 _464_
*1585 _465_
*1586 _466_
*1587 _467_
*1588 _468_
*1589 _469_
*1590 _470_
*1591 _471_
*1592 _472_
*1593 _473_
*1594 _474_
*1595 _475_
*1596 _476_
*1597 _477_
*1598 _478_
*1599 _479_
*1600 _480_
*1601 _481_
*1602 _482_
*1603 _483_
*1604 _484_
*1605 _485_
*1606 _486_
*1607 _487_
*1608 _488_
*1609 _489_
*1610 _490_
*1611 _491_
*1612 _492_
*1613 _493_
*1614 _494_
*1615 _495_
*1616 _496_
*1617 _497_
*1618 _498_
*1619 _499_
*1620 _500_
*1621 _501_
*1622 _502_
*1623 _503_
*1624 _504_
*1625 _505_
*1626 _506_
*1627 _507_
*1628 _508_
*1629 _509_
*1630 _510_
*1631 _511_
*1632 _512_
*1633 _513_
*1634 _514_
*1635 _515_
*1636 _516_
*1637 _517_
*1638 _518_
*1639 _519_
*1640 _520_
*1641 _521_
*1642 _522_
*1643 _523_
*1644 _524_
*1645 _525_
*1646 _526_
*1647 _527_
*1648 _528_
*1649 _529_
*1650 _530_
*1651 _531_
*1652 _532_
*1653 _533_
*1654 _534_
*1655 _535_
*1656 _536_
*1657 _537_
*1658 _538_
*1659 _539_
*1660 _540_
*1661 _541_
*1662 _542_
*1663 _543_
*1664 _544_
*1665 _545_
*1666 _546_
*1667 _547_
*1668 _548_
*1669 _549_
*1670 _550_
*1671 _551_
*1672 _552_
*1673 _553_
*1674 _554_
*1675 _555_
*1676 _556_
*1677 _557_
*1678 _558_
*1679 _559_
*1680 _560_
*1681 _561_
*1682 _562_
*1683 _563_
*1684 _564_
*1685 _565_
*1686 _566_
*1687 _567_
*1688 _568_
*1689 _569_
*1690 _570_
*1691 _571_
*1692 _572_
*1693 _573_
*1694 _574_
*1695 _575_
*1696 _576_
*1697 _577_
*1698 _578_
*1699 _579_
*1700 _580_
*1701 _581_
*1702 _582_
*1703 _583_
*1704 _584_
*1705 _585_
*1706 _586_
*1707 _587_
*1708 _588_
*1709 _589_
*1710 _590_
*1711 _591_
*1712 _592_
*1713 _593_
*1714 _594_
*1715 _595_
*1716 _596_
*1717 _597_
*1718 _598_
*1719 _599_
*1720 _600_
*1721 _601_
*1722 _602_
*1723 _603_
*1724 _604_
*1725 _605_
*1726 _606_
*1727 _607_
*1728 _608_
*1729 _609_
*1730 _610_
*1731 _611_
*1732 _612_
*1733 _613_
*1734 _614_
*1735 _615_
*1736 _616_
*1737 _617_
*1738 _618_
*1739 _619_
*1740 _620_
*1741 _621_
*1742 _622_
*1743 _623_
*1744 _624_
*1745 _625_
*1746 _626_
*1747 _627_
*1748 _628_
*1749 _629_
*1750 _630_
*1751 _631_
*1752 _632_
*1753 _633_
*1754 _634_
*1755 _635_
*1756 _636_
*1757 _637_
*1758 _638_
*1759 _639_
*1760 _640_
*1761 _641_
*1762 _642_
*1763 _643_
*1764 _644_
*1765 _645_
*1766 _646_
*1767 _647_
*1768 _648_
*1769 _649_
*1770 _650_
*1771 _651_
*1772 _652_
*1773 _653_
*1774 _654_
*1775 _655_
*1776 _656_
*1777 _657_
*1778 _658_
*1779 _659_
*1780 _660_
*1781 _661_
*1782 _662_
*1783 _663_
*1784 _664_
*1785 _665_
*1786 _666_
*1787 _667_
*1788 _668_
*1789 _669_
*1790 _670_
*1791 _671_
*1792 _672_
*1793 _673_
*1794 _674_
*1795 _675_
*1796 _676_
*1797 _677_
*1798 _678_
*1799 _679_
*1800 _680_
*1801 _681_
*1802 _682_
*1803 _683_
*1804 _684_
*1805 _685_
*1806 _686_
*1807 _687_
*1808 _688_
*1809 _689_
*1810 _690_
*1811 _691_
*1812 _692_
*1813 _693_
*1814 _694_
*1815 _695_
*1816 _696_
*1817 _697_
*1818 _698_
*1819 _699_
*1820 _700_
*1821 _701_
*1822 _702_
*1823 _703_
*1824 _704_
*1825 _705_
*1826 _706_
*1827 _707_
*1828 _708_
*1829 _709_
*1830 _710_
*1831 _711_
*1832 _712_
*1833 _713_
*1834 _714_
*1835 _715_
*1836 _716_
*1837 _717_
*1838 _718_
*1839 _719_
*1840 _720_
*1841 _721_
*1842 _722_
*1843 _723_
*1844 _724_
*1845 _725_
*1846 _726_
*1847 _727_
*1848 _728_
*1849 _729_
*1850 _730_
*1851 _731_
*1852 _732_
*1853 _733_
*1854 _734_
*1855 _735_
*1856 _736_
*1857 _737_
*1858 _738_
*1859 _739_
*1860 _740_
*1861 _741_
*1862 _742_
*1863 _743_
*1864 _744_
*1865 _745_
*1866 _746_
*1867 _747_
*1868 _748_
*1869 _749_
*1870 _750_
*1871 _751_
*1872 _752_
*1873 _753_
*1874 _754_
*1875 _755_
*1876 _756_
*1877 _757_
*1878 _758_
*1879 _759_
*1880 _760_
*1881 _761_
*1882 _762_
*1883 _763_
*1884 _764_
*1885 _765_
*1886 _766_
*1887 _767_
*1888 _768_
*1889 _769_
*1890 _770_
*1891 _771_
*1892 _772_
*1893 _773_
*1894 _774_
*1895 _775_
*1896 _776_
*1897 _777_
*1898 _778_
*1899 _779_
*1900 _780_
*1901 _781_
*1902 _782_
*1903 _783_
*1904 _784_
*1905 _785_
*1906 _786_
*1907 _787_
*1908 _788_
*1909 _789_
*1910 _790_
*1911 _791_
*1912 _792_
*1913 _793_
*1914 _794_
*1915 _795_
*1916 _796_
*1917 _797_
*1918 _798_
*1919 _799_
*1920 _800_
*1921 _801_
*1922 _802_
*1923 _803_
*1924 _804_
*1925 _805_
*1926 _806_
*1927 _807_
*1928 _808_
*1929 _809_
*1930 _810_
*1931 _811_
*1932 _812_
*1933 _813_
*1934 _814_
*1935 _815_
*1936 _816_
*1937 _817_
*1938 _818_
*1939 _819_
*1940 _820_
*1941 _821_
*1942 _822_
*1943 _823_
*1944 _824_
*1945 _825_
*1946 _826_
*1947 _827_
*1948 _828_
*1949 _829_
*1950 _830_
*1951 _831_
*1952 _832_
*1953 _833_
*1954 _834_
*1955 _835_
*1956 _836_
*1957 _837_
*1958 _838_
*1959 _839_
*1960 _840_
*1961 _841_
*1962 _842_
*1963 _843_
*1964 _844_
*1965 _845_
*1966 _846_
*1967 _847_
*1968 _848_
*1969 _849_
*1970 _850_
*1971 _851_
*1972 _852_
*1973 _853_
*1974 _854_
*1975 _855_
*1976 _856_
*1977 _857_
*1978 _858_
*1979 _859_
*1980 _860_
*1981 _861_
*1982 _862_
*1983 _863_
*1984 _864_
*1985 _865_
*1986 _866_
*1987 _867_
*1988 _868_
*1989 _869_
*1990 _870_
*1991 _871_
*1992 _872_
*1993 _873_
*1994 _874_
*1995 _875_
*1996 _876_
*1997 _877_
*1998 _878_
*1999 _879_
*2000 _880_
*2001 _881_
*2002 _882_
*2003 _883_
*2004 _884_
*2005 _885_
*2006 _886_
*2007 _887_
*2008 _888_
*2009 _889_
*2010 _890_
*2011 _891_
*2012 _892_
*2013 _893_
*2014 _894_
*2015 _895_
*2016 _896_
*2017 _897_
*2018 _898_
*2019 _899_
*2020 _900_
*2021 _901_
*2022 _902_
*2023 _903_
*2024 _904_
*2025 _905_
*2026 _906_
*2027 _907_
*2028 _908_
*2029 _909_
*2030 _910_
*2031 _911_
*2032 _912_
*2033 _913_
*2034 _914_
*2035 _915_
*2036 _916_
*2037 _917_
*2038 _918_
*2039 _919_
*2040 _920_
*2041 _921_
*2042 _922_
*2043 _923_
*2044 clone1
*2045 fanout29
*2046 fanout30
*2047 fanout31
*2048 fanout32
*2049 fanout33
*2050 fanout34
*2051 fanout35
*2052 fanout36
*2053 fanout37
*2054 fanout38
*2055 fanout39
*2056 fanout40
*2057 input1
*2058 input10
*2059 input11
*2060 input12
*2061 input13
*2062 input14
*2063 input15
*2064 input16
*2065 input17
*2066 input18
*2067 input19
*2068 input2
*2069 input20
*2070 input3
*2071 input4
*2072 input5
*2073 input6
*2074 input7
*2075 input8
*2076 input9
*2077 output21
*2078 output22
*2079 output23
*2080 output24
*2081 output25
*2082 output26
*2083 output27
*2084 output28
*2085 rebuffer10
*2086 rebuffer11
*2087 rebuffer12
*2088 rebuffer13
*2089 rebuffer14
*2090 rebuffer15
*2091 rebuffer16
*2092 rebuffer17
*2093 rebuffer18
*2094 rebuffer19
*2095 rebuffer2
*2096 rebuffer20
*2097 rebuffer21
*2098 rebuffer22
*2099 rebuffer23
*2100 rebuffer24
*2101 rebuffer25
*2102 rebuffer26
*2103 rebuffer27
*2104 rebuffer28
*2105 rebuffer29
*2106 rebuffer3
*2107 rebuffer30
*2108 rebuffer31
*2109 rebuffer32
*2110 rebuffer33
*2111 rebuffer34
*2112 rebuffer4
*2113 rebuffer5
*2114 rebuffer6
*2115 rebuffer7
*2116 rebuffer8
*2117 rebuffer9

*PORTS
inst[0] I
inst[1] I
inst[2] I
inst[3] I
op_a[0] I
op_a[1] I
op_a[2] I
op_a[3] I
op_a[4] I
op_a[5] I
op_a[6] I
op_a[7] I
op_b[0] I
op_b[1] I
op_b[2] I
op_b[3] I
op_b[4] I
op_b[5] I
op_b[6] I
op_b[7] I
op_out[0] O
op_out[1] O
op_out[2] O
op_out[3] O
op_out[4] O
op_out[5] O
op_out[6] O
op_out[7] O

*D_NET *3 0.00120707
*CONN
*P inst[0] I
*I *2057:A I *D sky130_fd_sc_hd__dlymetal6s2s_1
*CAP
1 inst[0] 0.000521098
2 *2057:A 0.000521098
3 *2057:A op_out[1] 0
4 *2057:A *2071:A 0
5 *2057:A *2078:A 0
6 *2057:A *489:10 0.000164874
*RES
1 inst[0] *2057:A 13.2 
*END

*D_NET *4 0.000877455
*CONN
*P inst[1] I
*I *2068:A I *D sky130_fd_sc_hd__dlymetal6s2s_1
*CAP
1 inst[1] 0.000438728
2 *2068:A 0.000438728
3 *2068:A op_out[0] 0
4 *2068:A op_out[3] 0
5 *2068:A *2080:A 0
*RES
1 inst[1] *2068:A 11.37 
*END

*D_NET *5 0.00150313
*CONN
*P inst[2] I
*I *2070:A I *D sky130_fd_sc_hd__buf_2
*CAP
1 inst[2] 0.000715843
2 *2070:A 0.000715843
3 *2070:A *2060:A 0
4 *2070:A *2071:A 0
5 *2070:A *492:14 5.30673e-05
6 *2070:A *522:10 1.83756e-05
*RES
1 inst[2] *2070:A 15.96 
*END

*D_NET *6 0.001249
*CONN
*P inst[3] I
*I *2071:A I *D sky130_fd_sc_hd__buf_2
*CAP
1 inst[3] 0.000624502
2 *2071:A 0.000624502
3 *2057:A *2071:A 0
4 *2070:A *2071:A 0
*RES
1 inst[3] *2071:A 14.235 
*END

*D_NET *7 0.000668862
*CONN
*P op_a[0] I
*I *2072:A I *D sky130_fd_sc_hd__clkbuf_2
*CAP
1 op_a[0] 0.000235554
2 *2072:A 0.000235554
3 *2072:A *1996:B 0.000117825
4 *2072:A *2073:A 7.32103e-05
5 *2072:A *431:12 6.71803e-06
*RES
1 op_a[0] *2072:A 6.12177 
*END

*D_NET *8 0.000359932
*CONN
*P op_a[1] I
*I *2073:A I *D sky130_fd_sc_hd__buf_2
*CAP
1 op_a[1] 0.000143361
2 *2073:A 0.000143361
3 *2073:A *2074:A 0
4 *2073:A *384:12 0
5 *2072:A *2073:A 7.32103e-05
*RES
1 op_a[1] *2073:A 4.7885 
*END

*D_NET *9 0.000515825
*CONN
*P op_a[2] I
*I *2074:A I *D sky130_fd_sc_hd__clkbuf_2
*CAP
1 op_a[2] 0.00019768
2 *2074:A 0.00019768
3 *2074:A *2075:A 7.32103e-05
4 *2074:A *561:12 4.72538e-05
5 *2073:A *2074:A 0
*RES
1 op_a[2] *2074:A 5.61177 
*END

*D_NET *10 0.000586169
*CONN
*P op_a[3] I
*I *2075:A I *D sky130_fd_sc_hd__buf_4
*CAP
1 op_a[3] 0.000256479
2 *2075:A 0.000256479
3 *2074:A *2075:A 7.32103e-05
*RES
1 op_a[3] *2075:A 6.5735 
*END

*D_NET *11 0.00109224
*CONN
*P op_a[4] I
*I *2076:A I *D sky130_fd_sc_hd__clkbuf_2
*CAP
1 op_a[4] 0.000482836
2 *2076:A 0.000482836
3 *2076:A *2058:A 0
4 *2076:A *2062:A 0
5 *2076:A *490:12 0.00012657
*RES
1 op_a[4] *2076:A 12.285 
*END

*D_NET *12 0.001058
*CONN
*P op_a[5] I
*I *2058:A I *D sky130_fd_sc_hd__clkbuf_4
*CAP
1 op_a[5] 0.000529
2 *2058:A 0.000529
3 *2058:A *2061:A 0
4 *2076:A *2058:A 0
*RES
1 op_a[5] *2058:A 12.165 
*END

*D_NET *13 0.00137891
*CONN
*P op_a[6] I
*I *2059:A I *D sky130_fd_sc_hd__buf_4
*CAP
1 op_a[6] 0.000627004
2 *2059:A 0.000627004
3 *2059:A op_out[2] 0
4 *2059:A *2069:A 0
5 *2059:A *501:12 0.0001249
*RES
1 op_a[6] *2059:A 14.58 
*END

*D_NET *14 0.000884142
*CONN
*P op_a[7] I
*I *2060:A I *D sky130_fd_sc_hd__clkbuf_4
*CAP
1 op_a[7] 0.000442071
2 *2060:A 0.000442071
3 *2060:A op_out[5] 0
4 *2070:A *2060:A 0
*RES
1 op_a[7] *2060:A 11.46 
*END

*D_NET *15 0.000786235
*CONN
*P op_b[0] I
*I *2061:A I *D sky130_fd_sc_hd__buf_2
*CAP
1 op_b[0] 0.000393118
2 *2061:A 0.000393118
3 *2058:A *2061:A 0
*RES
1 op_b[0] *2061:A 10.35 
*END

*D_NET *16 0.000878137
*CONN
*P op_b[1] I
*I *2062:A I *D sky130_fd_sc_hd__clkbuf_1
*CAP
1 op_b[1] 0.00039577
2 *2062:A 0.00039577
3 *2062:A *490:12 8.65961e-05
4 *2076:A *2062:A 0
*RES
1 op_b[1] *2062:A 10.695 
*END

*D_NET *17 0.00076825
*CONN
*P op_b[2] I
*I *2063:A I *D sky130_fd_sc_hd__buf_2
*CAP
1 op_b[2] 0.000384125
2 *2063:A 0.000384125
*RES
1 op_b[2] *2063:A 10.455 
*END

*D_NET *18 0.000535568
*CONN
*P op_b[3] I
*I *2064:A I *D sky130_fd_sc_hd__buf_2
*CAP
1 op_b[3] 0.000267784
2 *2064:A 0.000267784
*RES
1 op_b[3] *2064:A 6.8343 
*END

*D_NET *19 0.00058215
*CONN
*P op_b[4] I
*I *2065:A I *D sky130_fd_sc_hd__buf_4
*CAP
1 op_b[4] 0.000291075
2 *2065:A 0.000291075
3 *2065:A *2051:A 0
*RES
1 op_b[4] *2065:A 7.3443 
*END

*D_NET *20 0.000739682
*CONN
*P op_b[5] I
*I *2066:A I *D sky130_fd_sc_hd__buf_8
*CAP
1 op_b[5] 0.000355769
2 *2066:A 0.000355769
3 *2066:A *2051:A 0
4 *2066:A *2067:A 2.81454e-05
*RES
1 op_b[5] *2066:A 8.6193 
*END

*D_NET *21 0.000613971
*CONN
*P op_b[6] I
*I *2067:A I *D sky130_fd_sc_hd__buf_6
*CAP
1 op_b[6] 0.000292913
2 *2067:A 0.000292913
3 *2066:A *2067:A 2.81454e-05
*RES
1 op_b[6] *2067:A 7.4343 
*END

*D_NET *22 0.00110754
*CONN
*P op_b[7] I
*I *2069:A I *D sky130_fd_sc_hd__clkbuf_8
*CAP
1 op_b[7] 0.000553772
2 *2069:A 0.000553772
3 *2059:A *2069:A 0
*RES
1 op_b[7] *2069:A 12.945 
*END

*D_NET *23 0.00183122
*CONN
*P op_out[0] O
*I *2077:X O *D sky130_fd_sc_hd__clkbuf_1
*CAP
1 op_out[0] 0.000624741
2 *2077:X 0.000624741
3 op_out[0] op_out[1] 0
4 op_out[0] *2077:A 0.00041368
5 op_out[0] *315:10 4.82919e-05
6 op_out[0] *489:79 0.000119762
7 *2068:A op_out[0] 0
*RES
1 *2077:X op_out[0] 15.435 
*END

*D_NET *24 0.000818044
*CONN
*P op_out[1] O
*I *2078:X O *D sky130_fd_sc_hd__buf_1
*CAP
1 op_out[1] 0.000409022
2 *2078:X 0.000409022
3 op_out[0] op_out[1] 0
4 *2057:A op_out[1] 0
*RES
1 *2078:X op_out[1] 10.86 
*END

*D_NET *25 0.00126641
*CONN
*P op_out[2] O
*I *2079:X O *D sky130_fd_sc_hd__buf_1
*CAP
1 op_out[2] 0.000608225
2 *2079:X 0.000608225
3 op_out[2] op_out[4] 0
4 op_out[2] *1820:B 4.99619e-05
5 op_out[2] *491:10 0
6 op_out[2] *501:12 0
7 *2059:A op_out[2] 0
*RES
1 *2079:X op_out[2] 14.04 
*END

*D_NET *26 0.000989589
*CONN
*P op_out[3] O
*I *2080:X O *D sky130_fd_sc_hd__buf_1
*CAP
1 op_out[3] 0.000468261
2 *2080:X 0.000468261
3 op_out[3] op_out[4] 0
4 op_out[3] *2081:A 5.30673e-05
5 *2068:A op_out[3] 0
*RES
1 *2080:X op_out[3] 11.655 
*END

*D_NET *27 0.00085605
*CONN
*P op_out[4] O
*I *2081:X O *D sky130_fd_sc_hd__buf_1
*CAP
1 op_out[4] 0.000428025
2 *2081:X 0.000428025
3 op_out[2] op_out[4] 0
4 op_out[3] op_out[4] 0
*RES
1 *2081:X op_out[4] 11.205 
*END

*D_NET *28 0.00115489
*CONN
*P op_out[5] O
*I *2082:X O *D sky130_fd_sc_hd__buf_1
*CAP
1 op_out[5] 0.000544491
2 *2082:X 0.000544491
3 op_out[5] *2082:A 2.75229e-05
4 op_out[5] *492:14 3.83895e-05
5 *2060:A op_out[5] 0
*RES
1 *2082:X op_out[5] 12.69 
*END

*D_NET *29 0.000550257
*CONN
*P op_out[6] O
*I *2083:X O *D sky130_fd_sc_hd__buf_1
*CAP
1 op_out[6] 0.000215848
2 *2083:X 0.000215848
3 op_out[6] op_out[7] 6.65411e-05
4 op_out[6] *2005:B1 0
5 op_out[6] *2083:A 5.20196e-05
6 op_out[6] *2084:A 0
*RES
1 *2083:X op_out[6] 6.0635 
*END

*D_NET *30 0.000406519
*CONN
*P op_out[7] O
*I *2084:X O *D sky130_fd_sc_hd__buf_1
*CAP
1 op_out[7] 0.000169989
2 *2084:X 0.000169989
3 op_out[7] *2084:A 0
4 op_out[6] op_out[7] 6.65411e-05
*RES
1 *2084:X op_out[7] 5.0435 
*END

*D_NET *31 0.00188844
*CONN
*I *1652:B1 I *D sky130_fd_sc_hd__o211a_1
*I *1651:B1 I *D sky130_fd_sc_hd__o21ai_1
*I *1649:X O *D sky130_fd_sc_hd__a211o_1
*CAP
1 *1652:B1 6.74749e-05
2 *1651:B1 0.000177745
3 *1649:X 0.000184941
4 *31:6 0.000430161
5 *1651:B1 *1606:A 0.000120186
6 *1651:B1 *1653:A1 6.55328e-05
7 *1651:B1 *523:10 0.000193795
8 *1652:B1 *1640:A 5.53249e-06
9 *1652:B1 *273:16 0.000121876
10 *1652:B1 *475:27 7.47145e-05
11 *1652:B1 *475:29 0.000163992
12 *1652:B1 *475:35 9.50342e-06
13 *31:6 *523:10 0.000148089
14 *31:6 *523:137 0.0001249
*RES
1 *1649:X *31:6 4.12 
2 *31:6 *1651:B1 8.81 
3 *31:6 *1652:B1 8.255 
*END

*D_NET *32 0.00096507
*CONN
*I *1653:B1 I *D sky130_fd_sc_hd__o211ai_2
*I *1650:X O *D sky130_fd_sc_hd__a211o_1
*CAP
1 *1653:B1 0.000323463
2 *1650:X 0.000323463
3 *1653:B1 *1649:A2 0.000122331
4 *1653:B1 *273:16 0.000117832
5 *1653:B1 *495:27 7.43306e-05
6 *1653:B1 *510:209 3.64998e-06
*RES
1 *1650:X *1653:B1 11.79 
*END

*D_NET *33 0.00250934
*CONN
*I *1699:B1 I *D sky130_fd_sc_hd__a21o_1
*I *1651:Y O *D sky130_fd_sc_hd__o21ai_1
*CAP
1 *1699:B1 0.000561982
2 *1651:Y 0.000561982
3 *1699:B1 *1606:A 0.000270647
4 *1699:B1 *1653:A1 9.87538e-05
5 *1699:B1 *283:38 0.000135819
6 *1699:B1 *477:20 0.000283866
7 *1699:B1 *479:10 0.00030615
8 *1699:B1 *519:27 0.00019637
9 *1699:B1 *559:32 9.37731e-05
*RES
1 *1651:Y *1699:B1 19.71 
*END

*D_NET *34 0.00343716
*CONN
*I *1659:C1 I *D sky130_fd_sc_hd__a221o_1
*I *1658:B1 I *D sky130_fd_sc_hd__a21oi_1
*I *1654:A_N I *D sky130_fd_sc_hd__and2b_1
*I *1652:X O *D sky130_fd_sc_hd__o211a_1
*CAP
1 *1659:C1 8.47731e-05
2 *1658:B1 0
3 *1654:A_N 0.000180118
4 *1652:X 0.000284609
5 *34:12 0.000321229
6 *34:6 0.000510494
7 *1654:A_N *1654:B 0.000300741
8 *1654:A_N *1690:B 0.000139238
9 *1659:C1 *1659:B1 3.39151e-05
10 *1659:C1 *1691:B1 0
11 *1659:C1 *39:14 3.18219e-05
12 *34:6 *35:14 0.00090647
13 *34:6 *35:16 0.0001249
14 *34:6 *294:45 1.74678e-05
15 *34:6 *495:27 0.000345687
16 *34:12 *1690:A 2.46087e-05
17 *34:12 *1698:B 8.74585e-05
18 *34:12 *2053:A 0
19 *34:12 *35:16 4.36241e-05
*RES
1 *1652:X *34:6 11.71 
2 *34:6 *34:12 3.15 
3 *34:12 *1654:A_N 9.83 
4 *34:12 *1658:B1 1.6 
5 *34:6 *1659:C1 7.235 
*END

*D_NET *35 0.00488427
*CONN
*I *1659:B1 I *D sky130_fd_sc_hd__a221o_1
*I *1658:A1 I *D sky130_fd_sc_hd__a21oi_1
*I *1654:B I *D sky130_fd_sc_hd__and2b_1
*I *1653:Y O *D sky130_fd_sc_hd__o211ai_2
*CAP
1 *1659:B1 5.30171e-05
2 *1658:A1 0
3 *1654:B 0.00036501
4 *1653:Y 0.000910925
5 *35:16 0.000553275
6 *35:14 0.00115221
7 *1654:B *39:14 5.16348e-05
8 *1654:B *484:10 0
9 *1659:B1 *484:10 9.30787e-05
10 *35:14 *1606:A 9.37731e-05
11 *35:14 *493:8 0
12 *35:14 *523:10 0.000155092
13 *35:16 *1698:B 4.66108e-05
14 *1654:A_N *1654:B 0.000300741
15 *1659:C1 *1659:B1 3.39151e-05
16 *34:6 *35:14 0.00090647
17 *34:6 *35:16 0.0001249
18 *34:12 *35:16 4.36241e-05
*RES
1 *1653:Y *35:14 19.01 
2 *35:14 *35:16 2.52 
3 *35:16 *1654:B 12.17 
4 *35:16 *1658:A1 1.6 
5 *35:14 *1659:B1 6.725 
*END

*D_NET *36 0.000353137
*CONN
*I *1698:A I *D sky130_fd_sc_hd__xnor2_1
*I *1654:X O *D sky130_fd_sc_hd__and2b_1
*CAP
1 *1698:A 0.000152425
2 *1654:X 0.000152425
3 *1698:A *1690:B 0
4 *1698:A *1698:B 4.82863e-05
5 *1698:A *1700:C 0
*RES
1 *1654:X *1698:A 9.63 
*END

*D_NET *37 0.000502841
*CONN
*I *1669:A I *D sky130_fd_sc_hd__or4_1
*I *1655:Y O *D sky130_fd_sc_hd__nor2_1
*CAP
1 *1669:A 9.80282e-05
2 *1655:Y 9.80282e-05
3 *1669:A *1655:A 2.11084e-05
4 *1669:A *1655:B 0
5 *1669:A *1668:B 4.95661e-05
6 *1669:A *1669:D 4.00541e-06
7 *1669:A *538:28 0.000232105
*RES
1 *1655:Y *1669:A 5.735 
*END

*D_NET *38 0.0100213
*CONN
*I *1873:C I *D sky130_fd_sc_hd__and3_1
*I *1874:B1 I *D sky130_fd_sc_hd__a21oi_1
*I *1900:C I *D sky130_fd_sc_hd__and3_1
*I *1669:B I *D sky130_fd_sc_hd__or4_1
*I *1656:Y O *D sky130_fd_sc_hd__nor2_1
*CAP
1 *1873:C 0.000127967
2 *1874:B1 0
3 *1900:C 0.000512765
4 *1669:B 0
5 *1656:Y 0.000154923
6 *38:44 0.000127967
7 *38:27 0.0021098
8 *38:10 0.00175196
9 *1873:C *1873:A 0.000192791
10 *1873:C *1873:B 0.000133769
11 *1873:C *2046:A 4.20934e-05
12 *1873:C *512:6 8.40269e-05
13 *1900:C *2018:A2 3.79555e-05
14 *1900:C *257:12 6.74079e-05
15 *1900:C *411:10 9.14049e-05
16 *1900:C *510:98 9.11353e-05
17 *1900:C *510:121 3.57349e-05
18 *1900:C *513:40 8.9061e-05
19 *1900:C *513:65 0
20 *1900:C *519:186 0.000309016
21 *1900:C *521:120 0.000116853
22 *1900:C *521:133 0.000801699
23 *38:10 *1669:C 0.000138551
24 *38:10 *45:32 0.000293032
25 *38:10 *241:17 5.83121e-06
26 *38:10 *241:19 1.47256e-05
27 *38:10 *493:25 0.000420412
28 *38:27 *1611:B 0.000142669
29 *38:27 *1630:A2 0.00049767
30 *38:27 *1669:C 4.38051e-05
31 *38:27 *1674:B1 0.0001947
32 *38:27 *1902:B 4.82919e-05
33 *38:27 *52:10 9.68709e-05
34 *38:27 *52:23 2.78732e-05
35 *38:27 *283:22 0.00026617
36 *38:27 *423:20 6.0795e-05
37 *38:27 *470:12 5.43869e-05
38 *38:27 *493:25 0.000268278
39 *38:27 *512:16 9.05299e-05
40 *38:27 *513:40 0.000116158
41 *38:27 *513:65 6.75724e-05
42 *38:27 *519:159 2.96334e-05
43 *38:27 *519:186 0.000180139
44 *38:27 *528:6 8.49205e-05
*RES
1 *1656:Y *38:10 9 
2 *38:10 *1669:B 3.6 
3 *38:10 *38:27 32.875 
4 *38:27 *1900:C 17.025 
5 *38:27 *38:44 2 
6 *38:44 *1874:B1 1.6 
7 *38:44 *1873:C 5.8 
*END

*D_NET *39 0.00298942
*CONN
*I *1659:B2 I *D sky130_fd_sc_hd__a221o_1
*I *1698:B I *D sky130_fd_sc_hd__xnor2_1
*I *1658:A2 I *D sky130_fd_sc_hd__a21oi_1
*I *1657:Y O *D sky130_fd_sc_hd__nand2_1
*CAP
1 *1659:B2 4.31905e-05
2 *1698:B 0.000281973
3 *1658:A2 0
4 *1657:Y 0.000573874
5 *39:14 0.000531428
6 *39:6 0.00086652
7 *1698:B *1690:A 5.58613e-05
8 *1698:B *1690:B 2.75145e-05
9 *1698:B *1692:C 3.51072e-05
10 *1698:B *1700:C 0.00016031
11 *39:6 *1657:A 1.47347e-05
12 *39:6 *1659:A2 6.8725e-06
13 *39:6 *1660:B 2.531e-05
14 *39:6 *1680:A 5.30673e-05
15 *39:6 *41:6 1.32843e-05
16 *39:6 *523:6 3.45588e-05
17 *39:14 *484:10 0
18 *1654:B *39:14 5.16348e-05
19 *1659:C1 *39:14 3.18219e-05
20 *1698:A *1698:B 4.82863e-05
21 *34:12 *1698:B 8.74585e-05
22 *35:16 *1698:B 4.66108e-05
*RES
1 *1657:Y *39:6 8.26 
2 *39:6 *39:14 7.21 
3 *39:14 *1658:A2 1.6 
4 *39:14 *1698:B 7.615 
5 *39:6 *1659:B2 2.455 
*END

*D_NET *40 0.000311099
*CONN
*I *1690:A I *D sky130_fd_sc_hd__xnor2_1
*I *1658:Y O *D sky130_fd_sc_hd__a21oi_1
*CAP
1 *1690:A 9.11715e-05
2 *1658:Y 9.11715e-05
3 *1690:A *1690:B 4.82863e-05
4 *1698:B *1690:A 5.58613e-05
5 *34:12 *1690:A 2.46087e-05
*RES
1 *1658:Y *1690:A 4.955 
*END

*D_NET *41 0.00172772
*CONN
*I *1660:B I *D sky130_fd_sc_hd__nand2_1
*I *1663:A3 I *D sky130_fd_sc_hd__a311oi_2
*I *1664:A2 I *D sky130_fd_sc_hd__a311o_1
*I *1659:X O *D sky130_fd_sc_hd__a221o_1
*CAP
1 *1660:B 0.000296112
2 *1663:A3 0.000114724
3 *1664:A2 0
4 *1659:X 0.000102043
5 *41:10 0.000157064
6 *41:6 0.000440495
7 *1660:B *1657:B 0
8 *1660:B *1680:A 2.96334e-05
9 *1660:B *1682:A2 5.12942e-05
10 *1660:B *493:25 2.97004e-06
11 *1663:A3 *1663:A2 3.70488e-05
12 *1663:A3 *1680:A 1.89685e-05
13 *1663:A3 *45:10 1.19928e-05
14 *1663:A3 *479:14 4.28483e-05
15 *1663:A3 *519:27 0.000131408
16 *41:6 *1680:A 4.9253e-06
17 *41:10 *1680:A 3.76596e-05
18 *41:10 *1680:B 7.23602e-05
19 *41:10 *519:27 0.000137578
20 *39:6 *1660:B 2.531e-05
21 *39:6 *41:6 1.32843e-05
*RES
1 *1659:X *41:6 2.74 
2 *41:6 *41:10 3.635 
3 *41:10 *1664:A2 3.6 
4 *41:10 *1663:A3 6.39 
5 *41:6 *1660:B 9.755 
*END

*D_NET *42 0.00073502
*CONN
*I *1680:B I *D sky130_fd_sc_hd__xnor2_1
*I *1660:Y O *D sky130_fd_sc_hd__nand2_1
*CAP
1 *1680:B 0.000174508
2 *1660:Y 0.000174508
3 *1680:B *1660:A 0.000158072
4 *1680:B *1664:C1 1.33293e-05
5 *1680:B *1680:A 0.000116151
6 *1680:B *519:27 2.60908e-05
7 *41:10 *1680:B 7.23602e-05
*RES
1 *1660:Y *1680:B 10.41 
*END

*D_NET *43 0.00357923
*CONN
*I *1662:A2 I *D sky130_fd_sc_hd__a21oi_1
*I *1685:B1 I *D sky130_fd_sc_hd__a21o_1
*I *1665:C I *D sky130_fd_sc_hd__and3_1
*I *1661:X O *D sky130_fd_sc_hd__or2_1
*CAP
1 *1662:A2 0
2 *1685:B1 0
3 *1665:C 0.000210809
4 *1661:X 0.000195201
5 *43:24 0.000631308
6 *43:14 0.000615701
7 *1665:C *2017:D 0.000174577
8 *1665:C *47:8 3.64998e-06
9 *1665:C *67:12 0.000295439
10 *1665:C *517:48 7.06981e-05
11 *1665:C *537:37 1.88224e-05
12 *1665:C *559:32 4.92096e-05
13 *43:14 *1668:B 4.66108e-05
14 *43:14 *1682:A1 6.33103e-05
15 *43:14 *1889:A2 0.000164895
16 *43:14 *273:14 4.5783e-05
17 *43:14 *273:16 1.71013e-05
18 *43:14 *471:8 0.000201261
19 *43:14 *496:18 0.000116165
20 *43:24 *1666:A 4.55864e-06
21 *43:24 *1667:A 4.99619e-05
22 *43:24 *1682:A1 3.65279e-05
23 *43:24 *1682:B1 0
24 *43:24 *2017:D 1.61831e-05
25 *43:24 *2019:D_N 1.46828e-05
26 *43:24 *2089:A 0.00013882
27 *43:24 *44:10 0.000113247
28 *43:24 *46:49 3.09233e-05
29 *43:24 *48:10 9.4585e-05
30 *43:24 *471:8 4.82863e-05
31 *43:24 *471:18 4.82919e-05
32 *43:24 *517:48 0
33 *43:24 *517:60 4.66108e-05
34 *43:24 *519:67 0
35 *43:24 *537:46 1.60083e-05
*RES
1 *1661:X *43:14 11.24 
2 *43:14 *43:24 12.655 
3 *43:24 *1665:C 11.81 
4 *43:24 *1685:B1 1.6 
5 *43:14 *1662:A2 1.6 
*END

*D_NET *44 0.00249727
*CONN
*I *1663:B1 I *D sky130_fd_sc_hd__a311oi_2
*I *1664:B1 I *D sky130_fd_sc_hd__a311o_1
*I *1662:Y O *D sky130_fd_sc_hd__a21oi_1
*CAP
1 *1663:B1 0
2 *1664:B1 0.000126857
3 *1662:Y 0.00050494
4 *44:10 0.000631796
5 *1664:B1 *1660:A 1.17309e-05
6 *1664:B1 *1664:C1 0.000198198
7 *1664:B1 *1682:A2 0.00011852
8 *44:10 *1638:B 0
9 *44:10 *1664:C1 9.50342e-06
10 *44:10 *1681:B1 0
11 *44:10 *1682:A1 4.82863e-05
12 *44:10 *1682:A2 0.000734191
13 *44:10 *518:60 0
14 *43:24 *44:10 0.000113247
*RES
1 *1662:Y *44:10 14.205 
2 *44:10 *1664:B1 6.39 
3 *44:10 *1663:B1 3.6 
*END

*D_NET *45 0.00503407
*CONN
*I *1669:C I *D sky130_fd_sc_hd__or4_1
*I *1668:A I *D sky130_fd_sc_hd__nor2_1
*I *1700:A I *D sky130_fd_sc_hd__or3_4
*I *1692:A I *D sky130_fd_sc_hd__or3_4
*I *1663:Y O *D sky130_fd_sc_hd__a311oi_2
*CAP
1 *1669:C 5.06958e-05
2 *1668:A 0
3 *1700:A 0
4 *1692:A 0.000250571
5 *1663:Y 0
6 *45:32 0.00036476
7 *45:10 0.000585172
8 *45:4 0.000648666
9 *1669:C *52:10 0.000172158
10 *1692:A *1692:C 9.85738e-05
11 *1692:A *1700:B 9.97536e-06
12 *1692:A *1700:C 9.69153e-05
13 *1692:A *49:24 1.47256e-05
14 *1692:A *82:10 9.80943e-06
15 *45:10 *1663:A2 0.000120655
16 *45:10 *1664:C1 2.75229e-05
17 *45:10 *1691:A1 1.61831e-05
18 *45:10 *1691:A2 8.69014e-05
19 *45:10 *1691:B1 3.61929e-05
20 *45:10 *73:10 9.21168e-05
21 *45:10 *82:10 8.8266e-05
22 *45:10 *559:32 0.000735301
23 *45:32 *1633:A1 7.22354e-05
24 *45:32 *1657:B 0.000310424
25 *45:32 *52:10 0.000112123
26 *45:32 *478:8 4.36241e-05
27 *45:32 *493:25 0.00020267
28 *45:32 *518:60 3.00381e-05
29 *45:32 *559:32 0.000270409
30 *1663:A3 *45:10 1.19928e-05
31 *38:10 *1669:C 0.000138551
32 *38:10 *45:32 0.000293032
33 *38:27 *1669:C 4.38051e-05
*RES
1 *1663:Y *45:4 1.6 
2 *45:4 *45:10 9.795 
3 *45:10 *1692:A 5.35 
4 *45:10 *1700:A 1.6 
5 *45:4 *45:32 12.275 
6 *45:32 *1668:A 3.6 
7 *45:32 *1669:C 5.745 
*END

*D_NET *46 0.00322346
*CONN
*I *1670:A1 I *D sky130_fd_sc_hd__a21o_1
*I *1685:A1 I *D sky130_fd_sc_hd__a21o_1
*I *1681:A1 I *D sky130_fd_sc_hd__a21oi_1
*I *1699:A1 I *D sky130_fd_sc_hd__a21o_1
*I *1691:A1 I *D sky130_fd_sc_hd__a21o_1
*I *1664:X O *D sky130_fd_sc_hd__a311o_1
*CAP
1 *1670:A1 0.000129209
2 *1685:A1 0
3 *1681:A1 0.000115601
4 *1699:A1 0
5 *1691:A1 3.94532e-05
6 *1664:X 0.000105712
7 *46:49 0.000145821
8 *46:34 0.000273303
9 *46:25 0.000344702
10 *46:10 0.000348778
11 *1670:A1 *1681:A2 5.39673e-05
12 *1670:A1 *48:39 4.35432e-05
13 *1681:A1 *1681:A2 0.000133586
14 *1681:A1 *1682:B1 0.000193806
15 *1681:A1 *2017:D 0.000108761
16 *1681:A1 *48:39 8.65961e-05
17 *1681:A1 *52:10 1.47347e-05
18 *1691:A1 *1691:A2 0.000124895
19 *1691:A1 *1691:B1 0.000124895
20 *46:10 *1663:A2 9.37731e-05
21 *46:10 *1691:B1 7.23533e-05
22 *46:10 *485:12 2.75229e-05
23 *46:25 *1663:A2 5.16418e-05
24 *46:25 *1691:A2 0.000149809
25 *46:25 *48:12 4.38051e-05
26 *46:25 *559:32 0
27 *46:34 *48:12 0.000296081
28 *46:34 *519:67 0
29 *46:34 *559:32 0
30 *46:49 *48:10 2.30797e-05
31 *46:49 *48:12 3.09233e-05
32 *46:49 *519:67 0
33 *43:24 *46:49 3.09233e-05
34 *45:10 *1691:A1 1.61831e-05
*RES
1 *1664:X *46:10 5.52 
2 *46:10 *1691:A1 5.085 
3 *46:10 *46:25 3.72 
4 *46:25 *1699:A1 3.6 
5 *46:25 *46:34 3.42 
6 *46:34 *1681:A1 7.515 
7 *46:34 *46:49 2.615 
8 *46:49 *1685:A1 1.6 
9 *46:49 *1670:A1 3.445 
*END

*D_NET *47 0.00092319
*CONN
*I *1666:D I *D sky130_fd_sc_hd__nor4_2
*I *1667:D I *D sky130_fd_sc_hd__or4_4
*I *1665:X O *D sky130_fd_sc_hd__and3_1
*CAP
1 *1666:D 0
2 *1667:D 0.000119469
3 *1665:X 5.1145e-05
4 *47:8 0.000170614
5 *1667:D *1666:B 4.99619e-05
6 *1667:D *1666:C 9.53428e-06
7 *1667:D *48:10 8.8266e-05
8 *1667:D *517:48 0.000120655
9 *1667:D *537:37 7.68414e-06
10 *1667:D *537:46 8.87273e-05
11 *47:8 *1666:C 5.58436e-05
12 *47:8 *517:48 3.27443e-05
13 *47:8 *537:37 0.000124895
14 *1665:C *47:8 3.64998e-06
*RES
1 *1665:X *47:8 3.355 
2 *47:8 *1667:D 4.825 
3 *47:8 *1666:D 1.6 
*END

*D_NET *48 0.00283407
*CONN
*I *1681:A2 I *D sky130_fd_sc_hd__a21oi_1
*I *1670:A2 I *D sky130_fd_sc_hd__a21o_1
*I *1685:A2 I *D sky130_fd_sc_hd__a21o_1
*I *1699:A2 I *D sky130_fd_sc_hd__a21o_1
*I *1691:A2 I *D sky130_fd_sc_hd__a21o_1
*I *1666:Y O *D sky130_fd_sc_hd__nor4_2
*CAP
1 *1681:A2 0.000128773
2 *1670:A2 0
3 *1685:A2 0
4 *1699:A2 0
5 *1691:A2 0.000155299
6 *1666:Y 0.000210641
7 *48:39 0.000145602
8 *48:32 1.68283e-05
9 *48:12 0.000333144
10 *48:10 0.000388486
11 *1681:A2 *2017:D 0
12 *1681:A2 *52:10 4.66108e-05
13 *1691:A2 *1663:A2 7.58604e-05
14 *1691:A2 *1682:A2 0
15 *1691:A2 *479:10 0
16 *1691:A2 *519:27 6.9117e-05
17 *48:10 *1682:B1 0
18 *48:10 *537:46 7.67415e-06
19 *48:12 *1670:B1 0
20 *48:12 *1682:A2 0
21 *48:12 *1682:B1 0
22 *1667:D *48:10 8.8266e-05
23 *1670:A1 *1681:A2 5.39673e-05
24 *1670:A1 *48:39 4.35432e-05
25 *1681:A1 *1681:A2 0.000133586
26 *1681:A1 *48:39 8.65961e-05
27 *1691:A1 *1691:A2 0.000124895
28 *43:24 *48:10 9.4585e-05
29 *45:10 *1691:A2 8.69014e-05
30 *46:25 *1691:A2 0.000149809
31 *46:25 *48:12 4.38051e-05
32 *46:34 *48:12 0.000296081
33 *46:49 *48:10 2.30797e-05
34 *46:49 *48:12 3.09233e-05
*RES
1 *1666:Y *48:10 6.81 
2 *48:10 *48:12 4.185 
3 *48:12 *1691:A2 7.83 
4 *48:12 *1699:A2 3.6 
5 *48:10 *48:32 2 
6 *48:32 *1685:A2 1.6 
7 *48:32 *48:39 0.795 
8 *48:39 *1670:A2 1.6 
9 *48:39 *1681:A2 4.495 
*END

*D_NET *49 0.00651133
*CONN
*I *1668:B I *D sky130_fd_sc_hd__nor2_1
*I *1669:D I *D sky130_fd_sc_hd__or4_1
*I *1700:B I *D sky130_fd_sc_hd__or3_4
*I *1692:B I *D sky130_fd_sc_hd__or3_4
*I *1667:X O *D sky130_fd_sc_hd__or4_4
*CAP
1 *1668:B 0.000141152
2 *1669:D 1.90984e-05
3 *1700:B 2.10114e-05
4 *1692:B 0
5 *1667:X 3.86038e-05
6 *49:42 0.000476532
7 *49:24 0.000949537
8 *49:8 0.00128341
9 *1668:B *1655:A 1.37328e-05
10 *1668:B *51:10 0.000195482
11 *1668:B *219:30 0.000201407
12 *1668:B *471:8 4.82919e-05
13 *1668:B *493:25 0.000201407
14 *1668:B *538:28 3.37859e-05
15 *1700:B *1692:C 2.20014e-05
16 *1700:B *1700:C 2.86975e-05
17 *1700:B *73:10 0.000123955
18 *49:8 *1667:A 5.02217e-05
19 *49:8 *1682:B1 5.20968e-05
20 *49:24 *1692:C 2.68526e-05
21 *49:24 *1702:B1 0
22 *49:24 *1706:B 0.000450562
23 *49:24 *1739:A0 0.000589871
24 *49:24 *64:12 0.000939656
25 *49:24 *73:10 0.000123592
26 *49:24 *82:10 0
27 *49:24 *558:22 6.88421e-05
28 *49:42 *1667:A 2.15594e-05
29 *49:42 *1682:A1 0.000138799
30 *49:42 *1682:B1 2.7881e-05
31 *49:42 *51:10 1.16578e-05
32 *49:42 *64:12 4.80285e-05
33 *49:42 *501:30 0
34 *49:42 *538:28 3.87203e-05
35 *1669:A *1668:B 4.95661e-05
36 *1669:A *1669:D 4.00541e-06
37 *1692:A *1700:B 9.97536e-06
38 *1692:A *49:24 1.47256e-05
39 *43:14 *1668:B 4.66108e-05
*RES
1 *1667:X *49:8 4.725 
2 *49:8 *49:24 26.22 
3 *49:24 *1692:B 1.6 
4 *49:24 *1700:B 2.74 
5 *49:8 *49:42 7.46 
6 *49:42 *1669:D 1.96 
7 *49:42 *1668:B 10.64 
*END

*D_NET *50 0.00605459
*CONN
*I *1889:A2 I *D sky130_fd_sc_hd__a211o_1
*I *1682:A1 I *D sky130_fd_sc_hd__a21oi_1
*I *1668:Y O *D sky130_fd_sc_hd__nor2_1
*CAP
1 *1889:A2 0.00139783
2 *1682:A1 0.000372222
3 *1668:Y 0
4 *50:4 0.00177005
5 *1682:A1 *1682:A2 0
6 *1682:A1 *64:12 5.4155e-06
7 *1682:A1 *518:60 0.000114492
8 *1682:A1 *538:28 0.000142051
9 *1889:A2 *1612:B 0.000139238
10 *1889:A2 *1631:B1 0
11 *1889:A2 *1632:B 0
12 *1889:A2 *1633:A2 3.86607e-05
13 *1889:A2 *1774:C1 0
14 *1889:A2 *1860:B1 5.53249e-06
15 *1889:A2 *1917:A2 0
16 *1889:A2 *273:44 0.00041851
17 *1889:A2 *326:40 9.50342e-06
18 *1889:A2 *470:12 0
19 *1889:A2 *471:8 2.10034e-05
20 *1889:A2 *474:22 0
21 *1889:A2 *491:16 0.000624995
22 *1889:A2 *491:24 0.000347515
23 *1889:A2 *518:103 0
24 *1889:A2 *523:35 8.97642e-05
25 *1889:A2 *523:56 0.000105995
26 *43:14 *1682:A1 6.33103e-05
27 *43:14 *1889:A2 0.000164895
28 *43:24 *1682:A1 3.65279e-05
29 *44:10 *1682:A1 4.82863e-05
30 *49:42 *1682:A1 0.000138799
*RES
1 *1668:Y *50:4 1.6 
2 *50:4 *1682:A1 12.035 
3 *50:4 *1889:A2 31.46 
*END

*D_NET *51 0.00203864
*CONN
*I *1675:B I *D sky130_fd_sc_hd__and3_1
*I *1671:A I *D sky130_fd_sc_hd__nand2_1
*I *1674:A1 I *D sky130_fd_sc_hd__a21o_1
*I *1669:X O *D sky130_fd_sc_hd__or4_1
*CAP
1 *1675:B 0.000112327
2 *1671:A 0.000209533
3 *1674:A1 0
4 *1669:X 0.000164792
5 *51:21 0.000382246
6 *51:10 0.000225178
7 *1671:A *1671:B 5.14699e-05
8 *1671:A *1679:A2 2.75145e-05
9 *1671:A *1679:B1 7.23602e-05
10 *1671:A *61:22 8.40269e-05
11 *1671:A *283:22 0
12 *1675:B *1679:A2 9.02174e-05
13 *51:10 *52:10 7.23602e-05
14 *51:10 *471:18 7.23533e-05
15 *51:21 *52:10 5.56629e-05
16 *51:21 *52:23 0.000127373
17 *51:21 *518:60 8.40903e-05
18 *1668:B *51:10 0.000195482
19 *49:42 *51:10 1.16578e-05
*RES
1 *1669:X *51:10 6.3 
2 *51:10 *1674:A1 3.6 
3 *51:10 *51:21 4.145 
4 *51:21 *1671:A 8.645 
5 *51:21 *1675:B 3.085 
*END

*D_NET *52 0.00326057
*CONN
*I *1675:C I *D sky130_fd_sc_hd__and3_1
*I *1671:B I *D sky130_fd_sc_hd__nand2_1
*I *1674:A2 I *D sky130_fd_sc_hd__a21o_1
*I *1670:X O *D sky130_fd_sc_hd__a21o_1
*CAP
1 *1675:C 5.96358e-05
2 *1671:B 0.000194274
3 *1674:A2 0
4 *1670:X 0.000442255
5 *52:23 0.000404288
6 *52:10 0.000592633
7 *1671:B *1679:A1 1.08758e-05
8 *1671:B *1679:A2 7.74015e-05
9 *1671:B *1688:B 0
10 *1671:B *53:12 1.56428e-05
11 *1671:B *61:22 0.000159741
12 *1675:C *1679:A1 3.57349e-05
13 *1675:C *1679:A2 3.68706e-05
14 *52:10 *1681:B1 2.75145e-05
15 *52:10 *1682:B1 2.26018e-05
16 *52:10 *2017:D 0.000127096
17 *52:10 *471:18 0.000143451
18 *52:10 *518:60 2.82284e-05
19 *52:23 *1675:A 0
20 *52:23 *1679:A1 5.16418e-05
21 *52:23 *493:25 5.34443e-05
22 *52:23 *518:60 0
23 *1669:C *52:10 0.000172158
24 *1671:A *1671:B 5.14699e-05
25 *1681:A1 *52:10 1.47347e-05
26 *1681:A2 *52:10 4.66108e-05
27 *38:27 *52:10 9.68709e-05
28 *38:27 *52:23 2.78732e-05
29 *45:32 *52:10 0.000112123
30 *51:10 *52:10 7.23602e-05
31 *51:21 *52:10 5.56629e-05
32 *51:21 *52:23 0.000127373
*RES
1 *1670:X *52:10 12.27 
2 *52:10 *1674:A2 3.6 
3 *52:10 *52:23 5.27 
4 *52:23 *1671:B 5.89 
5 *52:23 *1675:C 2.62 
*END

*D_NET *53 0.0011679
*CONN
*I *1672:A I *D sky130_fd_sc_hd__inv_2
*I *1673:B I *D sky130_fd_sc_hd__and2_1
*I *1671:Y O *D sky130_fd_sc_hd__nand2_1
*CAP
1 *1672:A 0.000161214
2 *1673:B 0
3 *1671:Y 0.00014675
4 *53:12 0.000307964
5 *1672:A *1589:B 2.75145e-05
6 *1672:A *1715:A0 9.73442e-05
7 *1672:A *1715:S 0.000100528
8 *1672:A *273:101 0.000157753
9 *1672:A *493:25 0
10 *1672:A *518:60 3.09164e-05
11 *53:12 *273:101 4.43871e-06
12 *53:12 *283:91 0
13 *53:12 *518:60 0.000117832
14 *1671:B *53:12 1.56428e-05
*RES
1 *1671:Y *53:12 5.88 
2 *53:12 *1673:B 3.6 
3 *53:12 *1672:A 8.235 
*END

*D_NET *54 0.000295061
*CONN
*I *1715:A0 I *D sky130_fd_sc_hd__mux2_1
*I *1672:Y O *D sky130_fd_sc_hd__inv_2
*CAP
1 *1715:A0 6.18447e-05
2 *1672:Y 6.18447e-05
3 *1715:A0 *273:101 7.4027e-05
4 *1672:A *1715:A0 9.73442e-05
*RES
1 *1672:Y *1715:A0 8.52 
*END

*D_NET *55 8.4422e-05
*CONN
*I *1676:A I *D sky130_fd_sc_hd__nor2_1
*I *1673:X O *D sky130_fd_sc_hd__and2_1
*CAP
1 *1676:A 1.72301e-05
2 *1673:X 1.72301e-05
3 *1676:A *273:95 4.99619e-05
*RES
1 *1673:X *1676:A 3.65 
*END

*D_NET *56 0.000396815
*CONN
*I *1679:B1 I *D sky130_fd_sc_hd__o21ai_2
*I *1674:X O *D sky130_fd_sc_hd__a21o_1
*CAP
1 *1679:B1 0.000102009
2 *1674:X 0.000102009
3 *1679:B1 *283:22 4.99619e-05
4 *1679:B1 *518:60 7.04753e-05
5 *1671:A *1679:B1 7.23602e-05
*RES
1 *1674:X *1679:B1 9.285 
*END

*D_NET *57 0.000521575
*CONN
*I *1676:B I *D sky130_fd_sc_hd__nor2_1
*I *1679:A1 I *D sky130_fd_sc_hd__o21ai_2
*I *1675:X O *D sky130_fd_sc_hd__and3_1
*CAP
1 *1676:B 7.85907e-05
2 *1679:A1 3.02148e-05
3 *1675:X 0
4 *57:6 0.000108805
5 *1676:B *1714:A 1.83756e-05
6 *1676:B *273:95 4.82863e-05
7 *1676:B *493:25 6.28765e-05
8 *1676:B *518:60 0
9 *1679:A1 *1679:A2 4.82919e-05
10 *1679:A1 *493:25 2.7881e-05
11 *1671:B *1679:A1 1.08758e-05
12 *1675:C *1679:A1 3.57349e-05
13 *52:23 *1679:A1 5.16418e-05
*RES
1 *1675:X *57:6 3.6 
2 *57:6 *1679:A1 4.665 
3 *57:6 *1676:B 5.43 
*END

*D_NET *58 0.000583217
*CONN
*I *1714:A I *D sky130_fd_sc_hd__xnor2_1
*I *1676:Y O *D sky130_fd_sc_hd__nor2_1
*CAP
1 *1714:A 0.000195891
2 *1676:Y 0.000195891
3 *1714:A *273:95 3.3814e-05
4 *1714:A *493:25 0.000139245
5 *1714:A *519:142 0
6 *1676:B *1714:A 1.83756e-05
*RES
1 *1676:Y *1714:A 10.32 
*END

*D_NET *59 0.000648048
*CONN
*I *1679:A2 I *D sky130_fd_sc_hd__o21ai_2
*I *1677:Y O *D sky130_fd_sc_hd__nor2_1
*CAP
1 *1679:A2 0.000138722
2 *1677:Y 0.000138722
3 *1679:A2 *1675:A 1.61831e-05
4 *1679:A2 *1677:B 2.75145e-05
5 *1679:A2 *219:30 4.66108e-05
6 *1671:A *1679:A2 2.75145e-05
7 *1671:B *1679:A2 7.74015e-05
8 *1675:B *1679:A2 9.02174e-05
9 *1675:C *1679:A2 3.68706e-05
10 *1679:A1 *1679:A2 4.82919e-05
*RES
1 *1677:Y *1679:A2 6.77 
*END

*D_NET *60 0.000769999
*CONN
*I *1720:A I *D sky130_fd_sc_hd__nand2_1
*I *1714:B I *D sky130_fd_sc_hd__xnor2_1
*I *1678:X O *D sky130_fd_sc_hd__or2_1
*CAP
1 *1720:A 6.31198e-05
2 *1714:B 0.000121798
3 *1678:X 0
4 *60:4 0.000184918
5 *1714:B *219:8 1.85674e-05
6 *1714:B *496:18 0.000198939
7 *1720:A *1589:B 2.75145e-05
8 *1720:A *219:57 6.28765e-05
9 *1720:A *493:45 2.75145e-05
10 *1720:A *519:142 6.47516e-05
*RES
1 *1678:X *60:4 1.6 
2 *60:4 *1714:B 4.3 
3 *60:4 *1720:A 7.43 
*END

*D_NET *61 0.0054299
*CONN
*I *1706:D_N I *D sky130_fd_sc_hd__or4b_4
*I *1738:A I *D sky130_fd_sc_hd__xnor2_1
*I *1711:A1 I *D sky130_fd_sc_hd__a31o_1
*I *1733:A1 I *D sky130_fd_sc_hd__a21o_1
*I *1679:Y O *D sky130_fd_sc_hd__o21ai_2
*CAP
1 *1706:D_N 0
2 *1738:A 0
3 *1711:A1 7.67426e-05
4 *1733:A1 0.000132413
5 *1679:Y 0.000891679
6 *61:32 0.000316525
7 *61:30 0.000530124
8 *61:22 0.00131443
9 *1711:A1 *517:35 0.000120655
10 *1733:A1 *1711:A2 4.80882e-05
11 *1733:A1 *1733:B1 9.50342e-06
12 *1733:A1 *1734:A 2.49909e-05
13 *1733:A1 *1735:A1 2.75145e-05
14 *1733:A1 *79:10 5.23362e-05
15 *1733:A1 *86:21 0
16 *1733:A1 *517:35 0
17 *61:22 *1665:B 1.47347e-05
18 *61:22 *1688:A_N 9.80032e-06
19 *61:22 *1688:B 0.000264898
20 *61:22 *1706:A 0.000181625
21 *61:22 *1709:A2 6.83659e-05
22 *61:22 *1709:B1 4.82919e-05
23 *61:22 *66:21 4.82863e-05
24 *61:22 *67:18 8.23457e-05
25 *61:22 *70:18 0.000184009
26 *61:22 *283:22 0
27 *61:22 *471:18 0.000178199
28 *61:22 *501:30 0
29 *61:30 *1712:B 0
30 *61:30 *1735:A1 0
31 *61:30 *64:29 0
32 *61:30 *66:21 0.000371143
33 *61:32 *1711:A2 1.71013e-05
34 *61:32 *1711:A3 2.10433e-05
35 *61:32 *1712:B 0
36 *61:32 *1735:A1 0
37 *61:32 *1738:B 0.000145303
38 *61:32 *86:21 5.98004e-06
39 *61:32 *517:35 0
40 *1671:A *61:22 8.40269e-05
41 *1671:B *61:22 0.000159741
*RES
1 *1679:Y *61:22 22.955 
2 *61:22 *61:30 9.275 
3 *61:30 *61:32 2.655 
4 *61:32 *1733:A1 6.24 
5 *61:32 *1711:A1 5.1 
6 *61:30 *1738:A 3.6 
7 *61:22 *1706:D_N 1.6 
*END

*D_NET *62 0.00263858
*CONN
*I *1682:A2 I *D sky130_fd_sc_hd__a21oi_1
*I *1680:Y O *D sky130_fd_sc_hd__xnor2_1
*CAP
1 *1682:A2 0.000531718
2 *1680:Y 0.000531718
3 *1682:A2 *1657:B 0
4 *1682:A2 *1664:C1 1.07797e-05
5 *1682:A2 *1670:B1 0.000111316
6 *1682:A2 *1680:A 9.34333e-05
7 *1682:A2 *1682:B1 0.000134028
8 *1682:A2 *479:10 0.000180675
9 *1682:A2 *479:14 0.000140905
10 *1682:A2 *493:25 0
11 *1682:A2 *518:60 0
12 *1682:A2 *538:28 0
13 *1660:B *1682:A2 5.12942e-05
14 *1664:B1 *1682:A2 0.00011852
15 *1682:A1 *1682:A2 0
16 *1691:A2 *1682:A2 0
17 *44:10 *1682:A2 0.000734191
18 *48:12 *1682:A2 0
*RES
1 *1680:Y *1682:A2 21.33 
*END

*D_NET *63 0.00136735
*CONN
*I *1682:B1 I *D sky130_fd_sc_hd__a21oi_1
*I *1681:Y O *D sky130_fd_sc_hd__a21oi_1
*CAP
1 *1682:B1 0.000303098
2 *1681:Y 0.000303098
3 *1682:B1 *1666:A 0
4 *1682:B1 *1670:B1 5.16418e-05
5 *1682:B1 *1681:B1 7.00889e-06
6 *1682:B1 *2017:D 0.00027209
7 *1681:A1 *1682:B1 0.000193806
8 *1682:A2 *1682:B1 0.000134028
9 *43:24 *1682:B1 0
10 *48:10 *1682:B1 0
11 *48:12 *1682:B1 0
12 *49:8 *1682:B1 5.20968e-05
13 *49:42 *1682:B1 2.7881e-05
14 *52:10 *1682:B1 2.26018e-05
*RES
1 *1681:Y *1682:B1 14.415 
*END

*D_NET *64 0.00799891
*CONN
*I *1683:B I *D sky130_fd_sc_hd__or2_1
*I *1713:A0 I *D sky130_fd_sc_hd__mux2_4
*I *1684:B I *D sky130_fd_sc_hd__xnor2_1
*I *1682:Y O *D sky130_fd_sc_hd__a21oi_1
*CAP
1 *1683:B 0.000889608
2 *1713:A0 0
3 *1684:B 0.000375071
4 *1682:Y 0.000696202
5 *64:29 0.00122465
6 *64:12 0.00140632
7 *1683:B *1709:A1 2.14725e-05
8 *1683:B *1709:A2 4.98756e-05
9 *1683:B *1709:B1 1.90274e-05
10 *1683:B *1710:A3 2.07732e-05
11 *1683:B *1739:A0 1.91597e-05
12 *1683:B *1739:A1 2.83649e-05
13 *1683:B *1739:S 4.77719e-05
14 *1683:B *92:22 0.000159947
15 *1683:B *121:10 0.000107652
16 *1683:B *517:86 2.05056e-05
17 *1683:B *518:60 3.09598e-05
18 *1683:B *549:12 0.000307049
19 *1684:B *1739:A1 4.82863e-05
20 *64:12 *1708:B 2.78518e-05
21 *64:12 *1710:A1 5.22204e-05
22 *64:12 *1739:A1 0.000458856
23 *64:12 *2101:A 3.74161e-05
24 *64:12 *549:22 0.000459372
25 *64:29 *1712:B 0
26 *64:29 *1713:A1 0.000291365
27 *64:29 *1713:S 0.000136884
28 *64:29 *1735:A1 0
29 *64:29 *117:14 1.1561e-05
30 *64:29 *121:10 5.75867e-05
31 *1682:A1 *64:12 5.4155e-06
32 *49:24 *64:12 0.000939656
33 *49:42 *64:12 4.80285e-05
34 *61:30 *64:29 0
*RES
1 *1682:Y *64:12 18.655 
2 *64:12 *1684:B 6.805 
3 *64:12 *64:29 10.765 
4 *64:29 *1713:A0 1.6 
5 *64:29 *1683:B 16.135 
*END

*D_NET *65 0.000878772
*CONN
*I *1709:A1 I *D sky130_fd_sc_hd__a21o_1
*I *1683:X O *D sky130_fd_sc_hd__or2_1
*CAP
1 *1709:A1 0.000169365
2 *1683:X 0.000169365
3 *1709:A1 *1709:A2 8.6076e-05
4 *1709:A1 *1709:B1 0.00022964
5 *1709:A1 *517:86 0.000122337
6 *1709:A1 *549:12 8.05167e-05
7 *1683:B *1709:A1 2.14725e-05
*RES
1 *1683:X *1709:A1 7.1 
*END

*D_NET *66 0.00229718
*CONN
*I *1706:A I *D sky130_fd_sc_hd__or4b_4
*I *1708:A I *D sky130_fd_sc_hd__or3b_1
*I *1712:A I *D sky130_fd_sc_hd__xor2_1
*I *1684:Y O *D sky130_fd_sc_hd__xnor2_1
*CAP
1 *1706:A 7.82897e-05
2 *1708:A 0.000113518
3 *1712:A 0
4 *1684:Y 3.66354e-05
5 *66:21 0.000555273
6 *66:10 0.0004001
7 *1706:A *70:18 4.60123e-05
8 *1708:A *1708:B 1.65105e-05
9 *1708:A *1708:C_N 4.18603e-06
10 *1708:A *1739:A1 0.000137571
11 *1708:A *499:29 0
12 *66:10 *1712:B 0.00011852
13 *66:10 *517:20 4.91189e-05
14 *66:21 *1713:A1 0.000140391
15 *61:22 *1706:A 0.000181625
16 *61:22 *66:21 4.82863e-05
17 *61:30 *66:21 0.000371143
*RES
1 *1684:Y *66:10 6.98 
2 *66:10 *1712:A 1.6 
3 *66:10 *66:21 7.815 
4 *66:21 *1708:A 7.745 
5 *66:21 *1706:A 3.43 
*END

*D_NET *67 0.00552906
*CONN
*I *1687:A2 I *D sky130_fd_sc_hd__a21o_1
*I *1754:A I *D sky130_fd_sc_hd__or3_1
*I *1731:A1 I *D sky130_fd_sc_hd__o21ai_1
*I *1686:C I *D sky130_fd_sc_hd__and3_1
*I *1685:X O *D sky130_fd_sc_hd__a21o_1
*CAP
1 *1687:A2 0
2 *1754:A 0.000252702
3 *1731:A1 4.18978e-05
4 *1686:C 0.000225023
5 *1685:X 0.00053833
6 *67:35 0.000639134
7 *67:18 0.000692727
8 *67:12 0.0006615
9 *1686:C *1686:A 2.16917e-05
10 *1686:C *1686:B 7.79931e-05
11 *1686:C *1688:A_N 1.37328e-05
12 *1686:C *1709:B1 0.000251108
13 *1686:C *1710:A2 0
14 *1686:C *1710:B1 4.77757e-05
15 *1686:C *1710:C1 0.000192125
16 *1686:C *70:18 0.000116402
17 *1686:C *92:18 2.01504e-05
18 *1731:A1 *515:42 8.52845e-05
19 *1754:A *1746:A2_N 0
20 *1754:A *1754:B 3.62086e-05
21 *1754:A *559:20 0.000171285
22 *67:12 *2017:D 5.062e-06
23 *67:12 *471:39 8.53113e-06
24 *67:12 *537:37 0.000332802
25 *67:12 *549:22 6.14433e-05
26 *67:12 *559:32 0
27 *67:18 *1665:B 4.41506e-05
28 *67:18 *537:37 0.000118791
29 *67:35 *70:18 0
30 *67:35 *537:8 0.000450093
31 *67:35 *537:37 2.1939e-05
32 *67:35 *559:20 2.33933e-05
33 *1665:C *67:12 0.000295439
34 *61:22 *67:18 8.23457e-05
*RES
1 *1685:X *67:12 14.615 
2 *67:12 *67:18 4.685 
3 *67:18 *1686:C 9.675 
4 *67:18 *67:35 6.48 
5 *67:35 *1731:A1 4.395 
6 *67:35 *1754:A 8.34 
7 *67:12 *1687:A2 1.6 
*END

*D_NET *68 0.00210193
*CONN
*I *1688:A_N I *D sky130_fd_sc_hd__nand2b_1
*I *1709:B1 I *D sky130_fd_sc_hd__a21o_1
*I *1686:X O *D sky130_fd_sc_hd__and3_1
*CAP
1 *1688:A_N 2.91247e-05
2 *1709:B1 0.000399297
3 *1686:X 0
4 *68:4 0.000428421
5 *1688:A_N *1688:B 3.75506e-05
6 *1688:A_N *70:18 3.00381e-05
7 *1709:B1 *1686:B 0.00027209
8 *1709:B1 *70:18 2.02837e-05
9 *1709:B1 *519:67 0.000155928
10 *1709:B1 *559:32 0.000157595
11 *1683:B *1709:B1 1.90274e-05
12 *1686:C *1688:A_N 1.37328e-05
13 *1686:C *1709:B1 0.000251108
14 *1709:A1 *1709:B1 0.00022964
15 *61:22 *1688:A_N 9.80032e-06
16 *61:22 *1709:B1 4.82919e-05
*RES
1 *1686:X *68:4 1.6 
2 *68:4 *1709:B1 14.18 
3 *68:4 *1688:A_N 2.665 
*END

*D_NET *69 0.00221289
*CONN
*I *1688:B I *D sky130_fd_sc_hd__nand2b_1
*I *1709:A2 I *D sky130_fd_sc_hd__a21o_1
*I *1687:X O *D sky130_fd_sc_hd__a21o_1
*CAP
1 *1688:B 0.000372991
2 *1709:A2 0.000219975
3 *1687:X 0
4 *69:4 0.000592965
5 *1688:B *70:18 1.49433e-05
6 *1688:B *283:22 4.75576e-05
7 *1688:B *471:18 1.0124e-05
8 *1709:A2 *1686:B 7.23533e-05
9 *1709:A2 *537:8 5.2584e-05
10 *1709:A2 *537:37 3.76596e-05
11 *1709:A2 *549:16 0.000284969
12 *1671:B *1688:B 0
13 *1683:B *1709:A2 4.98756e-05
14 *1688:A_N *1688:B 3.75506e-05
15 *1709:A1 *1709:A2 8.6076e-05
16 *61:22 *1688:B 0.000264898
17 *61:22 *1709:A2 6.83659e-05
*RES
1 *1687:X *69:4 1.6 
2 *69:4 *1709:A2 10.955 
3 *69:4 *1688:B 11.4537 
*END

*D_NET *70 0.00378974
*CONN
*I *1706:C I *D sky130_fd_sc_hd__or4b_4
*I *1708:B I *D sky130_fd_sc_hd__or3b_1
*I *1688:Y O *D sky130_fd_sc_hd__nand2b_1
*CAP
1 *1706:C 0
2 *1708:B 0.000221194
3 *1688:Y 0.00100899
4 *70:18 0.00123019
5 *1708:B *1706:B 0.000227302
6 *1708:B *1708:C_N 0
7 *1708:B *1710:A1 6.15025e-06
8 *1708:B *1739:A1 9.41543e-05
9 *70:18 *1686:A 8.40269e-05
10 *70:18 *1710:C1 7.79931e-05
11 *70:18 *1739:A0 0.000199121
12 *70:18 *92:18 0.000184566
13 *1686:C *70:18 0.000116402
14 *1688:A_N *70:18 3.00381e-05
15 *1688:B *70:18 1.49433e-05
16 *1706:A *70:18 4.60123e-05
17 *1708:A *1708:B 1.65105e-05
18 *1709:B1 *70:18 2.02837e-05
19 *61:22 *70:18 0.000184009
20 *64:12 *1708:B 2.78518e-05
21 *67:35 *70:18 0
*RES
1 *1688:Y *70:18 19.715 
2 *70:18 *1708:B 9.815 
3 *70:18 *1706:C 1.6 
*END

*D_NET *71 0.000384308
*CONN
*I *1690:B I *D sky130_fd_sc_hd__xnor2_1
*I *1689:Y O *D sky130_fd_sc_hd__xnor2_1
*CAP
1 *1690:B 8.02331e-05
2 *1689:Y 8.02331e-05
3 *1690:B *1700:C 8.80293e-06
4 *1654:A_N *1690:B 0.000139238
5 *1690:A *1690:B 4.82863e-05
6 *1698:A *1690:B 0
7 *1698:B *1690:B 2.75145e-05
*RES
1 *1689:Y *1690:B 9.285 
*END

*D_NET *72 0.0010812
*CONN
*I *1692:C I *D sky130_fd_sc_hd__or3_4
*I *1690:Y O *D sky130_fd_sc_hd__xnor2_1
*CAP
1 *1692:C 0.000433664
2 *1690:Y 0.000433664
3 *1692:C *1700:C 3.13354e-05
4 *1692:A *1692:C 9.85738e-05
5 *1698:B *1692:C 3.51072e-05
6 *1700:B *1692:C 2.20014e-05
7 *49:24 *1692:C 2.68526e-05
*RES
1 *1690:Y *1692:C 14.355 
*END

*D_NET *73 0.00243998
*CONN
*I *2115:A I *D sky130_fd_sc_hd__buf_1
*I *1693:A I *D sky130_fd_sc_hd__nand2_1
*I *1694:C I *D sky130_fd_sc_hd__and3_1
*I *1691:X O *D sky130_fd_sc_hd__a21o_1
*CAP
1 *2115:A 0
2 *1693:A 7.69232e-05
3 *1694:C 0.000164796
4 *1691:X 0.000419008
5 *73:10 0.000660727
6 *1693:A *74:8 0.000201503
7 *1694:C *1695:A2 0
8 *1694:C *1696:A2 7.43745e-05
9 *1694:C *1735:A0 0
10 *1694:C *74:32 0.000118527
11 *1694:C *84:14 1.49872e-05
12 *1694:C *530:12 6.23375e-05
13 *73:10 *1700:C 9.47267e-06
14 *73:10 *74:6 7.50252e-05
15 *73:10 *74:8 4.77757e-05
16 *73:10 *82:10 0.0001249
17 *73:10 *559:32 4.99619e-05
18 *1700:B *73:10 0.000123955
19 *45:10 *73:10 9.21168e-05
20 *49:24 *73:10 0.000123592
*RES
1 *1691:X *73:10 9.67 
2 *73:10 *1694:C 9.23 
3 *73:10 *1693:A 3.43 
4 *73:10 *2115:A 1.6 
*END

*D_NET *74 0.00174175
*CONN
*I *1696:A2 I *D sky130_fd_sc_hd__a21o_1
*I *1694:B I *D sky130_fd_sc_hd__and3_1
*I *1693:B I *D sky130_fd_sc_hd__nand2_1
*I *1695:A2 I *D sky130_fd_sc_hd__a21oi_1
*I *1692:X O *D sky130_fd_sc_hd__or3_4
*CAP
1 *1696:A2 7.50989e-05
2 *1694:B 0
3 *1693:B 2.08101e-05
4 *1695:A2 0.000133
5 *1692:X 3.50203e-05
6 *74:32 0.000139557
7 *74:8 0.000283556
8 *74:6 0.000229224
9 *1695:A2 *1735:A0 7.81954e-05
10 *1695:A2 *77:8 2.15738e-05
11 *1696:A2 *76:12 3.00381e-05
12 *1696:A2 *84:14 2.61042e-05
13 *1696:A2 *283:40 0.000122325
14 *74:8 *530:12 3.00381e-05
15 *1693:A *74:8 0.000201503
16 *1694:C *1695:A2 0
17 *1694:C *1696:A2 7.43745e-05
18 *1694:C *74:32 0.000118527
19 *73:10 *74:6 7.50252e-05
20 *73:10 *74:8 4.77757e-05
*RES
1 *1692:X *74:6 2.395 
2 *74:6 *74:8 2.865 
3 *74:8 *1695:A2 8.195 
4 *74:8 *1693:B 1.96 
5 *74:6 *74:32 3.38 
6 *74:32 *1694:B 3.6 
7 *74:32 *1696:A2 5.61 
*END

*D_NET *75 0.00259691
*CONN
*I *1735:A0 I *D sky130_fd_sc_hd__mux2_4
*I *1693:Y O *D sky130_fd_sc_hd__nand2_1
*CAP
1 *1735:A0 0.000423628
2 *1693:Y 0.000423628
3 *1735:A0 *1705:B 0
4 *1735:A0 *1707:A1 3.31282e-05
5 *1735:A0 *1735:A1 0.000736465
6 *1735:A0 *76:12 0
7 *1735:A0 *77:8 0
8 *1735:A0 *84:14 0
9 *1735:A0 *84:24 5.16418e-05
10 *1735:A0 *86:10 0
11 *1735:A0 *89:10 2.46007e-05
12 *1735:A0 *499:29 0.000761205
13 *1735:A0 *530:12 6.4422e-05
14 *1694:C *1735:A0 0
15 *1695:A2 *1735:A0 7.81954e-05
*RES
1 *1693:Y *1735:A0 20.82 
*END

*D_NET *76 0.000992681
*CONN
*I *1705:D I *D sky130_fd_sc_hd__or4_4
*I *1707:B1 I *D sky130_fd_sc_hd__a21o_1
*I *1697:A I *D sky130_fd_sc_hd__nor2_1
*I *1694:X O *D sky130_fd_sc_hd__and3_1
*CAP
1 *1705:D 0
2 *1707:B1 0
3 *1697:A 0.000105874
4 *1694:X 0.000142845
5 *76:14 0.000136212
6 *76:12 0.000173182
7 *1697:A *1704:B 0.000111738
8 *1697:A *84:24 4.30075e-05
9 *76:12 *84:14 0
10 *76:14 *1704:B 0.000161529
11 *76:14 *84:24 8.82557e-05
12 *1696:A2 *76:12 3.00381e-05
13 *1735:A0 *76:12 0
*RES
1 *1694:X *76:12 7.43 
2 *76:12 *76:14 1.485 
3 *76:14 *1697:A 4.0375 
4 *76:14 *1707:B1 1.6 
5 *76:12 *1705:D 1.6 
*END

*D_NET *77 0.00142418
*CONN
*I *1705:B I *D sky130_fd_sc_hd__or4_4
*I *1697:B I *D sky130_fd_sc_hd__nor2_1
*I *1695:Y O *D sky130_fd_sc_hd__a21oi_1
*CAP
1 *1705:B 0.000231389
2 *1697:B 2.83467e-05
3 *1695:Y 0.00013751
4 *77:8 0.000397246
5 *1705:B *1704:B 0.000466558
6 *1705:B *84:34 4.55864e-06
7 *1705:B *86:10 2.16521e-05
8 *1705:B *89:10 4.99619e-05
9 *77:8 *1707:A1 2.87867e-05
10 *77:8 *84:24 0
11 *77:8 *84:34 1.00941e-05
12 *77:8 *86:10 2.65028e-05
13 *1695:A2 *77:8 2.15738e-05
14 *1735:A0 *1705:B 0
15 *1735:A0 *77:8 0
*RES
1 *1695:Y *77:8 6 
2 *77:8 *1697:B 4.05 
3 *77:8 *1705:B 8.46 
*END

*D_NET *78 0.000248741
*CONN
*I *1707:A1 I *D sky130_fd_sc_hd__a21o_1
*I *1696:X O *D sky130_fd_sc_hd__a21o_1
*CAP
1 *1707:A1 6.36805e-05
2 *1696:X 6.36805e-05
3 *1707:A1 *1695:A1 4.99619e-05
4 *1707:A1 *84:24 9.50342e-06
5 *1735:A0 *1707:A1 3.31282e-05
6 *77:8 *1707:A1 2.87867e-05
*RES
1 *1696:X *1707:A1 8.52 
*END

*D_NET *79 0.00161024
*CONN
*I *1711:A2 I *D sky130_fd_sc_hd__a31o_1
*I *1734:A I *D sky130_fd_sc_hd__xnor2_1
*I *1697:Y O *D sky130_fd_sc_hd__nor2_1
*CAP
1 *1711:A2 5.18466e-05
2 *1734:A 0.000290403
3 *1697:Y 0.000108918
4 *79:10 0.000451167
5 *1711:A2 *86:21 0.000113797
6 *1734:A *1734:B 6.96579e-05
7 *1734:A *1735:A1 3.13457e-05
8 *79:10 *1704:B 4.82919e-05
9 *79:10 *1733:B1 8.6099e-05
10 *79:10 *86:10 0.000172396
11 *79:10 *86:21 4.38051e-05
12 *1733:A1 *1711:A2 4.80882e-05
13 *1733:A1 *1734:A 2.49909e-05
14 *1733:A1 *79:10 5.23362e-05
15 *61:32 *1711:A2 1.71013e-05
*RES
1 *1697:Y *79:10 6.795 
2 *79:10 *1734:A 7.425 
3 *79:10 *1711:A2 4.98 
*END

*D_NET *80 0.00143705
*CONN
*I *1700:C I *D sky130_fd_sc_hd__or3_4
*I *1698:Y O *D sky130_fd_sc_hd__xnor2_1
*CAP
1 *1700:C 0.000547844
2 *1698:Y 0.000547844
3 *1700:C *82:10 5.83121e-06
4 *1690:B *1700:C 8.80293e-06
5 *1692:A *1700:C 9.69153e-05
6 *1692:C *1700:C 3.13354e-05
7 *1698:A *1700:C 0
8 *1698:B *1700:C 0.00016031
9 *1700:B *1700:C 2.86975e-05
10 *73:10 *1700:C 9.47267e-06
*RES
1 *1698:Y *1700:C 16.065 
*END

*D_NET *81 0.00149098
*CONN
*I *2109:A I *D sky130_fd_sc_hd__buf_1
*I *1703:C I *D sky130_fd_sc_hd__and3_1
*I *1699:X O *D sky130_fd_sc_hd__a21o_1
*CAP
1 *2109:A 0
2 *1703:C 9.12663e-05
3 *1699:X 0.000277214
4 *81:12 0.00036848
5 *1703:C *1703:A 8.35068e-05
6 *1703:C *1703:B 4.46801e-05
7 *1703:C *519:67 4.66108e-05
8 *1703:C *558:22 7.03098e-05
9 *81:12 *1703:B 1.07797e-05
10 *81:12 *283:38 0.000353831
11 *81:12 *519:27 8.53113e-06
12 *81:12 *519:52 9.37731e-05
13 *81:12 *559:32 4.19967e-05
*RES
1 *1699:X *81:12 10.19 
2 *81:12 *1703:C 3.955 
3 *81:12 *2109:A 1.6 
*END

*D_NET *82 0.00210258
*CONN
*I *1703:B I *D sky130_fd_sc_hd__and3_1
*I *1702:A2 I *D sky130_fd_sc_hd__a21oi_1
*I *1701:B I *D sky130_fd_sc_hd__and2_1
*I *1700:X O *D sky130_fd_sc_hd__or3_4
*CAP
1 *1703:B 0.00038835
2 *1702:A2 0
3 *1701:B 7.93016e-05
4 *1700:X 0.000161022
5 *82:14 9.42701e-05
6 *82:10 0.00056434
7 *1701:B *1701:A 2.74169e-05
8 *1701:B *1702:B1 8.64421e-05
9 *1701:B *1739:A0 2.75229e-05
10 *1701:B *84:14 0.000123592
11 *1701:B *283:38 8.28916e-05
12 *1701:B *558:22 1.09281e-05
13 *1703:B *1702:B1 3.2205e-05
14 *1703:B *519:27 1.94874e-05
15 *1703:B *519:52 3.79595e-05
16 *1703:B *559:32 0
17 *82:10 *1702:B1 4.1652e-06
18 *82:10 *519:27 3.84519e-05
19 *82:14 *1702:B1 2.68464e-05
20 *82:14 *283:38 1.31227e-05
21 *1692:A *82:10 9.80943e-06
22 *1700:C *82:10 5.83121e-06
23 *1703:C *1703:B 4.46801e-05
24 *45:10 *82:10 8.8266e-05
25 *49:24 *82:10 0
26 *73:10 *82:10 0.0001249
27 *81:12 *1703:B 1.07797e-05
*RES
1 *1700:X *82:10 6.885 
2 *82:10 *82:14 2.45 
3 *82:14 *1701:B 4.495 
4 *82:14 *1702:A2 1.6 
5 *82:10 *1703:B 8.1072 
*END

*D_NET *83 0.00297565
*CONN
*I *1739:A0 I *D sky130_fd_sc_hd__mux2_4
*I *1701:X O *D sky130_fd_sc_hd__and2_1
*CAP
1 *1739:A0 0.00078745
2 *1701:X 0.00078745
3 *1739:A0 *1706:B 6.17113e-06
4 *1739:A0 *1710:A1 7.93453e-05
5 *1739:A0 *1710:A2 9.71067e-05
6 *1739:A0 *1710:A3 6.90353e-05
7 *1739:A0 *84:14 2.93447e-05
8 *1739:A0 *92:18 0.000114492
9 *1739:A0 *92:22 8.6076e-05
10 *1739:A0 *558:22 8.35068e-05
11 *1683:B *1739:A0 1.91597e-05
12 *1701:B *1739:A0 2.75229e-05
13 *49:24 *1739:A0 0.000589871
14 *70:18 *1739:A0 0.000199121
*RES
1 *1701:X *1739:A0 23.91 
*END

*D_NET *84 0.00293257
*CONN
*I *1705:C I *D sky130_fd_sc_hd__or4_4
*I *1707:A2 I *D sky130_fd_sc_hd__a21o_1
*I *1704:A I *D sky130_fd_sc_hd__nor2_1
*I *1733:B1 I *D sky130_fd_sc_hd__a21o_1
*I *1702:Y O *D sky130_fd_sc_hd__a21oi_1
*CAP
1 *1705:C 0
2 *1707:A2 0
3 *1704:A 0
4 *1733:B1 0.000128429
5 *1702:Y 0.000279673
6 *84:34 0.000380408
7 *84:24 0.000567328
8 *84:14 0.000595022
9 *1733:B1 *86:10 1.61461e-05
10 *84:14 *1694:A 3.64998e-06
11 *84:14 *1704:B 0.000102363
12 *84:14 *85:8 3.6355e-05
13 *84:14 *283:38 0.000272157
14 *84:14 *558:22 2.47705e-05
15 *84:24 *1704:B 1.94841e-05
16 *84:34 *86:10 1.00941e-05
17 *1694:C *84:14 1.49872e-05
18 *1696:A2 *84:14 2.61042e-05
19 *1697:A *84:24 4.30075e-05
20 *1701:B *84:14 0.000123592
21 *1705:B *84:34 4.55864e-06
22 *1707:A1 *84:24 9.50342e-06
23 *1733:A1 *1733:B1 9.50342e-06
24 *1735:A0 *84:14 0
25 *1735:A0 *84:24 5.16418e-05
26 *1739:A0 *84:14 2.93447e-05
27 *76:12 *84:14 0
28 *76:14 *84:24 8.82557e-05
29 *77:8 *84:24 0
30 *77:8 *84:34 1.00941e-05
31 *79:10 *1733:B1 8.6099e-05
*RES
1 *1702:Y *84:14 11.7987 
2 *84:14 *84:24 6.40625 
3 *84:24 *84:34 1.8526 
4 *84:34 *1733:B1 6.45 
5 *84:34 *1704:A 3.6 
6 *84:24 *1707:A2 3.6 
7 *84:14 *1705:C 1.6 
*END

*D_NET *85 0.0017257
*CONN
*I *1705:A I *D sky130_fd_sc_hd__or4_4
*I *1704:B I *D sky130_fd_sc_hd__nor2_1
*I *1703:X O *D sky130_fd_sc_hd__and3_1
*CAP
1 *1705:A 0
2 *1704:B 0.000159891
3 *1703:X 0.000174871
4 *85:8 0.000334762
5 *1704:B *86:10 3.64998e-06
6 *85:8 *1706:B 4.88478e-05
7 *85:8 *558:22 5.73602e-05
8 *1697:A *1704:B 0.000111738
9 *1705:B *1704:B 0.000466558
10 *76:14 *1704:B 0.000161529
11 *79:10 *1704:B 4.82919e-05
12 *84:14 *1704:B 0.000102363
13 *84:14 *85:8 3.6355e-05
14 *84:24 *1704:B 1.94841e-05
*RES
1 *1703:X *85:8 4.825 
2 *85:8 *1704:B 7.24 
3 *85:8 *1705:A 1.6 
*END

*D_NET *86 0.0013792
*CONN
*I *1738:B I *D sky130_fd_sc_hd__xnor2_1
*I *1711:A3 I *D sky130_fd_sc_hd__a31o_1
*I *1733:A2 I *D sky130_fd_sc_hd__a21o_1
*I *1704:Y O *D sky130_fd_sc_hd__nor2_1
*CAP
1 *1738:B 6.66174e-05
2 *1711:A3 3.62754e-06
3 *1733:A2 0
4 *1704:Y 0.00017485
5 *86:21 0.000224568
6 *86:10 0.000329173
7 *1738:B *1735:A1 0
8 *86:10 *1735:A1 0
9 *86:21 *1735:A1 0
10 *1704:B *86:10 3.64998e-06
11 *1705:B *86:10 2.16521e-05
12 *1711:A2 *86:21 0.000113797
13 *1733:A1 *86:21 0
14 *1733:B1 *86:10 1.61461e-05
15 *1735:A0 *86:10 0
16 *61:32 *1711:A3 2.10433e-05
17 *61:32 *1738:B 0.000145303
18 *61:32 *86:21 5.98004e-06
19 *77:8 *86:10 2.65028e-05
20 *79:10 *86:10 0.000172396
21 *79:10 *86:21 4.38051e-05
22 *84:34 *86:10 1.00941e-05
*RES
1 *1704:Y *86:10 6.96 
2 *86:10 *1733:A2 3.6 
3 *86:10 *86:21 3.0675 
4 *86:21 *1711:A3 3.8325 
5 *86:21 *1738:B 5.3625 
*END

*D_NET *87 0.00175731
*CONN
*I *1706:B I *D sky130_fd_sc_hd__or4b_4
*I *1705:X O *D sky130_fd_sc_hd__or4_4
*CAP
1 *1706:B 0.000471428
2 *1705:X 0.000471428
3 *1706:B *1708:C_N 0
4 *1706:B *1710:A1 8.15666e-05
5 *1706:B *89:10 0
6 *1708:B *1706:B 0.000227302
7 *1739:A0 *1706:B 6.17113e-06
8 *49:24 *1706:B 0.000450562
9 *85:8 *1706:B 4.88478e-05
*RES
1 *1705:X *1706:B 17.25 
*END

*D_NET *88 0.000478448
*CONN
*I *1710:A2 I *D sky130_fd_sc_hd__a311oi_4
*I *1706:X O *D sky130_fd_sc_hd__or4b_4
*CAP
1 *1710:A2 0.000117935
2 *1706:X 0.000117935
3 *1710:A2 *1710:A1 0.000141969
4 *1710:A2 *92:18 3.50152e-06
5 *1686:C *1710:A2 0
6 *1739:A0 *1710:A2 9.71067e-05
*RES
1 *1706:X *1710:A2 9.84 
*END

*D_NET *89 0.00142465
*CONN
*I *1708:C_N I *D sky130_fd_sc_hd__or3b_1
*I *1711:B1 I *D sky130_fd_sc_hd__a31o_1
*I *1707:X O *D sky130_fd_sc_hd__a21o_1
*CAP
1 *1708:C_N 9.79519e-05
2 *1711:B1 0.000158337
3 *1707:X 0.00019507
4 *89:10 0.000451359
5 *1708:C_N *499:29 0.000114846
6 *1711:B1 *517:35 0.000200148
7 *89:10 *499:29 0.00012819
8 *1705:B *89:10 4.99619e-05
9 *1706:B *1708:C_N 0
10 *1706:B *89:10 0
11 *1708:A *1708:C_N 4.18603e-06
12 *1708:B *1708:C_N 0
13 *1735:A0 *89:10 2.46007e-05
*RES
1 *1707:X *89:10 7.47 
2 *89:10 *1711:B1 6.81 
3 *89:10 *1708:C_N 6 
*END

*D_NET *90 0.00106332
*CONN
*I *1710:A1 I *D sky130_fd_sc_hd__a311oi_4
*I *1708:X O *D sky130_fd_sc_hd__or3b_1
*CAP
1 *1710:A1 0.000347529
2 *1708:X 0.000347529
3 *1710:A1 *92:18 7.00889e-06
4 *1706:B *1710:A1 8.15666e-05
5 *1708:B *1710:A1 6.15025e-06
6 *1710:A2 *1710:A1 0.000141969
7 *1739:A0 *1710:A1 7.93453e-05
8 *64:12 *1710:A1 5.22204e-05
*RES
1 *1708:X *1710:A1 13.02 
*END

*D_NET *91 0.000897577
*CONN
*I *1710:A3 I *D sky130_fd_sc_hd__a311oi_4
*I *1709:X O *D sky130_fd_sc_hd__a21o_1
*CAP
1 *1710:A3 0.000281138
2 *1709:X 0.000281138
3 *1710:A3 *1739:A1 0.000144082
4 *1710:A3 *92:22 1.05984e-05
5 *1710:A3 *92:39 9.08126e-05
6 *1683:B *1710:A3 2.07732e-05
7 *1739:A0 *1710:A3 6.90353e-05
*RES
1 *1709:X *1710:A3 11.445 
*END

*D_NET *92 0.0109229
*CONN
*I *1754:B I *D sky130_fd_sc_hd__or3_1
*I *1860:A2 I *D sky130_fd_sc_hd__a211o_1
*I *1721:S I *D sky130_fd_sc_hd__mux2_4
*I *1715:S I *D sky130_fd_sc_hd__mux2_1
*I *1731:A2 I *D sky130_fd_sc_hd__o21ai_1
*I *1735:S I *D sky130_fd_sc_hd__mux2_4
*I *1713:S I *D sky130_fd_sc_hd__mux2_4
*I *1739:S I *D sky130_fd_sc_hd__mux2_4
*I *1710:Y O *D sky130_fd_sc_hd__a311oi_4
*CAP
1 *1754:B 0.000404572
2 *1860:A2 0.000354456
3 *1721:S 0
4 *1715:S 0.000149276
5 *1731:A2 0
6 *1735:S 2.08101e-05
7 *1713:S 0.000138139
8 *1739:S 3.16302e-05
9 *1710:Y 0.000257004
10 *92:93 0.000666618
11 *92:78 0.00131197
12 *92:69 0.000850531
13 *92:67 0.000806701
14 *92:39 0.000612869
15 *92:22 0.000515424
16 *92:18 0.000689006
17 *1713:S *117:14 0.000119762
18 *1713:S *121:10 3.09233e-05
19 *1715:S *273:101 0
20 *1715:S *493:25 0
21 *1715:S *493:80 0
22 *1735:S *117:14 0
23 *1739:S *1739:A1 3.19761e-05
24 *1754:B *1746:A1_N 2.80371e-05
25 *1754:B *1746:A2_N 4.50384e-05
26 *1754:B *1749:A 0
27 *1754:B *1754:C 0.000104598
28 *1754:B *100:20 0.000281162
29 *1754:B *130:12 0
30 *1754:B *136:10 8.51862e-05
31 *1754:B *516:43 0.000231787
32 *1860:A2 *1721:A0 4.41506e-05
33 *1860:A2 *1774:C1 0.000153441
34 *1860:A2 *245:20 4.9968e-05
35 *1860:A2 *518:103 8.23457e-05
36 *1860:A2 *519:240 4.63191e-05
37 *1860:A2 *519:255 7.00889e-06
38 *1860:A2 *520:179 0.000187409
39 *92:18 *1710:B1 4.66108e-05
40 *92:22 *1739:A1 2.10214e-05
41 *92:39 *1739:A1 6.94735e-06
42 *92:39 *117:14 1.16578e-05
43 *92:39 *499:29 0
44 *92:67 *1731:B1 1.87328e-05
45 *92:67 *1746:A2_N 9.78012e-05
46 *92:78 *1589:B 0.000908767
47 *92:78 *515:42 0.000195791
48 *92:93 *273:101 0
49 *92:93 *493:80 0
50 *92:93 *519:126 0.00025143
51 *92:93 *519:240 2.75229e-05
52 *1672:A *1715:S 0.000100528
53 *1683:B *1739:S 4.77719e-05
54 *1683:B *92:22 0.000159947
55 *1686:C *92:18 2.01504e-05
56 *1710:A1 *92:18 7.00889e-06
57 *1710:A2 *92:18 3.50152e-06
58 *1710:A3 *92:22 1.05984e-05
59 *1710:A3 *92:39 9.08126e-05
60 *1739:A0 *92:18 0.000114492
61 *1739:A0 *92:22 8.6076e-05
62 *1754:A *1754:B 3.62086e-05
63 *64:29 *1713:S 0.000136884
64 *70:18 *92:18 0.000184566
*RES
1 *1710:Y *92:18 9.285 
2 *92:18 *92:22 3.485 
3 *92:22 *1739:S 2.41 
4 *92:22 *92:39 10.48 
5 *92:39 *1713:S 8.375 
6 *92:39 *1735:S 1.96 
7 *92:18 *92:67 6.045 
8 *92:67 *92:69 2 
9 *92:69 *1731:A2 1.6 
10 *92:69 *92:78 13.49 
11 *92:78 *1715:S 6.51 
12 *92:78 *92:93 7.88 
13 *92:93 *1721:S 1.6 
14 *92:93 *1860:A2 12.86 
15 *92:67 *1754:B 16.69 
*END

*D_NET *93 0.000738719
*CONN
*I *1712:B I *D sky130_fd_sc_hd__xor2_1
*I *1711:X O *D sky130_fd_sc_hd__a31o_1
*CAP
1 *1712:B 0.000301736
2 *1711:X 0.000301736
3 *1712:B *517:20 0
4 *1712:B *517:35 1.67266e-05
5 *61:30 *1712:B 0
6 *61:32 *1712:B 0
7 *64:29 *1712:B 0
8 *66:10 *1712:B 0.00011852
*RES
1 *1711:X *1712:B 12.015 
*END

*D_NET *94 0.00119086
*CONN
*I *1713:A1 I *D sky130_fd_sc_hd__mux2_4
*I *1712:X O *D sky130_fd_sc_hd__xor2_1
*CAP
1 *1713:A1 0.000292869
2 *1712:X 0.000292869
3 *1713:A1 *1735:A1 5.72004e-05
4 *1713:A1 *117:14 0.000116165
5 *1713:A1 *499:29 0
6 *64:29 *1713:A1 0.000291365
7 *66:21 *1713:A1 0.000140391
*RES
1 *1712:X *1713:A1 13.14 
*END

*D_NET *95 0.00246555
*CONN
*I *1730:B I *D sky130_fd_sc_hd__xor2_1
*I *1745:B1_N I *D sky130_fd_sc_hd__o21bai_1
*I *1749:A I *D sky130_fd_sc_hd__nor2_1
*I *1713:X O *D sky130_fd_sc_hd__mux2_4
*CAP
1 *1730:B 0.000106667
2 *1745:B1_N 0
3 *1749:A 0.000171508
4 *1713:X 0.000214095
5 *95:12 0.000489469
6 *95:8 0.000638723
7 *1730:B *114:12 0.000132096
8 *1730:B *121:10 0
9 *1749:A *1746:A2_N 0
10 *1749:A *1746:B1 4.91189e-05
11 *1749:A *130:12 5.53249e-06
12 *1749:A *499:29 0.000126743
13 *95:8 *114:12 0.000252289
14 *95:8 *121:10 0
15 *95:8 *517:20 0
16 *95:12 *515:29 0.000279306
17 *1754:B *1749:A 0
*RES
1 *1713:X *95:8 8.04 
2 *95:8 *95:12 7.28 
3 *95:12 *1749:A 9.275 
4 *95:12 *1745:B1_N 1.6 
5 *95:8 *1730:B 5.685 
*END

*D_NET *96 0.000353019
*CONN
*I *1715:A1 I *D sky130_fd_sc_hd__mux2_1
*I *1714:Y O *D sky130_fd_sc_hd__xnor2_1
*CAP
1 *1715:A1 0.000142651
2 *1714:Y 0.000142651
3 *1715:A1 *496:18 6.77162e-05
*RES
1 *1714:Y *1715:A1 5.03 
*END

*D_NET *97 0.0051737
*CONN
*I *1716:A I *D sky130_fd_sc_hd__inv_2
*I *1778:A I *D sky130_fd_sc_hd__nor2_1
*I *1718:B I *D sky130_fd_sc_hd__and2_1
*I *1717:B I *D sky130_fd_sc_hd__nor2_1
*I *1715:X O *D sky130_fd_sc_hd__mux2_1
*CAP
1 *1716:A 0
2 *1778:A 0.000242384
3 *1718:B 0.000129773
4 *1717:B 9.71884e-06
5 *1715:X 0.00018589
6 *97:48 0.000707017
7 *97:23 0.00113208
8 *97:8 0.000733284
9 *1717:B *99:6 4.82919e-05
10 *1717:B *519:122 4.82919e-05
11 *1718:B *1718:A 2.05571e-05
12 *1778:A *1779:A1 4.82863e-05
13 *1778:A *1779:A2 0.00015896
14 *1778:A *1779:B1 6.71882e-05
15 *1778:A *1791:B1 0.000111901
16 *1778:A *524:25 8.34281e-06
17 *97:8 *273:101 0.000119311
18 *97:8 *283:91 0
19 *97:8 *519:122 1.02348e-05
20 *97:23 *273:101 4.61701e-06
21 *97:23 *519:122 3.16057e-06
22 *97:48 *1718:A 0
23 *97:48 *1771:A2 0.000179015
24 *97:48 *1772:B1 0.000374246
25 *97:48 *1773:A1 1.07797e-05
26 *97:48 *1779:A2 0.000107013
27 *97:48 *1780:A1 5.83121e-06
28 *97:48 *1781:C 0.000307293
29 *97:48 *1790:A_N 8.53113e-06
30 *97:48 *1791:B1 1.61831e-05
31 *97:48 *158:10 6.14689e-05
32 *97:48 *501:28 0
33 *97:48 *519:67 3.97211e-05
34 *97:48 *519:84 0.000274332
*RES
1 *1715:X *97:8 7.275 
2 *97:8 *1717:B 4.05 
3 *97:8 *97:23 1.70277 
4 *97:23 *1718:B 4.5453 
5 *97:23 *97:48 15.7225 
6 *97:48 *1778:A 6.565 
7 *97:48 *1716:A 1.6 
*END

*D_NET *98 0.000740289
*CONN
*I *1780:A1 I *D sky130_fd_sc_hd__o211a_1
*I *1716:Y O *D sky130_fd_sc_hd__inv_2
*CAP
1 *1780:A1 0.00029991
2 *1716:Y 0.00029991
3 *1780:A1 *1780:B1 9.41853e-05
4 *1780:A1 *1781:A 0
5 *1780:A1 *1781:C 0
6 *1780:A1 *1790:A_N 2.49909e-05
7 *1780:A1 *1790:B 6.03947e-06
8 *1780:A1 *1791:B1 9.42307e-06
9 *97:48 *1780:A1 5.83121e-06
*RES
1 *1716:Y *1780:A1 11.1 
*END

*D_NET *99 0.00137448
*CONN
*I *1775:A I *D sky130_fd_sc_hd__or2_1
*I *1728:B1 I *D sky130_fd_sc_hd__a211oi_2
*I *1717:Y O *D sky130_fd_sc_hd__nor2_1
*CAP
1 *1775:A 0
2 *1728:B1 0.00019321
3 *1717:Y 6.44612e-05
4 *99:6 0.000257671
5 *1728:B1 *1775:B 4.82863e-05
6 *1728:B1 *283:91 0.00032782
7 *1728:B1 *516:55 7.68414e-06
8 *1728:B1 *518:31 3.05373e-05
9 *1728:B1 *518:37 0.000150116
10 *1728:B1 *518:80 2.75145e-05
11 *1728:B1 *519:122 0.000109869
12 *99:6 *1776:B 4.82863e-05
13 *99:6 *519:122 6.07328e-05
14 *1717:B *99:6 4.82919e-05
*RES
1 *1717:Y *99:6 3.085 
2 *99:6 *1728:B1 11.12 
3 *99:6 *1775:A 1.6 
*END

*D_NET *100 0.00609139
*CONN
*I *1775:B I *D sky130_fd_sc_hd__or2_1
*I *1747:A1 I *D sky130_fd_sc_hd__o31a_2
*I *1750:A1 I *D sky130_fd_sc_hd__o31a_1
*I *1759:A1 I *D sky130_fd_sc_hd__o32a_1
*I *1729:A I *D sky130_fd_sc_hd__nor2_1
*I *1718:X O *D sky130_fd_sc_hd__and2_1
*CAP
1 *1775:B 0.00010583
2 *1747:A1 7.34958e-05
3 *1750:A1 0
4 *1759:A1 0.000177441
5 *1729:A 0
6 *1718:X 0
7 *100:42 0.000317998
8 *100:32 0.000561656
9 *100:20 0.000979187
10 *100:4 0.000590422
11 *1747:A1 *1747:B1 4.77719e-05
12 *1747:A1 *110:10 5.22928e-05
13 *1747:A1 *110:29 5.18317e-06
14 *1747:A1 *559:20 0.000109198
15 *1759:A1 *1750:A3 4.41506e-05
16 *1759:A1 *1759:A2 2.72177e-05
17 *1759:A1 *110:39 4.82863e-05
18 *1775:B *516:43 0.000461053
19 *1775:B *516:55 1.34503e-05
20 *1775:B *519:71 4.35348e-05
21 *1775:B *519:122 0.000210362
22 *100:20 *1746:A1_N 1.20411e-05
23 *100:20 *1746:A2_N 6.42824e-05
24 *100:20 *1747:B1 5.57807e-05
25 *100:20 *110:10 5.1977e-05
26 *100:20 *130:12 0
27 *100:20 *136:10 9.10781e-05
28 *100:20 *516:43 0.000148611
29 *100:20 *519:71 4.99619e-05
30 *100:20 *559:20 7.39642e-05
31 *100:32 *110:10 6.10956e-05
32 *100:32 *110:29 2.19262e-05
33 *100:32 *130:12 0.000314438
34 *100:32 *516:29 1.19928e-05
35 *100:32 *518:31 0.000230435
36 *100:42 *2052:A 0.000163992
37 *100:42 *110:39 0.000119576
38 *100:42 *499:29 0.00036366
39 *100:42 *516:29 1.19928e-05
40 *100:42 *518:31 4.66108e-05
41 *1728:B1 *1775:B 4.82863e-05
42 *1754:B *100:20 0.000281162
*RES
1 *1718:X *100:4 1.6 
2 *100:4 *100:20 12.845 
3 *100:20 *100:32 13.68 
4 *100:32 *100:42 9.085 
5 *100:42 *1729:A 1.6 
6 *100:42 *1759:A1 4.495 
7 *100:32 *1750:A1 1.6 
8 *100:20 *1747:A1 5.43 
9 *100:4 *1775:B 6.19 
*END

*D_NET *101 0.00021218
*CONN
*I *1720:B I *D sky130_fd_sc_hd__nand2_1
*I *1719:Y O *D sky130_fd_sc_hd__nand2_1
*CAP
1 *1720:B 4.58017e-05
2 *1719:Y 4.58017e-05
3 *1720:B *1589:B 8.80267e-05
4 *1720:B *1596:A 5.83121e-06
5 *1720:B *493:45 2.67184e-05
*RES
1 *1719:Y *1720:B 4.355 
*END

*D_NET *102 0.00040917
*CONN
*I *1721:A1 I *D sky130_fd_sc_hd__mux2_4
*I *1720:Y O *D sky130_fd_sc_hd__nand2_1
*CAP
1 *1721:A1 9.42123e-05
2 *1720:Y 9.42123e-05
3 *1721:A1 *1589:B 4.99619e-05
4 *1721:A1 *219:70 0.000136877
5 *1721:A1 *493:80 0
6 *1721:A1 *519:142 3.39064e-05
*RES
1 *1720:Y *1721:A1 9.285 
*END

*D_NET *103 0.00409595
*CONN
*I *1774:A1 I *D sky130_fd_sc_hd__o211a_1
*I *1722:A I *D sky130_fd_sc_hd__inv_2
*I *1724:B I *D sky130_fd_sc_hd__xnor2_2
*I *1723:B I *D sky130_fd_sc_hd__and2_1
*I *1721:X O *D sky130_fd_sc_hd__mux2_4
*CAP
1 *1774:A1 0
2 *1722:A 6.34261e-05
3 *1724:B 4.05133e-05
4 *1723:B 0.000197466
5 *1721:X 8.58379e-05
6 *103:38 0.00071281
7 *103:21 0.000779115
8 *103:8 0.000372521
9 *1722:A *1781:C 8.65961e-05
10 *1722:A *2044:A2 0.000123225
11 *1722:A *518:31 2.7441e-05
12 *1723:B *1727:A2 4.43467e-05
13 *1723:B *501:129 6.27029e-05
14 *1723:B *517:98 0.000269244
15 *1724:B *1724:A 0.000115762
16 *1724:B *518:80 0.000198934
17 *103:8 *219:70 0
18 *103:8 *493:80 0.000159957
19 *103:21 *219:70 0
20 *103:21 *493:80 0.000152127
21 *103:38 *1774:C1 0.000403558
22 *103:38 *1863:B 0
23 *103:38 *107:14 0
24 *103:38 *219:70 0
25 *103:38 *493:80 0.000172852
26 *103:38 *493:86 0
27 *103:38 *518:31 2.75145e-05
*RES
1 *1721:X *103:8 5.49 
2 *103:8 *1723:B 8.205 
3 *103:8 *103:21 1.89 
4 *103:21 *1724:B 5.43 
5 *103:21 *103:38 14.24 
6 *103:38 *1722:A 3.43 
7 *103:38 *1774:A1 1.6 
*END

*D_NET *104 0.000697939
*CONN
*I *1773:A1 I *D sky130_fd_sc_hd__o211a_1
*I *1722:Y O *D sky130_fd_sc_hd__inv_2
*CAP
1 *1773:A1 8.50982e-05
2 *1722:Y 8.50982e-05
3 *1773:A1 *1772:B1 0.0002178
4 *1773:A1 *1773:A2 0.000163845
5 *1773:A1 *1779:A2 0.000116158
6 *1773:A1 *1840:A 1.91597e-05
7 *97:48 *1773:A1 1.07797e-05
*RES
1 *1722:Y *1773:A1 10.425 
*END

*D_NET *105 0.00110301
*CONN
*I *1727:B1 I *D sky130_fd_sc_hd__a21o_1
*I *1728:C1 I *D sky130_fd_sc_hd__a211oi_2
*I *1723:X O *D sky130_fd_sc_hd__and2_1
*CAP
1 *1727:B1 2.08101e-05
2 *1728:C1 0.000115812
3 *1723:X 3.51961e-05
4 *105:6 0.000171818
5 *1727:B1 *1727:A2 0
6 *1727:B1 *1776:B 0
7 *1728:C1 *1776:A 0.000124007
8 *1728:C1 *1776:B 0.0001947
9 *1728:C1 *501:28 2.24336e-05
10 *1728:C1 *501:65 4.40899e-05
11 *1728:C1 *517:98 3.96653e-05
12 *1728:C1 *518:31 1.26626e-05
13 *1728:C1 *518:37 7.17811e-05
14 *105:6 *1727:A2 4.82919e-05
15 *105:6 *1776:B 0.000120655
16 *105:6 *501:129 2.16917e-05
17 *105:6 *517:98 5.93953e-05
*RES
1 *1723:X *105:6 3.085 
2 *105:6 *1728:C1 9.32 
3 *105:6 *1727:B1 1.96 
*END

*D_NET *106 0.00138579
*CONN
*I *1726:A I *D sky130_fd_sc_hd__nand2_1
*I *1769:A I *D sky130_fd_sc_hd__or2_1
*I *1727:A1 I *D sky130_fd_sc_hd__a21o_1
*I *1728:A1 I *D sky130_fd_sc_hd__a211oi_2
*I *1724:Y O *D sky130_fd_sc_hd__xnor2_2
*CAP
1 *1726:A 5.51144e-05
2 *1769:A 0
3 *1727:A1 0.000102919
4 *1728:A1 2.89741e-05
5 *1724:Y 5.09275e-05
6 *106:32 0.000175921
7 *106:15 0.000223726
8 *106:6 7.99016e-05
9 *1726:A *107:18 4.66108e-05
10 *1726:A *108:6 0.000124895
11 *1727:A1 *1727:A2 0
12 *1727:A1 *1776:B 5.16348e-05
13 *1727:A1 *107:22 0
14 *1727:A1 *283:91 3.42142e-05
15 *1727:A1 *501:22 0.000137578
16 *1728:A1 *518:80 2.49909e-05
17 *106:6 *1728:A2 4.99619e-05
18 *106:6 *518:80 3.7712e-05
19 *106:32 *107:22 0
20 *106:32 *108:6 3.90495e-05
21 *106:32 *151:6 1.16578e-05
22 *106:32 *501:22 0.000109995
*RES
1 *1724:Y *106:6 2.74 
2 *106:6 *1728:A1 2.05 
3 *106:6 *106:15 2 
4 *106:15 *1727:A1 6 
5 *106:15 *106:32 4.535 
6 *106:32 *1769:A 1.6 
7 *106:32 *1726:A 3.1 
*END

*D_NET *107 0.00309943
*CONN
*I *1784:A I *D sky130_fd_sc_hd__nand2_1
*I *1726:B I *D sky130_fd_sc_hd__nand2_1
*I *1769:B I *D sky130_fd_sc_hd__or2_1
*I *1728:A2 I *D sky130_fd_sc_hd__a211oi_2
*I *1727:A2 I *D sky130_fd_sc_hd__a21o_1
*I *1725:X O *D sky130_fd_sc_hd__or2_1
*CAP
1 *1784:A 6.91686e-05
2 *1726:B 0
3 *1769:B 0
4 *1728:A2 2.30016e-05
5 *1727:A2 0.000130846
6 *1725:X 3.98087e-05
7 *107:22 0.000233832
8 *107:18 0.000172305
9 *107:14 0.000447908
10 *107:8 0.000464564
11 *1727:A2 *1776:B 2.97004e-06
12 *1727:A2 *273:114 0.00013521
13 *1727:A2 *501:129 5.95442e-05
14 *1727:A2 *517:98 9.78539e-05
15 *1728:A2 *518:80 8.65905e-05
16 *1784:A *1837:A2 0
17 *1784:A *219:74 1.65192e-05
18 *1784:A *219:85 4.18603e-06
19 *1784:A *221:12 0
20 *1784:A *497:31 6.21553e-05
21 *107:8 *219:70 2.49909e-05
22 *107:14 *1840:B 0
23 *107:14 *221:12 0
24 *107:14 *497:31 0.00065405
25 *107:18 *108:6 2.16917e-05
26 *107:22 *273:114 0.000163019
27 *107:22 *501:22 0
28 *1723:B *1727:A2 4.43467e-05
29 *1726:A *107:18 4.66108e-05
30 *1727:A1 *1727:A2 0
31 *1727:A1 *107:22 0
32 *1727:B1 *1727:A2 0
33 *103:38 *107:14 0
34 *105:6 *1727:A2 4.82919e-05
35 *106:6 *1728:A2 4.99619e-05
36 *106:32 *107:22 0
*RES
1 *1725:X *107:8 4.05 
2 *107:8 *107:14 9.785 
3 *107:14 *107:18 1.5 
4 *107:18 *107:22 3.89 
5 *107:22 *1727:A2 7.095 
6 *107:22 *1728:A2 4.395 
7 *107:18 *1769:B 1.6 
8 *107:14 *1726:B 1.6 
9 *107:8 *1784:A 4.98 
*END

*D_NET *108 0.00194681
*CONN
*I *1771:B2 I *D sky130_fd_sc_hd__a221o_1
*I *1770:A I *D sky130_fd_sc_hd__nand2_1
*I *1726:Y O *D sky130_fd_sc_hd__nand2_1
*CAP
1 *1771:B2 0.000242205
2 *1770:A 8.47581e-06
3 *1726:Y 0.000232739
4 *108:6 0.000483419
5 *1770:A *1771:B1 5.4155e-06
6 *1771:B2 *1771:A2 1.18276e-05
7 *1771:B2 *1771:B1 5.12202e-05
8 *1771:B2 *1774:B1 4.66108e-05
9 *1771:B2 *501:79 1.52184e-05
10 *108:6 *1771:B1 4.21973e-05
11 *108:6 *1774:B1 0.000198203
12 *108:6 *151:6 0.000423642
13 *1726:A *108:6 0.000124895
14 *106:32 *108:6 3.90495e-05
15 *107:18 *108:6 2.16917e-05
*RES
1 *1726:Y *108:6 8.26 
2 *108:6 *1770:A 1.96 
3 *108:6 *1771:B2 5.605 
*END

*D_NET *109 0.00045508
*CONN
*I *1776:A I *D sky130_fd_sc_hd__xnor2_1
*I *1727:X O *D sky130_fd_sc_hd__a21o_1
*CAP
1 *1776:A 7.46095e-05
2 *1727:X 7.46095e-05
3 *1776:A *1776:B 4.60584e-05
4 *1776:A *501:26 1.34594e-05
5 *1776:A *517:98 0.000122337
6 *1728:C1 *1776:A 0.000124007
*RES
1 *1727:X *1776:A 5.375 
*END

*D_NET *110 0.00500611
*CONN
*I *1750:A2 I *D sky130_fd_sc_hd__o31a_1
*I *1729:B I *D sky130_fd_sc_hd__nor2_1
*I *1759:A2 I *D sky130_fd_sc_hd__o32a_1
*I *1747:A2 I *D sky130_fd_sc_hd__o31a_2
*I *1728:Y O *D sky130_fd_sc_hd__a211oi_2
*CAP
1 *1750:A2 0
2 *1729:B 0
3 *1759:A2 8.99757e-05
4 *1747:A2 0
5 *1728:Y 0.000650894
6 *110:39 0.000268846
7 *110:29 0.000519821
8 *110:10 0.000991845
9 *1759:A2 *1750:A3 0.000119756
10 *1759:A2 *123:8 0
11 *1759:A2 *518:224 0.000191226
12 *110:10 *1777:B1 1.61831e-05
13 *110:10 *130:12 0
14 *110:10 *501:65 0.000154098
15 *110:10 *559:20 0.000344839
16 *110:29 *1747:A3 0.000342258
17 *110:29 *1747:B1 9.76407e-06
18 *110:29 *2052:A 9.30717e-05
19 *110:29 *499:29 9.14049e-05
20 *110:29 *559:20 2.36371e-05
21 *110:39 *1744:B 5.16348e-05
22 *110:39 *1750:A3 4.66108e-05
23 *110:39 *2052:A 0.000203762
24 *110:39 *117:29 5.47882e-05
25 *110:39 *516:29 8.40213e-05
26 *110:39 *518:12 0.000143266
27 *110:39 *518:31 8.34281e-06
28 *110:39 *518:224 0.000118513
29 *1747:A1 *110:10 5.22928e-05
30 *1747:A1 *110:29 5.18317e-06
31 *1759:A1 *1759:A2 2.72177e-05
32 *1759:A1 *110:39 4.82863e-05
33 *100:20 *110:10 5.1977e-05
34 *100:32 *110:10 6.10956e-05
35 *100:32 *110:29 2.19262e-05
36 *100:42 *110:39 0.000119576
*RES
1 *1728:Y *110:10 14.73 
2 *110:10 *1747:A2 3.6 
3 *110:10 *110:29 11.55 
4 *110:29 *110:39 9.94 
5 *110:39 *1759:A2 4.045 
6 *110:39 *1729:B 1.6 
7 *110:29 *1750:A2 1.6 
*END

*D_NET *111 0.000377703
*CONN
*I *1764:A I *D sky130_fd_sc_hd__xnor2_1
*I *1729:Y O *D sky130_fd_sc_hd__nor2_1
*CAP
1 *1764:A 9.57253e-05
2 *1729:Y 9.57253e-05
3 *1764:A *1740:A 8.49205e-05
4 *1764:A *117:29 6.02123e-05
5 *1764:A *499:29 4.11194e-05
*RES
1 *1729:Y *1764:A 9.375 
*END

*D_NET *112 0.00364275
*CONN
*I *1742:A I *D sky130_fd_sc_hd__nand4_1
*I *1751:C_N I *D sky130_fd_sc_hd__or3b_1
*I *1744:D_N I *D sky130_fd_sc_hd__or4bb_4
*I *1752:B1_N I *D sky130_fd_sc_hd__o21bai_1
*I *1730:X O *D sky130_fd_sc_hd__xor2_1
*CAP
1 *1742:A 0.000182669
2 *1751:C_N 0.000414827
3 *1744:D_N 0.000108832
4 *1752:B1_N 0
5 *1730:X 0.00012236
6 *112:19 0.000680703
7 *112:12 0.000267541
8 *112:8 0.000415526
9 *1742:A *496:8 7.10578e-05
10 *1742:A *515:16 9.28357e-05
11 *1744:D_N *1742:C 8.49205e-05
12 *1744:D_N *1742:D 9.50342e-06
13 *1744:D_N *1744:C_N 4.82919e-05
14 *1744:D_N *1747:A3 2.05056e-05
15 *1744:D_N *1752:A1 7.30547e-05
16 *1744:D_N *121:10 7.81221e-05
17 *1744:D_N *517:14 0.000116571
18 *1751:C_N *1752:A2 7.67415e-06
19 *1751:C_N *1753:A1 0
20 *1751:C_N *1753:A2 0.00015639
21 *1751:C_N *1753:A3 9.57498e-05
22 *1751:C_N *1753:B1 0.000170174
23 *112:8 *515:16 0.000129678
24 *112:8 *517:20 0.000210839
25 *112:19 *1753:A3 8.49205e-05
*RES
1 *1730:X *112:8 7.275 
2 *112:8 *112:12 3.14 
3 *112:12 *1752:B1_N 1.6 
4 *112:12 *112:19 1.83 
5 *112:19 *1744:D_N 9.05 
6 *112:19 *1751:C_N 7.615 
7 *112:8 *1742:A 7.395 
*END

*D_NET *113 0.00309521
*CONN
*I *1746:A2_N I *D sky130_fd_sc_hd__o2bb2a_1
*I *1745:A2 I *D sky130_fd_sc_hd__o21bai_1
*I *1732:B I *D sky130_fd_sc_hd__xnor2_1
*I *1731:Y O *D sky130_fd_sc_hd__o21ai_1
*CAP
1 *1746:A2_N 0.000156541
2 *1745:A2 0
3 *1732:B 0.000655841
4 *1731:Y 1.10148e-05
5 *113:10 0.000739581
6 *113:6 0.000251295
7 *1732:B *114:12 0.000124895
8 *1732:B *496:18 0.000313341
9 *1732:B *499:29 0
10 *1746:A2_N *1746:A1_N 0.00013521
11 *1746:A2_N *1747:B1 8.53113e-06
12 *113:6 *1586:A 4.66108e-05
13 *113:6 *515:29 3.66286e-05
14 *113:10 *1586:A 8.6076e-05
15 *113:10 *1745:A1 4.02369e-05
16 *113:10 *1746:A1_N 8.12896e-06
17 *113:10 *515:29 0.000274161
18 *1749:A *1746:A2_N 0
19 *1754:A *1746:A2_N 0
20 *1754:B *1746:A2_N 4.50384e-05
21 *92:67 *1746:A2_N 9.78012e-05
22 *100:20 *1746:A2_N 6.42824e-05
*RES
1 *1731:Y *113:6 2.05 
2 *113:6 *113:10 2.88 
3 *113:10 *1732:B 16.475 
4 *113:10 *1745:A2 1.6 
5 *113:6 *1746:A2_N 9.215 
*END

*D_NET *114 0.00248147
*CONN
*I *1744:C_N I *D sky130_fd_sc_hd__or4bb_4
*I *1742:B I *D sky130_fd_sc_hd__nand4_1
*I *1732:Y O *D sky130_fd_sc_hd__xnor2_1
*CAP
1 *1744:C_N 6.89909e-05
2 *1742:B 7.72816e-06
3 *1732:Y 0.000404569
4 *114:12 0.000481288
5 *1742:B *496:8 9.99636e-06
6 *1744:C_N *1742:C 4.21973e-05
7 *1744:C_N *1747:A3 0.000122331
8 *1744:C_N *496:8 8.34281e-06
9 *114:12 *1730:A 0.000118513
10 *114:12 *121:10 0
11 *114:12 *515:16 0.000321719
12 *114:12 *517:14 0.000338219
13 *114:12 *517:20 0
14 *1730:B *114:12 0.000132096
15 *1732:B *114:12 0.000124895
16 *1744:D_N *1744:C_N 4.82919e-05
17 *95:8 *114:12 0.000252289
*RES
1 *1732:Y *114:12 17.3 
2 *114:12 *1742:B 1.78 
3 *114:12 *1744:C_N 3.445 
*END

*D_NET *115 0.000229688
*CONN
*I *1734:B I *D sky130_fd_sc_hd__xnor2_1
*I *1733:X O *D sky130_fd_sc_hd__a21o_1
*CAP
1 *1734:B 5.50341e-05
2 *1733:X 5.50341e-05
3 *1734:B *1735:A1 4.99619e-05
4 *1734:A *1734:B 6.96579e-05
*RES
1 *1733:X *1734:B 4.685 
*END

*D_NET *116 0.00220136
*CONN
*I *1735:A1 I *D sky130_fd_sc_hd__mux2_4
*I *1734:Y O *D sky130_fd_sc_hd__xnor2_1
*CAP
1 *1735:A1 0.000642716
2 *1734:Y 0.000642716
3 *1735:A1 *499:29 1.34361e-05
4 *1713:A1 *1735:A1 5.72004e-05
5 *1733:A1 *1735:A1 2.75145e-05
6 *1734:A *1735:A1 3.13457e-05
7 *1734:B *1735:A1 4.99619e-05
8 *1735:A0 *1735:A1 0.000736465
9 *1738:B *1735:A1 0
10 *61:30 *1735:A1 0
11 *61:32 *1735:A1 0
12 *64:29 *1735:A1 0
13 *86:10 *1735:A1 0
14 *86:21 *1735:A1 0
*RES
1 *1734:Y *1735:A1 20.22 
*END

*D_NET *117 0.00661574
*CONN
*I *1736:B I *D sky130_fd_sc_hd__and2_4
*I *1761:A0 I *D sky130_fd_sc_hd__mux2_1
*I *1737:B I *D sky130_fd_sc_hd__xor2_1
*I *1743:A2 I *D sky130_fd_sc_hd__o22a_1
*I *1735:X O *D sky130_fd_sc_hd__mux2_4
*CAP
1 *1736:B 0
2 *1761:A0 0.000134758
3 *1737:B 2.61242e-05
4 *1743:A2 0.000118117
5 *1735:X 0.000622142
6 *117:29 0.000524926
7 *117:18 0.000693383
8 *117:14 0.000833364
9 *1737:B *517:164 4.66108e-05
10 *1743:A2 *1743:B1 1.34594e-05
11 *1743:A2 *1750:A3 4.82863e-05
12 *1743:A2 *516:29 4.66108e-05
13 *1761:A0 *1761:A1 4.91927e-05
14 *1761:A0 *1761:S 0.000137571
15 *1761:A0 *499:6 8.65961e-05
16 *1761:A0 *499:29 3.66286e-05
17 *117:14 *1753:A1 5.56629e-05
18 *117:14 *121:10 0
19 *117:14 *496:18 0.000282513
20 *117:14 *499:29 0
21 *117:14 *516:35 8.68803e-05
22 *117:18 *1742:C 1.1561e-05
23 *117:18 *1744:B 9.30717e-05
24 *117:18 *1753:A1 0.000103127
25 *117:18 *2052:A 4.284e-05
26 *117:18 *496:18 3.60648e-05
27 *117:18 *516:29 0.000482561
28 *117:18 *516:35 9.50342e-06
29 *117:29 *1742:C 5.19198e-05
30 *117:29 *1744:B 4.9968e-05
31 *117:29 *1750:A3 0.000358937
32 *117:29 *1760:B 0.00044752
33 *117:29 *1761:A1 1.82476e-05
34 *117:29 *1761:S 0.000362972
35 *117:29 *1765:A1 0
36 *117:29 *119:8 7.81954e-05
37 *117:29 *499:29 0
38 *117:29 *518:12 0.000143266
39 *117:29 *518:224 0.000109009
40 *1713:A1 *117:14 0.000116165
41 *1713:S *117:14 0.000119762
42 *1735:S *117:14 0
43 *1764:A *117:29 6.02123e-05
44 *64:29 *117:14 1.1561e-05
45 *92:39 *117:14 1.16578e-05
46 *110:39 *117:29 5.47882e-05
*RES
1 *1735:X *117:14 15.69 
2 *117:14 *117:18 6.42 
3 *117:18 *1743:A2 5.43 
4 *117:18 *117:29 12.6 
5 *117:29 *1737:B 4.05 
6 *117:29 *1761:A0 6.375 
7 *117:14 *1736:B 3.6 
*END

*D_NET *118 0.00243305
*CONN
*I *1752:A1 I *D sky130_fd_sc_hd__o21bai_1
*I *1744:A I *D sky130_fd_sc_hd__or4bb_4
*I *1751:A I *D sky130_fd_sc_hd__or3b_1
*I *1736:X O *D sky130_fd_sc_hd__and2_4
*CAP
1 *1752:A1 0.000345229
2 *1744:A 0.000111237
3 *1751:A 0
4 *1736:X 0
5 *118:8 0.00018358
6 *118:4 0.000417572
7 *1744:A *1747:A3 0.000158066
8 *1744:A *1751:B 3.09164e-05
9 *1744:A *126:8 1.56428e-05
10 *1744:A *132:8 0.000149759
11 *1744:A *496:8 1.83756e-05
12 *1744:A *499:29 0.000171172
13 *1752:A1 *1736:A 0.000158066
14 *1752:A1 *1752:A2 4.66108e-05
15 *1752:A1 *1753:A1 4.52061e-05
16 *1752:A1 *1753:A3 2.49909e-05
17 *1752:A1 *121:10 0.000158297
18 *1752:A1 *517:14 3.38895e-05
19 *118:8 *1751:B 7.4027e-05
20 *118:8 *1753:B1 3.50033e-05
21 *118:8 *130:12 0
22 *118:8 *499:29 0.000182356
23 *1744:D_N *1752:A1 7.30547e-05
*RES
1 *1736:X *118:4 1.6 
2 *118:4 *118:8 4.145 
3 *118:8 *1751:A 3.6 
4 *118:8 *1744:A 7.23 
5 *118:4 *1752:A1 11.855 
*END

*D_NET *119 0.00335348
*CONN
*I *1760:A I *D sky130_fd_sc_hd__xor2_1
*I *1742:C I *D sky130_fd_sc_hd__nand4_1
*I *1737:X O *D sky130_fd_sc_hd__xor2_1
*CAP
1 *1760:A 0
2 *1742:C 0.000385226
3 *1737:X 5.59407e-05
4 *119:8 0.000441166
5 *1742:C *1747:A3 1.19928e-05
6 *1742:C *1750:A3 0.000360597
7 *1742:C *1760:B 0.00044752
8 *1742:C *1765:A0 0.000163019
9 *1742:C *121:10 0.000226855
10 *1742:C *121:19 0.000362264
11 *1742:C *121:41 0.000199032
12 *1742:C *496:8 0.000196381
13 *1742:C *516:29 0.000162332
14 *1742:C *517:10 0
15 *119:8 *1761:A1 7.23602e-05
16 *119:8 *517:10 0
17 *1744:C_N *1742:C 4.21973e-05
18 *1744:D_N *1742:C 8.49205e-05
19 *117:18 *1742:C 1.1561e-05
20 *117:29 *1742:C 5.19198e-05
21 *117:29 *119:8 7.81954e-05
*RES
1 *1737:X *119:8 5.235 
2 *119:8 *1742:C 18.03 
3 *119:8 *1760:A 3.6 
*END

*D_NET *120 0.00231851
*CONN
*I *1739:A1 I *D sky130_fd_sc_hd__mux2_4
*I *1738:Y O *D sky130_fd_sc_hd__xnor2_1
*CAP
1 *1739:A1 0.000673625
2 *1738:Y 0.000673625
3 *1739:A1 *499:29 0
4 *1683:B *1739:A1 2.83649e-05
5 *1684:B *1739:A1 4.82863e-05
6 *1708:A *1739:A1 0.000137571
7 *1708:B *1739:A1 9.41543e-05
8 *1710:A3 *1739:A1 0.000144082
9 *1739:S *1739:A1 3.19761e-05
10 *64:12 *1739:A1 0.000458856
11 *92:22 *1739:A1 2.10214e-05
12 *92:39 *1739:A1 6.94735e-06
*RES
1 *1738:Y *1739:A1 18.84 
*END

*D_NET *121 0.0060373
*CONN
*I *1765:A0 I *D sky130_fd_sc_hd__mux2_1
*I *1740:B I *D sky130_fd_sc_hd__xnor2_1
*I *1759:B1 I *D sky130_fd_sc_hd__o32a_1
*I *1741:B I *D sky130_fd_sc_hd__xnor2_1
*I *1743:B2 I *D sky130_fd_sc_hd__o22a_1
*I *1739:X O *D sky130_fd_sc_hd__mux2_4
*CAP
1 *1765:A0 0.000283095
2 *1740:B 8.92774e-05
3 *1759:B1 0
4 *1741:B 7.77031e-05
5 *1743:B2 0
6 *1739:X 0.000990273
7 *121:41 0.000463075
8 *121:25 0.000198012
9 *121:19 0.000324994
10 *121:10 0.00110426
11 *1740:B *1740:A 2.16833e-05
12 *1740:B *1764:B 4.66108e-05
13 *1740:B *497:31 1.34594e-05
14 *1741:B *1741:A 7.87474e-05
15 *1741:B *1759:B2 9.2006e-05
16 *1765:A0 *1761:S 8.65961e-05
17 *1765:A0 *1765:A1 4.66108e-05
18 *1765:A0 *130:59 3.38341e-05
19 *1765:A0 *517:10 0
20 *121:10 *1742:D 7.7615e-05
21 *121:10 *516:29 0.000163367
22 *121:10 *516:35 9.428e-05
23 *121:10 *517:14 0
24 *121:19 *1742:D 0.00013905
25 *121:25 *1750:A3 4.99619e-05
26 *121:25 *1759:B2 7.14699e-05
27 *121:25 *1764:B 0
28 *121:25 *123:8 1.46828e-05
29 *121:41 *1742:D 4.19797e-05
30 *121:41 *1764:B 5.09144e-05
31 *121:41 *517:10 0
32 *1683:B *121:10 0.000107652
33 *1713:S *121:10 3.09233e-05
34 *1730:B *121:10 0
35 *1742:C *1765:A0 0.000163019
36 *1742:C *121:10 0.000226855
37 *1742:C *121:19 0.000362264
38 *1742:C *121:41 0.000199032
39 *1744:D_N *121:10 7.81221e-05
40 *1752:A1 *121:10 0.000158297
41 *64:29 *121:10 5.75867e-05
42 *95:8 *121:10 0
43 *114:12 *121:10 0
44 *117:14 *121:10 0
*RES
1 *1739:X *121:10 22.395 
2 *121:10 *1743:B2 3.6 
3 *121:10 *121:19 4.185 
4 *121:19 *121:25 3.935 
5 *121:25 *1741:B 3.445 
6 *121:25 *1759:B1 1.6 
7 *121:19 *121:41 2.4 
8 *121:41 *1740:B 5.1 
9 *121:41 *1765:A0 8.7 
*END

*D_NET *122 0.00225166
*CONN
*I *1764:B I *D sky130_fd_sc_hd__xnor2_1
*I *1742:D I *D sky130_fd_sc_hd__nand4_1
*I *1740:Y O *D sky130_fd_sc_hd__xnor2_1
*CAP
1 *1764:B 0.000170575
2 *1742:D 0.000223576
3 *1740:Y 9.05452e-05
4 *122:8 0.000484696
5 *1742:D *517:10 0.000467252
6 *1742:D *517:14 0.000206123
7 *1764:B *1740:A 7.66426e-05
8 *1764:B *517:10 4.68199e-05
9 *122:8 *497:31 0.000119756
10 *1740:B *1764:B 4.66108e-05
11 *1744:D_N *1742:D 9.50342e-06
12 *121:10 *1742:D 7.7615e-05
13 *121:19 *1742:D 0.00013905
14 *121:25 *1764:B 0
15 *121:41 *1742:D 4.19797e-05
16 *121:41 *1764:B 5.09144e-05
*RES
1 *1740:Y *122:8 4.74 
2 *122:8 *1742:D 11.355 
3 *122:8 *1764:B 6.51 
*END

*D_NET *123 0.00198947
*CONN
*I *1750:A3 I *D sky130_fd_sc_hd__o31a_1
*I *1759:A3 I *D sky130_fd_sc_hd__o32a_1
*I *1741:Y O *D sky130_fd_sc_hd__xnor2_1
*CAP
1 *1750:A3 0.000187393
2 *1759:A3 0
3 *1741:Y 6.21204e-05
4 *123:8 0.000249513
5 *1750:A3 *1743:B1 1.91597e-05
6 *1750:A3 *1750:B1 3.57349e-05
7 *1750:A3 *125:6 4.66108e-05
8 *1750:A3 *516:29 3.38425e-05
9 *1750:A3 *518:31 1.91597e-05
10 *1750:A3 *518:224 1.60203e-05
11 *123:8 *1759:B2 0.000119756
12 *123:8 *518:224 0.000157172
13 *1742:C *1750:A3 0.000360597
14 *1743:A2 *1750:A3 4.82863e-05
15 *1759:A1 *1750:A3 4.41506e-05
16 *1759:A2 *1750:A3 0.000119756
17 *1759:A2 *123:8 0
18 *110:39 *1750:A3 4.66108e-05
19 *117:29 *1750:A3 0.000358937
20 *121:25 *1750:A3 4.99619e-05
21 *121:25 *123:8 1.46828e-05
*RES
1 *1741:Y *123:8 3.445 
2 *123:8 *1759:A3 1.6 
3 *123:8 *1750:A3 12.755 
*END

*D_NET *124 0.00144811
*CONN
*I *1747:A3 I *D sky130_fd_sc_hd__o31a_2
*I *1742:Y O *D sky130_fd_sc_hd__nand4_1
*CAP
1 *1747:A3 0.000338809
2 *1742:Y 0.000338809
3 *1747:A3 *1747:B1 1.9872e-05
4 *1747:A3 *126:8 5.53872e-05
5 *1747:A3 *496:8 4.00796e-05
6 *1742:C *1747:A3 1.19928e-05
7 *1744:A *1747:A3 0.000158066
8 *1744:C_N *1747:A3 0.000122331
9 *1744:D_N *1747:A3 2.05056e-05
10 *110:29 *1747:A3 0.000342258
*RES
1 *1742:Y *1747:A3 10.205 
*END

*D_NET *125 0.000569965
*CONN
*I *1750:B1 I *D sky130_fd_sc_hd__o31a_1
*I *1744:B I *D sky130_fd_sc_hd__or4bb_4
*I *1743:X O *D sky130_fd_sc_hd__o22a_1
*CAP
1 *1750:B1 1.20605e-05
2 *1744:B 5.1256e-05
3 *1743:X 1.36534e-05
4 *125:6 7.69699e-05
5 *1744:B *2052:A 4.5783e-05
6 *1750:B1 *1743:B1 1.08758e-05
7 *1750:B1 *518:31 3.57349e-05
8 *125:6 *1743:B1 4.66108e-05
9 *1750:A3 *1750:B1 3.57349e-05
10 *1750:A3 *125:6 4.66108e-05
11 *110:39 *1744:B 5.16348e-05
12 *117:18 *1744:B 9.30717e-05
13 *117:29 *1744:B 4.9968e-05
*RES
1 *1743:X *125:6 2.05 
2 *125:6 *1744:B 7.235 
3 *125:6 *1750:B1 2.05 
*END

*D_NET *126 0.00622436
*CONN
*I *2044:A2 I *D sky130_fd_sc_hd__a21oi_2
*I *1771:A2 I *D sky130_fd_sc_hd__a221o_1
*I *1748:A2 I *D sky130_fd_sc_hd__a21oi_4
*I *1772:A1 I *D sky130_fd_sc_hd__a211o_1
*I *1777:A1 I *D sky130_fd_sc_hd__a211o_1
*I *1744:X O *D sky130_fd_sc_hd__or4bb_4
*CAP
1 *2044:A2 0.000323169
2 *1771:A2 6.96852e-05
3 *1748:A2 0
4 *1772:A1 0.000223729
5 *1777:A1 6.06816e-05
6 *1744:X 0.000585689
7 *126:49 0.000426483
8 *126:42 8.47071e-05
9 *126:21 0.000366295
10 *126:8 0.000737859
11 *1771:A2 *1771:B1 3.04245e-05
12 *1771:A2 *519:84 0.000183036
13 *1772:A1 *1772:B1 4.89295e-05
14 *1772:A1 *129:14 8.81641e-05
15 *1772:A1 *136:10 0.000206123
16 *1772:A1 *501:89 7.54478e-05
17 *1772:A1 *518:31 0.000230009
18 *1777:A1 *1777:A2 9.37731e-05
19 *1777:A1 *1780:B1 6.88421e-05
20 *1777:A1 *501:79 9.29751e-06
21 *2044:A2 *1774:A2 7.25036e-05
22 *2044:A2 *1779:A2 0.000140391
23 *2044:A2 *1780:A2 4.66826e-05
24 *2044:A2 *1781:C 8.05167e-05
25 *2044:A2 *1790:A_N 0
26 *2044:A2 *1791:B1 0.000225182
27 *2044:A2 *161:8 0.000117825
28 *2044:A2 *497:31 4.66826e-05
29 *2044:A2 *518:31 0.000148267
30 *2044:A2 *524:36 3.60566e-05
31 *126:8 *1747:B1 0.000265744
32 *126:8 *129:14 2.46151e-06
33 *126:8 *501:79 4.66108e-05
34 *126:8 *501:89 8.49852e-05
35 *126:21 *1777:A2 4.01019e-05
36 *126:21 *1780:B1 0.000187227
37 *126:21 *129:25 0.000164347
38 *126:42 *1773:C1 2.10134e-05
39 *126:42 *129:14 5.83121e-06
40 *126:42 *129:23 1.91597e-05
41 *126:42 *518:31 0.000111455
42 *126:49 *1773:C1 1.83756e-05
43 *126:49 *1781:C 5.83121e-06
44 *126:49 *518:31 3.96653e-05
45 *1722:A *2044:A2 0.000123225
46 *1744:A *126:8 1.56428e-05
47 *1747:A3 *126:8 5.53872e-05
48 *1771:B2 *1771:A2 1.18276e-05
49 *97:48 *1771:A2 0.000179015
*RES
1 *1744:X *126:8 10.605 
2 *126:8 *1777:A1 4.98 
3 *126:8 *126:21 4.4 
4 *126:21 *1772:A1 11.075 
5 *126:21 *126:42 1.5 
6 *126:42 *1748:A2 1.6 
7 *126:42 *126:49 0.795 
8 *126:49 *1771:A2 8.0225 
9 *126:49 *2044:A2 15.14 
*END

*D_NET *127 0.000289812
*CONN
*I *1746:B1 I *D sky130_fd_sc_hd__o2bb2a_1
*I *1745:Y O *D sky130_fd_sc_hd__o21bai_1
*CAP
1 *1746:B1 9.64587e-05
2 *1745:Y 9.64587e-05
3 *1746:B1 *516:35 4.77757e-05
4 *1749:A *1746:B1 4.91189e-05
*RES
1 *1745:Y *1746:B1 9.03 
*END

*D_NET *128 0.00145223
*CONN
*I *1747:B1 I *D sky130_fd_sc_hd__o31a_2
*I *1746:X O *D sky130_fd_sc_hd__o2bb2a_1
*CAP
1 *1747:B1 0.000379015
2 *1746:X 0.000379015
3 *1747:B1 *129:14 2.01259e-05
4 *1747:B1 *136:10 0.000266612
5 *1746:A2_N *1747:B1 8.53113e-06
6 *1747:A1 *1747:B1 4.77719e-05
7 *1747:A3 *1747:B1 1.9872e-05
8 *100:20 *1747:B1 5.57807e-05
9 *110:29 *1747:B1 9.76407e-06
10 *126:8 *1747:B1 0.000265744
*RES
1 *1746:X *1747:B1 15.285 
*END

*D_NET *129 0.00470542
*CONN
*I *2044:A1 I *D sky130_fd_sc_hd__a21oi_2
*I *1772:A2 I *D sky130_fd_sc_hd__a211o_1
*I *1771:A1 I *D sky130_fd_sc_hd__a221o_1
*I *1777:A2 I *D sky130_fd_sc_hd__a211o_1
*I *1748:A1 I *D sky130_fd_sc_hd__a21oi_4
*I *1747:X O *D sky130_fd_sc_hd__o31a_2
*CAP
1 *2044:A1 0.000369439
2 *1772:A2 0.000122847
3 *1771:A1 6.81004e-05
4 *1777:A2 0.00012298
5 *1748:A1 0
6 *1747:X 0.000283047
7 *129:53 0.000597645
8 *129:25 0.000266935
9 *129:23 0.000195888
10 *129:14 0.000297719
11 *1771:A1 *519:84 2.05641e-05
12 *1772:A2 *1772:B1 3.19565e-05
13 *1772:A2 *1773:B1 8.41307e-05
14 *1777:A2 *1777:B1 1.20052e-05
15 *1777:A2 *1780:B1 1.14169e-05
16 *1777:A2 *501:79 5.02217e-05
17 *1777:A2 *519:84 7.8494e-06
18 *1777:A2 *559:20 4.88478e-05
19 *2044:A1 *1772:B1 1.21374e-05
20 *2044:A1 *1773:A2 0.000459372
21 *2044:A1 *1773:B1 2.04401e-05
22 *2044:A1 *1791:B1 5.93674e-05
23 *2044:A1 *1840:A 1.17409e-05
24 *2044:A1 *155:10 0.000121437
25 *2044:A1 *283:91 0.000162332
26 *2044:A1 *283:106 0.000149759
27 *2044:A1 *524:36 0.000160658
28 *129:14 *1773:C1 6.69608e-06
29 *129:14 *1780:B1 4.2444e-05
30 *129:14 *501:89 0.000148935
31 *129:23 *1773:C1 2.68464e-05
32 *129:25 *1780:B1 2.26364e-05
33 *129:25 *519:84 7.46533e-05
34 *129:53 *1773:C1 0.000116165
35 *129:53 *1780:B1 4.01564e-05
36 *129:53 *1781:C 0
37 *129:53 *1840:A 2.37321e-05
38 *129:53 *519:84 2.03578e-05
39 *1747:B1 *129:14 2.01259e-05
40 *1772:A1 *129:14 8.81641e-05
41 *1777:A1 *1777:A2 9.37731e-05
42 *126:8 *129:14 2.46151e-06
43 *126:21 *1777:A2 4.01019e-05
44 *126:21 *129:25 0.000164347
45 *126:42 *129:14 5.83121e-06
46 *126:42 *129:23 1.91597e-05
*RES
1 *1747:X *129:14 10.205 
2 *129:14 *1748:A1 1.6 
3 *129:14 *129:23 2.45 
4 *129:23 *129:25 2.5275 
5 *129:25 *1777:A2 6.2625 
6 *129:25 *1771:A1 4.6275 
7 *129:23 *129:53 4.4 
8 *129:53 *1772:A2 3.7 
9 *129:53 *2044:A1 14.555 
*END

*D_NET *130 0.0107555
*CONN
*I *1785:S I *D sky130_fd_sc_hd__mux2_1
*I *1765:S I *D sky130_fd_sc_hd__mux2_1
*I *1761:S I *D sky130_fd_sc_hd__mux2_1
*I *1754:C I *D sky130_fd_sc_hd__or3_1
*I *1753:A1 I *D sky130_fd_sc_hd__a31o_1
*I *1749:B I *D sky130_fd_sc_hd__nor2_1
*I *1748:Y O *D sky130_fd_sc_hd__a21oi_4
*CAP
1 *1785:S 0.00124393
2 *1765:S 0
3 *1761:S 0.000336361
4 *1754:C 0.000361149
5 *1753:A1 0.000383672
6 *1749:B 3.25157e-06
7 *1748:Y 0.000224665
8 *130:59 0.000541391
9 *130:55 0.00177079
10 *130:21 0.000765631
11 *130:12 0.000320955
12 *130:8 0.000843393
13 *1749:B *1753:B1 4.43212e-06
14 *1753:A1 *1752:A2 8.37017e-05
15 *1753:A1 *1753:A2 2.10778e-05
16 *1753:A1 *1753:B1 5.74431e-05
17 *1753:A1 *496:18 0.000245893
18 *1761:S *1761:A1 4.82863e-05
19 *1761:S *1763:A 0
20 *1761:S *1765:A1 2.97004e-06
21 *1761:S *2049:A 4.73669e-05
22 *1761:S *499:6 6.52265e-05
23 *1761:S *499:29 0.000295648
24 *1761:S *516:29 0
25 *1785:S *1782:B 0.000199184
26 *1785:S *1789:A1 0.000122331
27 *1785:S *1789:A2 0.000160641
28 *1785:S *1789:B1 6.77417e-05
29 *1785:S *1791:A1 1.7386e-05
30 *1785:S *1798:C 6.60261e-06
31 *1785:S *136:10 0.000164686
32 *1785:S *167:19 1.33293e-05
33 *1785:S *273:114 0.000161529
34 *130:8 *1772:C1 4.41506e-05
35 *130:8 *501:89 5.83121e-06
36 *130:8 *518:31 0.000200545
37 *130:12 *1751:B 1.73877e-05
38 *130:12 *1753:B1 6.10014e-05
39 *130:12 *132:8 7.21296e-06
40 *130:12 *135:10 0.000194751
41 *130:12 *499:29 0
42 *130:55 *1772:C1 0
43 *130:55 *135:10 0.000347802
44 *130:55 *559:20 0
45 *130:59 *1765:A1 4.66108e-05
46 *1749:A *130:12 5.53249e-06
47 *1751:C_N *1753:A1 0
48 *1752:A1 *1753:A1 4.52061e-05
49 *1754:B *1754:C 0.000104598
50 *1754:B *130:12 0
51 *1761:A0 *1761:S 0.000137571
52 *1765:A0 *1761:S 8.65961e-05
53 *1765:A0 *130:59 3.38341e-05
54 *100:20 *130:12 0
55 *100:32 *130:12 0.000314438
56 *110:10 *130:12 0
57 *117:14 *1753:A1 5.56629e-05
58 *117:18 *1753:A1 0.000103127
59 *117:29 *1761:S 0.000362972
60 *118:8 *130:12 0
*RES
1 *1748:Y *130:8 6.465 
2 *130:8 *130:12 8.99 
3 *130:12 *1749:B 1.7275 
4 *130:12 *130:21 0.36 
5 *130:21 *1753:A1 12.755 
6 *130:21 *1754:C 6.895 
7 *130:8 *130:55 9.245 
8 *130:55 *130:59 2.88 
9 *130:59 *1761:S 15.26 
10 *130:59 *1765:S 1.6 
11 *130:55 *1785:S 23.96 
*END

*D_NET *131 0.000974078
*CONN
*I *1753:B1 I *D sky130_fd_sc_hd__a31o_1
*I *1749:Y O *D sky130_fd_sc_hd__nor2_1
*CAP
1 *1753:B1 0.000199557
2 *1749:Y 0.000199557
3 *1753:B1 *1751:B 5.16348e-05
4 *1753:B1 *1752:A2 9.96764e-05
5 *1753:B1 *1753:A2 8.36049e-05
6 *1753:B1 *135:10 1.19928e-05
7 *1749:B *1753:B1 4.43212e-06
8 *1751:C_N *1753:B1 0.000170174
9 *1753:A1 *1753:B1 5.74431e-05
10 *118:8 *1753:B1 3.50033e-05
11 *130:12 *1753:B1 6.10014e-05
*RES
1 *1749:Y *1753:B1 11.8912 
*END

*D_NET *132 0.0020146
*CONN
*I *1752:A2 I *D sky130_fd_sc_hd__o21bai_1
*I *1751:B I *D sky130_fd_sc_hd__or3b_1
*I *1750:X O *D sky130_fd_sc_hd__o31a_1
*CAP
1 *1752:A2 0.000201178
2 *1751:B 3.08958e-05
3 *1750:X 9.15555e-05
4 *132:8 0.000323629
5 *1752:A2 *1753:A2 1.19928e-05
6 *1752:A2 *1753:A3 6.76342e-05
7 *1752:A2 *135:10 0.000415929
8 *132:8 *135:10 0.000245199
9 *132:8 *499:29 4.94599e-05
10 *132:8 *516:29 8.53113e-06
11 *1744:A *1751:B 3.09164e-05
12 *1744:A *132:8 0.000149759
13 *1751:C_N *1752:A2 7.67415e-06
14 *1752:A1 *1752:A2 4.66108e-05
15 *1753:A1 *1752:A2 8.37017e-05
16 *1753:B1 *1751:B 5.16348e-05
17 *1753:B1 *1752:A2 9.96764e-05
18 *118:8 *1751:B 7.4027e-05
19 *130:12 *1751:B 1.73877e-05
20 *130:12 *132:8 7.21296e-06
*RES
1 *1750:X *132:8 6.765 
2 *132:8 *1751:B 4.725 
3 *132:8 *1752:A2 8.895 
*END

*D_NET *133 0.000406592
*CONN
*I *1753:A2 I *D sky130_fd_sc_hd__a31o_1
*I *1751:X O *D sky130_fd_sc_hd__or3b_1
*CAP
1 *1753:A2 5.8879e-05
2 *1751:X 5.8879e-05
3 *1753:A2 *1753:A3 1.57678e-05
4 *1751:C_N *1753:A2 0.00015639
5 *1752:A2 *1753:A2 1.19928e-05
6 *1753:A1 *1753:A2 2.10778e-05
7 *1753:B1 *1753:A2 8.36049e-05
*RES
1 *1751:X *1753:A2 5.045 
*END

*D_NET *134 0.000444228
*CONN
*I *1753:A3 I *D sky130_fd_sc_hd__a31o_1
*I *1752:Y O *D sky130_fd_sc_hd__o21bai_1
*CAP
1 *1753:A3 7.75823e-05
2 *1752:Y 7.75823e-05
3 *1751:C_N *1753:A3 9.57498e-05
4 *1752:A1 *1753:A3 2.49909e-05
5 *1752:A2 *1753:A3 6.76342e-05
6 *1753:A2 *1753:A3 1.57678e-05
7 *112:19 *1753:A3 8.49205e-05
*RES
1 *1752:Y *1753:A3 5.495 
*END

*D_NET *135 0.00533005
*CONN
*I *1757:B I *D sky130_fd_sc_hd__xor2_1
*I *1793:A I *D sky130_fd_sc_hd__nor2_1
*I *1753:X O *D sky130_fd_sc_hd__a31o_1
*CAP
1 *1757:B 0.000231304
2 *1793:A 0
3 *1753:X 0.00102962
4 *135:10 0.00126092
5 *1757:B *532:14 0.000360488
6 *135:10 *1768:C 3.59997e-05
7 *135:10 *1768:D 0
8 *135:10 *1795:B1 0
9 *135:10 *2103:A 0
10 *135:10 *136:10 0
11 *135:10 *144:12 0.000141592
12 *135:10 *147:10 0.000178504
13 *135:10 *516:29 0.00084204
14 *135:10 *532:14 0
15 *135:10 *552:8 3.39069e-05
16 *135:10 *559:20 0
17 *1752:A2 *135:10 0.000415929
18 *1753:B1 *135:10 1.19928e-05
19 *130:12 *135:10 0.000194751
20 *130:55 *135:10 0.000347802
21 *132:8 *135:10 0.000245199
*RES
1 *1753:X *135:10 29.625 
2 *135:10 *1793:A 3.6 
3 *135:10 *1757:B 8.61 
*END

*D_NET *136 0.0053154
*CONN
*I *1756:C I *D sky130_fd_sc_hd__and3_1
*I *1755:A2 I *D sky130_fd_sc_hd__a21oi_1
*I *1754:X O *D sky130_fd_sc_hd__or3_1
*CAP
1 *1756:C 0.000172861
2 *1755:A2 0.000142237
3 *1754:X 0.0010203
4 *136:10 0.00133539
5 *1755:A2 *1755:A1 2.76877e-05
6 *1755:A2 *1755:B1 8.7152e-06
7 *1755:A2 *1758:A 8.11845e-05
8 *1755:A2 *1793:B 3.26197e-06
9 *1755:A2 *1795:B1 1.78992e-05
10 *1756:C *1755:A1 1.85482e-05
11 *1756:C *1756:B 4.66474e-05
12 *1756:C *1758:A 2.7516e-05
13 *136:10 *1780:B1 0
14 *136:10 *1792:A2 0.000116165
15 *136:10 *1795:A1 6.47516e-05
16 *136:10 *1798:B 0.000139238
17 *136:10 *147:10 0
18 *136:10 *471:78 0
19 *136:10 *501:89 8.34348e-05
20 *136:10 *559:20 0.00119587
21 *1747:B1 *136:10 0.000266612
22 *1754:B *136:10 8.51862e-05
23 *1772:A1 *136:10 0.000206123
24 *1785:S *136:10 0.000164686
25 *100:20 *136:10 9.10781e-05
26 *135:10 *136:10 0
*RES
1 *1754:X *136:10 27.5775 
2 *136:10 *1755:A2 6.255 
3 *136:10 *1756:C 6.2025 
*END

*D_NET *137 0.0011075
*CONN
*I *1758:A I *D sky130_fd_sc_hd__or3_1
*I *1793:B I *D sky130_fd_sc_hd__nor2_1
*I *1755:Y O *D sky130_fd_sc_hd__a21oi_1
*CAP
1 *1758:A 9.32942e-05
2 *1793:B 0.000129565
3 *1755:Y 0
4 *137:4 0.00022286
5 *1758:A *1755:A1 4.39337e-05
6 *1758:A *1758:B 0.00018285
7 *1758:A *1794:B1 0.000130322
8 *1758:A *471:78 4.54664e-05
9 *1793:B *1794:A2 3.89021e-05
10 *1793:B *1794:B1 0.000108349
11 *1755:A2 *1758:A 8.11845e-05
12 *1755:A2 *1793:B 3.26197e-06
13 *1756:C *1758:A 2.7516e-05
*RES
1 *1755:Y *137:4 1.6 
2 *137:4 *1793:B 4.06 
3 *137:4 *1758:A 4.885 
*END

*D_NET *138 0.00124606
*CONN
*I *1758:B I *D sky130_fd_sc_hd__or3_1
*I *1794:B1 I *D sky130_fd_sc_hd__a21oi_1
*I *1756:X O *D sky130_fd_sc_hd__and3_1
*CAP
1 *1758:B 0.00010792
2 *1794:B1 0.000224149
3 *1756:X 0
4 *138:4 0.000332069
5 *1758:B *1756:B 4.77719e-05
6 *1794:B1 *1756:B 0
7 *1794:B1 *1795:B1 4.93788e-05
8 *1794:B1 *532:14 6.32485e-05
9 *1758:A *1758:B 0.00018285
10 *1758:A *1794:B1 0.000130322
11 *1793:B *1794:B1 0.000108349
*RES
1 *1756:X *138:4 1.6 
2 *138:4 *1794:B1 9.56 
3 *138:4 *1758:B 3.79 
*END

*D_NET *139 0.00185351
*CONN
*I *1758:C I *D sky130_fd_sc_hd__or3_1
*I *1757:X O *D sky130_fd_sc_hd__xor2_1
*CAP
1 *1758:C 0.000743685
2 *1757:X 0.000743685
3 *1758:C *1756:A 3.82018e-05
4 *1758:C *1756:B 1.4088e-05
5 *1758:C *532:14 0.000313852
*RES
1 *1757:X *1758:C 16.185 
*END

*D_NET *140 0.000681494
*CONN
*I *1798:A I *D sky130_fd_sc_hd__nor4_1
*I *1795:A2 I *D sky130_fd_sc_hd__o21a_1
*I *1758:X O *D sky130_fd_sc_hd__or3_1
*CAP
1 *1798:A 0
2 *1795:A2 7.12115e-05
3 *1758:X 8.34467e-05
4 *140:12 0.000154658
5 *1795:A2 *1795:B1 8.64421e-05
6 *1795:A2 *1798:B 0.000137572
7 *1795:A2 *1799:A2 1.83847e-05
8 *140:12 *1798:B 2.30292e-05
9 *140:12 *1799:A1 4.05358e-05
10 *140:12 *1799:A2 3.86607e-05
11 *140:12 *471:78 2.75538e-05
*RES
1 *1758:X *140:12 7.685 
2 *140:12 *1795:A2 3.775 
3 *140:12 *1798:A 1.6 
*END

*D_NET *141 0.00120321
*CONN
*I *1760:B I *D sky130_fd_sc_hd__xor2_1
*I *1759:X O *D sky130_fd_sc_hd__o32a_1
*CAP
1 *1760:B 0.000151783
2 *1759:X 0.000151783
3 *1760:B *2110:A 4.59896e-06
4 *1742:C *1760:B 0.00044752
5 *117:29 *1760:B 0.00044752
*RES
1 *1759:X *1760:B 13.02 
*END

*D_NET *142 0.000896027
*CONN
*I *1761:A1 I *D sky130_fd_sc_hd__mux2_1
*I *1760:X O *D sky130_fd_sc_hd__xor2_1
*CAP
1 *1761:A1 0.000278026
2 *1760:X 0.000278026
3 *1761:A1 *2049:A 1.52184e-05
4 *1761:A1 *2110:A 8.83829e-05
5 *1761:A1 *499:6 4.82863e-05
6 *1761:A1 *515:16 0
7 *1761:A1 *517:10 0
8 *1761:A0 *1761:A1 4.91927e-05
9 *1761:S *1761:A1 4.82863e-05
10 *117:29 *1761:A1 1.82476e-05
11 *119:8 *1761:A1 7.23602e-05
*RES
1 *1760:X *1761:A1 12.21 
*END

*D_NET *143 0.000583729
*CONN
*I *1762:B I *D sky130_fd_sc_hd__nor2_1
*I *1763:B I *D sky130_fd_sc_hd__nand2_1
*I *1761:X O *D sky130_fd_sc_hd__mux2_1
*CAP
1 *1762:B 0.000108506
2 *1763:B 7.30298e-05
3 *1761:X 0
4 *143:4 0.000181536
5 *1762:B *1763:A 0
6 *1762:B *2049:A 8.08439e-05
7 *1762:B *144:12 4.9253e-06
8 *1762:B *516:29 8.65961e-05
9 *1763:B *499:29 4.82919e-05
*RES
1 *1761:X *143:4 1.6 
2 *143:4 *1763:B 2.92 
3 *143:4 *1762:B 8.03 
*END

*D_NET *144 0.00158165
*CONN
*I *1792:A1 I *D sky130_fd_sc_hd__o221a_1
*I *1768:A_N I *D sky130_fd_sc_hd__nand4b_1
*I *1762:Y O *D sky130_fd_sc_hd__nor2_1
*CAP
1 *1792:A1 0.000253345
2 *1768:A_N 0
3 *1762:Y 0.00027638
4 *144:12 0.000529724
5 *1792:A1 *1792:B2 7.20191e-05
6 *1792:A1 *1792:C1 0.000126806
7 *1792:A1 *1795:A1 2.86975e-05
8 *1792:A1 *145:8 4.29016e-05
9 *1792:A1 *150:8 3.10907e-05
10 *144:12 *1768:D 4.17687e-05
11 *144:12 *1798:B 0
12 *144:12 *516:29 3.23955e-05
13 *1762:B *144:12 4.9253e-06
14 *135:10 *144:12 0.000141592
*RES
1 *1762:Y *144:12 9.41 
2 *144:12 *1768:A_N 1.6 
3 *144:12 *1792:A1 6.565 
*END

*D_NET *145 0.000887149
*CONN
*I *1792:C1 I *D sky130_fd_sc_hd__o221a_1
*I *1768:B I *D sky130_fd_sc_hd__nand4b_1
*I *1763:Y O *D sky130_fd_sc_hd__nand2_1
*CAP
1 *1792:C1 5.71698e-05
2 *1768:B 0
3 *1763:Y 0.000272183
4 *145:8 0.000329353
5 *1792:C1 *150:8 2.86975e-05
6 *145:8 *1763:A 3.00381e-05
7 *1792:A1 *1792:C1 0.000126806
8 *1792:A1 *145:8 4.29016e-05
*RES
1 *1763:Y *145:8 4.825 
2 *145:8 *1768:B 1.6 
3 *145:8 *1792:C1 3.1 
*END

*D_NET *146 0.00042476
*CONN
*I *1765:A1 I *D sky130_fd_sc_hd__mux2_1
*I *1764:Y O *D sky130_fd_sc_hd__xnor2_1
*CAP
1 *1765:A1 9.4665e-05
2 *1764:Y 9.4665e-05
3 *1765:A1 *499:29 0.000139238
4 *1761:S *1765:A1 2.97004e-06
5 *1765:A0 *1765:A1 4.66108e-05
6 *117:29 *1765:A1 0
7 *130:59 *1765:A1 4.66108e-05
*RES
1 *1764:Y *1765:A1 9.285 
*END

*D_NET *147 0.000965193
*CONN
*I *1767:B I *D sky130_fd_sc_hd__nand2_1
*I *1766:B I *D sky130_fd_sc_hd__or2_1
*I *1765:X O *D sky130_fd_sc_hd__mux2_1
*CAP
1 *1767:B 3.12285e-05
2 *1766:B 8.19386e-05
3 *1765:X 0.00017923
4 *147:10 0.000292397
5 *1766:B *1767:A 2.42087e-05
6 *1766:B *517:171 8.57024e-05
7 *1767:B *1767:A 8.52883e-05
8 *1767:B *1768:D 6.69608e-06
9 *147:10 *559:20 0
10 *135:10 *147:10 0.000178504
11 *136:10 *147:10 0
*RES
1 *1765:X *147:10 9.275 
2 *147:10 *1766:B 3.1 
3 *147:10 *1767:B 2.395 
*END

*D_NET *148 0.000203934
*CONN
*I *1768:C I *D sky130_fd_sc_hd__nand4b_1
*I *1766:X O *D sky130_fd_sc_hd__or2_1
*CAP
1 *1768:C 3.81662e-05
2 *1766:X 3.81662e-05
3 *1768:C *1768:D 9.16019e-05
4 *135:10 *1768:C 3.59997e-05
*RES
1 *1766:X *1768:C 8.325 
*END

*D_NET *149 0.00124551
*CONN
*I *1792:A2 I *D sky130_fd_sc_hd__o221a_1
*I *1768:D I *D sky130_fd_sc_hd__nand4b_1
*I *1767:Y O *D sky130_fd_sc_hd__nand2_1
*CAP
1 *1792:A2 0.000244913
2 *1768:D 0.000234493
3 *1767:Y 0
4 *149:4 0.000479406
5 *1768:D *1767:A 3.04704e-05
6 *1767:B *1768:D 6.69608e-06
7 *1768:C *1768:D 9.16019e-05
8 *135:10 *1768:D 0
9 *136:10 *1792:A2 0.000116165
10 *144:12 *1768:D 4.17687e-05
*RES
1 *1767:Y *149:4 1.6 
2 *149:4 *1768:D 9.44 
3 *149:4 *1792:A2 8.81 
*END

*D_NET *150 0.00144266
*CONN
*I *1792:B1 I *D sky130_fd_sc_hd__o221a_1
*I *1798:B I *D sky130_fd_sc_hd__nor4_1
*I *1768:Y O *D sky130_fd_sc_hd__nand4b_1
*CAP
1 *1792:B1 0
2 *1798:B 0.00038376
3 *1768:Y 0.00011523
4 *150:8 0.00049899
5 *1798:B *1795:B1 5.23617e-05
6 *150:8 *1792:B2 3.26889e-05
7 *1792:A1 *150:8 3.10907e-05
8 *1792:C1 *150:8 2.86975e-05
9 *1795:A2 *1798:B 0.000137572
10 *136:10 *1798:B 0.000139238
11 *140:12 *1798:B 2.30292e-05
12 *144:12 *1798:B 0
*RES
1 *1768:Y *150:8 3.355 
2 *150:8 *1798:B 11.135 
3 *150:8 *1792:B1 1.6 
*END

*D_NET *151 0.00128573
*CONN
*I *1770:B I *D sky130_fd_sc_hd__nand2_1
*I *1771:B1 I *D sky130_fd_sc_hd__a221o_1
*I *1769:X O *D sky130_fd_sc_hd__or2_1
*CAP
1 *1770:B 0
2 *1771:B1 0.000160846
3 *1769:X 0.000175599
4 *151:6 0.000336445
5 *1771:B1 *501:79 4.82863e-05
6 *1770:A *1771:B1 5.4155e-06
7 *1771:A2 *1771:B1 3.04245e-05
8 *1771:B2 *1771:B1 5.12202e-05
9 *106:32 *151:6 1.16578e-05
10 *108:6 *1771:B1 4.21973e-05
11 *108:6 *151:6 0.000423642
*RES
1 *1769:X *151:6 5.5 
2 *151:6 *1771:B1 4.48 
3 *151:6 *1770:B 1.6 
*END

*D_NET *152 0.00191258
*CONN
*I *1772:B1 I *D sky130_fd_sc_hd__a211o_1
*I *1770:Y O *D sky130_fd_sc_hd__nand2_1
*CAP
1 *1772:B1 0.000422964
2 *1770:Y 0.000422964
3 *1772:B1 *1773:A2 2.81762e-05
4 *1772:B1 *1773:B1 8.45296e-05
5 *1772:B1 *1779:A2 0.000150793
6 *1772:B1 *1840:A 0.000118081
7 *1772:A1 *1772:B1 4.89295e-05
8 *1772:A2 *1772:B1 3.19565e-05
9 *1773:A1 *1772:B1 0.0002178
10 *2044:A1 *1772:B1 1.21374e-05
11 *97:48 *1772:B1 0.000374246
*RES
1 *1770:Y *1772:B1 16.59 
*END

*D_NET *153 0.00112659
*CONN
*I *1774:B1 I *D sky130_fd_sc_hd__o211a_1
*I *1771:X O *D sky130_fd_sc_hd__a221o_1
*CAP
1 *1774:B1 0.000331168
2 *1771:X 0.000331168
3 *1774:B1 *1774:A2 9.50342e-06
4 *1774:B1 *1779:A2 0
5 *1774:B1 *283:91 0.000139245
6 *1774:B1 *518:31 7.06865e-05
7 *1771:B2 *1774:B1 4.66108e-05
8 *108:6 *1774:B1 0.000198203
*RES
1 *1771:X *1774:B1 12.39 
*END

*D_NET *154 0.000306422
*CONN
*I *1773:B1 I *D sky130_fd_sc_hd__o211a_1
*I *1772:X O *D sky130_fd_sc_hd__a211o_1
*CAP
1 *1773:B1 4.93773e-05
2 *1772:X 4.93773e-05
3 *1773:B1 *1773:A2 1.85674e-05
4 *1772:A2 *1773:B1 8.41307e-05
5 *1772:B1 *1773:B1 8.45296e-05
6 *2044:A1 *1773:B1 2.04401e-05
*RES
1 *1772:X *1773:B1 4.78625 
*END

*D_NET *155 0.00124586
*CONN
*I *1781:A I *D sky130_fd_sc_hd__or3_4
*I *1790:B I *D sky130_fd_sc_hd__nand2b_1
*I *1773:X O *D sky130_fd_sc_hd__o211a_1
*CAP
1 *1781:A 0.000138728
2 *1790:B 5.11192e-06
3 *1773:X 0.000160505
4 *155:10 0.000304344
5 *1781:A *1780:A2 3.09179e-05
6 *1781:A *1781:C 0.00013521
7 *1781:A *162:6 4.41506e-05
8 *1781:A *497:31 0.000158066
9 *1790:B *1791:B1 3.78034e-06
10 *155:10 *1781:C 0.000137571
11 *1780:A1 *1781:A 0
12 *1780:A1 *1790:B 6.03947e-06
13 *2044:A1 *155:10 0.000121437
*RES
1 *1773:X *155:10 6.375 
2 *155:10 *1790:B 3.70875 
3 *155:10 *1781:A 7.08 
*END

*D_NET *156 0.00167101
*CONN
*I *1781:C I *D sky130_fd_sc_hd__or3_4
*I *1774:X O *D sky130_fd_sc_hd__o211a_1
*CAP
1 *1781:C 0.000329394
2 *1774:X 0.000329394
3 *1781:C *1790:A_N 0.000157602
4 *1781:C *1840:A 7.06865e-05
5 *1781:C *519:84 3.09164e-05
6 *1722:A *1781:C 8.65961e-05
7 *1780:A1 *1781:C 0
8 *1781:A *1781:C 0.00013521
9 *2044:A2 *1781:C 8.05167e-05
10 *97:48 *1781:C 0.000307293
11 *126:49 *1781:C 5.83121e-06
12 *129:53 *1781:C 0
13 *155:10 *1781:C 0.000137571
*RES
1 *1774:X *1781:C 15.09 
*END

*D_NET *157 0.00135797
*CONN
*I *1776:B I *D sky130_fd_sc_hd__xnor2_1
*I *1775:X O *D sky130_fd_sc_hd__or2_1
*CAP
1 *1776:B 0.000236047
2 *1775:X 0.000236047
3 *1776:B *273:101 0
4 *1776:B *283:91 3.69338e-05
5 *1776:B *501:26 0.000307831
6 *1776:B *501:129 7.23635e-05
7 *1776:B *519:122 4.43871e-06
8 *1727:A1 *1776:B 5.16348e-05
9 *1727:A2 *1776:B 2.97004e-06
10 *1727:B1 *1776:B 0
11 *1728:C1 *1776:B 0.0001947
12 *1776:A *1776:B 4.60584e-05
13 *99:6 *1776:B 4.82863e-05
14 *105:6 *1776:B 0.000120655
*RES
1 *1775:X *1776:B 13.455 
*END

*D_NET *158 0.00261399
*CONN
*I *1779:A2 I *D sky130_fd_sc_hd__a211o_1
*I *1777:B1 I *D sky130_fd_sc_hd__a211o_1
*I *1776:Y O *D sky130_fd_sc_hd__xnor2_1
*CAP
1 *1779:A2 0.000441508
2 *1777:B1 0.000159225
3 *1776:Y 0.000139486
4 *158:10 0.000740219
5 *1777:B1 *501:65 0.000233004
6 *1779:A2 *518:31 0
7 *158:10 *501:28 8.53113e-06
8 *158:10 *501:65 0.000129047
9 *1772:B1 *1779:A2 0.000150793
10 *1773:A1 *1779:A2 0.000116158
11 *1774:B1 *1779:A2 0
12 *1777:A2 *1777:B1 1.20052e-05
13 *1778:A *1779:A2 0.00015896
14 *2044:A2 *1779:A2 0.000140391
15 *97:48 *1779:A2 0.000107013
16 *97:48 *158:10 6.14689e-05
17 *110:10 *1777:B1 1.61831e-05
*RES
1 *1776:Y *158:10 6.285 
2 *158:10 *1777:B1 6.48 
3 *158:10 *1779:A2 13.095 
*END

*D_NET *159 0.00181072
*CONN
*I *1780:B1 I *D sky130_fd_sc_hd__o211a_1
*I *1777:X O *D sky130_fd_sc_hd__a211o_1
*CAP
1 *1780:B1 0.000599885
2 *1777:X 0.000599885
3 *1780:B1 *1773:C1 0.000113572
4 *1780:B1 *559:20 3.04704e-05
5 *1777:A1 *1780:B1 6.88421e-05
6 *1777:A2 *1780:B1 1.14169e-05
7 *1780:A1 *1780:B1 9.41853e-05
8 *126:21 *1780:B1 0.000187227
9 *129:14 *1780:B1 4.2444e-05
10 *129:25 *1780:B1 2.26364e-05
11 *129:53 *1780:B1 4.01564e-05
12 *136:10 *1780:B1 0
*RES
1 *1777:X *1780:B1 18.09 
*END

*D_NET *160 0.000307052
*CONN
*I *1779:B1 I *D sky130_fd_sc_hd__a211o_1
*I *1778:Y O *D sky130_fd_sc_hd__nor2_1
*CAP
1 *1779:B1 6.24147e-05
2 *1778:Y 6.24147e-05
3 *1779:B1 *524:25 0.000115035
4 *1778:A *1779:B1 6.71882e-05
*RES
1 *1778:Y *1779:B1 4.7 
*END

*D_NET *161 0.00189041
*CONN
*I *1791:C1 I *D sky130_fd_sc_hd__o211a_1
*I *1782:B I *D sky130_fd_sc_hd__nand2b_1
*I *1779:X O *D sky130_fd_sc_hd__a211o_1
*CAP
1 *1791:C1 6.77249e-05
2 *1782:B 7.18323e-05
3 *1779:X 0.000168498
4 *161:8 0.000308055
5 *1782:B *1782:A_N 0.000124895
6 *1791:C1 *1791:A2 0.000186099
7 *1791:C1 *1791:B1 0.000130072
8 *1791:C1 *1798:C 0
9 *1791:C1 *163:8 2.07184e-05
10 *161:8 *1790:A_N 0
11 *161:8 *1791:B1 0.000181079
12 *161:8 *163:8 0.000314431
13 *1785:S *1782:B 0.000199184
14 *2044:A2 *161:8 0.000117825
*RES
1 *1779:X *161:8 8.805 
2 *161:8 *1782:B 5.89875 
3 *161:8 *1791:C1 6.255 
*END

*D_NET *162 0.000707556
*CONN
*I *1781:B I *D sky130_fd_sc_hd__or3_4
*I *1790:A_N I *D sky130_fd_sc_hd__nand2b_1
*I *1780:X O *D sky130_fd_sc_hd__o211a_1
*CAP
1 *1781:B 0
2 *1790:A_N 0.000126546
3 *1780:X 3.19633e-05
4 *162:6 0.000158509
5 *1790:A_N *1791:B1 1.56428e-05
6 *162:6 *1780:A2 0.000124895
7 *162:6 *497:31 1.47256e-05
8 *1780:A1 *1790:A_N 2.49909e-05
9 *1781:A *162:6 4.41506e-05
10 *1781:C *1790:A_N 0.000157602
11 *2044:A2 *1790:A_N 0
12 *97:48 *1790:A_N 8.53113e-06
13 *161:8 *1790:A_N 0
*RES
1 *1780:X *162:6 2.74 
2 *162:6 *1790:A_N 8.195 
3 *162:6 *1781:B 1.6 
*END

*D_NET *163 0.00152508
*CONN
*I *1791:A2 I *D sky130_fd_sc_hd__o211a_1
*I *1782:A_N I *D sky130_fd_sc_hd__nand2b_1
*I *1781:X O *D sky130_fd_sc_hd__or3_4
*CAP
1 *1791:A2 0.000219383
2 *1782:A_N 4.7631e-05
3 *1781:X 0.000172455
4 *163:8 0.000439469
5 *1791:A2 *1787:B 0
6 *1791:A2 *1798:C 0
7 *1791:A2 *471:78 0
8 *163:8 *471:78 0
9 *1782:B *1782:A_N 0.000124895
10 *1791:C1 *1791:A2 0.000186099
11 *1791:C1 *163:8 2.07184e-05
12 *161:8 *163:8 0.000314431
*RES
1 *1781:X *163:8 7.53 
2 *163:8 *1782:A_N 4.74 
3 *163:8 *1791:A2 7.59 
*END

*D_NET *164 0.000700292
*CONN
*I *1798:C I *D sky130_fd_sc_hd__nor4_1
*I *1782:Y O *D sky130_fd_sc_hd__nand2b_1
*CAP
1 *1798:C 0.000346845
2 *1782:Y 0.000346845
3 *1798:C *471:78 0
4 *1785:S *1798:C 6.60261e-06
5 *1791:A2 *1798:C 0
6 *1791:C1 *1798:C 0
*RES
1 *1782:Y *1798:C 12.6 
*END

*D_NET *165 0.000223105
*CONN
*I *1784:B I *D sky130_fd_sc_hd__nand2_1
*I *1783:Y O *D sky130_fd_sc_hd__nand2_1
*CAP
1 *1784:B 3.93315e-05
2 *1783:Y 3.93315e-05
3 *1784:B *1837:A2 4.66826e-05
4 *1784:B *513:111 9.77597e-05
*RES
1 *1783:Y *1784:B 4.355 
*END

*D_NET *166 0.000518272
*CONN
*I *1785:A1 I *D sky130_fd_sc_hd__mux2_1
*I *1784:Y O *D sky130_fd_sc_hd__nand2_1
*CAP
1 *1785:A1 0.000124321
2 *1784:Y 0.000124321
3 *1785:A1 *1788:A1 9.50342e-06
4 *1785:A1 *1837:A2 0
5 *1785:A1 *513:111 9.54399e-05
6 *1785:A1 *513:129 0.000164686
*RES
1 *1784:Y *1785:A1 10.11 
*END

*D_NET *167 0.00143961
*CONN
*I *1797:A2 I *D sky130_fd_sc_hd__a2111o_1
*I *1787:B I *D sky130_fd_sc_hd__nor2_1
*I *1789:A2 I *D sky130_fd_sc_hd__a21o_1
*I *1785:X O *D sky130_fd_sc_hd__mux2_1
*CAP
1 *1797:A2 0.000102186
2 *1787:B 0.000129227
3 *1789:A2 8.5947e-05
4 *1785:X 0
5 *167:19 0.000325789
6 *167:4 0.000180322
7 *1787:B *1788:A1 0
8 *1787:B *1788:A2 0
9 *1787:B *273:138 0.000123225
10 *1789:A2 *1789:B1 0.000122337
11 *1797:A2 *1797:A1 2.09514e-05
12 *1797:A2 *1797:C1 0
13 *1797:A2 *219:100 0
14 *1797:A2 *273:134 7.21296e-06
15 *167:19 *1789:B1 4.05358e-05
16 *167:19 *219:85 8.514e-05
17 *167:19 *273:125 3.04982e-05
18 *167:19 *273:134 1.22676e-05
19 *1785:S *1789:A2 0.000160641
20 *1785:S *167:19 1.33293e-05
21 *1791:A2 *1787:B 0
*RES
1 *1785:X *167:4 1.6 
2 *167:4 *1789:A2 3.955 
3 *167:4 *167:19 4.34 
4 *167:19 *1787:B 5.79 
5 *167:19 *1797:A2 5.235 
*END

*D_NET *168 0.000234909
*CONN
*I *1797:B1 I *D sky130_fd_sc_hd__a2111o_1
*I *1786:X O *D sky130_fd_sc_hd__and2_1
*CAP
1 *1797:B1 5.06077e-05
2 *1786:X 5.06077e-05
3 *1797:B1 *1797:A1 3.45679e-05
4 *1797:B1 *1797:D1 9.91257e-05
*RES
1 *1786:X *1797:B1 4.685 
*END

*D_NET *169 0.000288108
*CONN
*I *1797:C1 I *D sky130_fd_sc_hd__a2111o_1
*I *1787:Y O *D sky130_fd_sc_hd__nor2_1
*CAP
1 *1797:C1 4.58693e-05
2 *1787:Y 4.58693e-05
3 *1797:C1 *1797:A1 6.17386e-05
4 *1797:C1 *273:134 9.50342e-06
5 *1797:C1 *501:18 6.06593e-05
6 *1797:C1 *501:191 6.44676e-05
7 *1797:A2 *1797:C1 0
*RES
1 *1787:Y *1797:C1 8.58 
*END

*D_NET *170 0.000724158
*CONN
*I *1789:B1 I *D sky130_fd_sc_hd__a21o_1
*I *1788:X O *D sky130_fd_sc_hd__o211a_1
*CAP
1 *1789:B1 0.000187508
2 *1788:X 0.000187508
3 *1789:B1 *219:85 0
4 *1789:B1 *273:125 0.000118527
5 *1785:S *1789:B1 6.77417e-05
6 *1789:A2 *1789:B1 0.000122337
7 *167:19 *1789:B1 4.05358e-05
*RES
1 *1788:X *1789:B1 11.115 
*END

*D_NET *171 0.00033999
*CONN
*I *1791:A1 I *D sky130_fd_sc_hd__o211a_1
*I *1789:X O *D sky130_fd_sc_hd__a21o_1
*CAP
1 *1791:A1 0.000122204
2 *1789:X 0.000122204
3 *1791:A1 *1791:B1 7.81954e-05
4 *1791:A1 *501:18 0
5 *1785:S *1791:A1 1.7386e-05
*RES
1 *1789:X *1791:A1 9.285 
*END

*D_NET *172 0.00216808
*CONN
*I *1791:B1 I *D sky130_fd_sc_hd__o211a_1
*I *1790:Y O *D sky130_fd_sc_hd__nand2b_1
*CAP
1 *1791:B1 0.000648907
2 *1790:Y 0.000648907
3 *1791:B1 *283:106 0
4 *1791:B1 *501:18 0
5 *1791:B1 *524:36 3.9442e-05
6 *1778:A *1791:B1 0.000111901
7 *1780:A1 *1791:B1 9.42307e-06
8 *1790:A_N *1791:B1 1.56428e-05
9 *1790:B *1791:B1 3.78034e-06
10 *1791:A1 *1791:B1 7.81954e-05
11 *1791:C1 *1791:B1 0.000130072
12 *2044:A1 *1791:B1 5.93674e-05
13 *2044:A2 *1791:B1 0.000225182
14 *97:48 *1791:B1 1.61831e-05
15 *161:8 *1791:B1 0.000181079
*RES
1 *1790:Y *1791:B1 19.785 
*END

*D_NET *173 0.00162223
*CONN
*I *1792:B2 I *D sky130_fd_sc_hd__o221a_1
*I *1791:X O *D sky130_fd_sc_hd__o211a_1
*CAP
1 *1792:B2 0.000729686
2 *1791:X 0.000729686
3 *1792:B2 *1795:A1 2.33708e-05
4 *1792:B2 *501:18 2.16191e-05
5 *1792:B2 *501:191 1.31646e-05
6 *1792:A1 *1792:B2 7.20191e-05
7 *150:8 *1792:B2 3.26889e-05
*RES
1 *1791:X *1792:B2 17.52 
*END

*D_NET *174 0.000429639
*CONN
*I *1795:A1 I *D sky130_fd_sc_hd__o21a_1
*I *1792:X O *D sky130_fd_sc_hd__o221a_1
*CAP
1 *1795:A1 0.000156409
2 *1792:X 0.000156409
3 *1792:A1 *1795:A1 2.86975e-05
4 *1792:B2 *1795:A1 2.33708e-05
5 *136:10 *1795:A1 6.47516e-05
*RES
1 *1792:X *1795:A1 9.72 
*END

*D_NET *175 0.000173264
*CONN
*I *1794:A2 I *D sky130_fd_sc_hd__a21oi_1
*I *1793:Y O *D sky130_fd_sc_hd__nor2_1
*CAP
1 *1794:A2 6.71809e-05
2 *1793:Y 6.71809e-05
3 *1793:B *1794:A2 3.89021e-05
*RES
1 *1793:Y *1794:A2 4.355 
*END

*D_NET *176 0.000904975
*CONN
*I *1795:B1 I *D sky130_fd_sc_hd__o21a_1
*I *1794:Y O *D sky130_fd_sc_hd__a21oi_1
*CAP
1 *1795:B1 0.00031723
2 *1794:Y 0.00031723
3 *1795:B1 *1755:B1 5.88982e-05
4 *1795:B1 *532:14 5.53549e-06
5 *1755:A2 *1795:B1 1.78992e-05
6 *1794:B1 *1795:B1 4.93788e-05
7 *1795:A2 *1795:B1 8.64421e-05
8 *1798:B *1795:B1 5.23617e-05
9 *135:10 *1795:B1 0
*RES
1 *1794:Y *1795:B1 12.81 
*END

*D_NET *177 0.0007096
*CONN
*I *1799:A2 I *D sky130_fd_sc_hd__o21a_1
*I *1795:X O *D sky130_fd_sc_hd__o21a_1
*CAP
1 *1799:A2 0.00026529
2 *1795:X 0.00026529
3 *1799:A2 *1756:A 2.99518e-06
4 *1799:A2 *1799:A1 4.82919e-05
5 *1799:A2 *471:78 7.06865e-05
6 *1795:A2 *1799:A2 1.83847e-05
7 *140:12 *1799:A2 3.86607e-05
*RES
1 *1795:X *1799:A2 11.31 
*END

*D_NET *178 0.00241863
*CONN
*I *1835:A I *D sky130_fd_sc_hd__or2_1
*I *1836:A1 I *D sky130_fd_sc_hd__a21oi_1
*I *1797:D1 I *D sky130_fd_sc_hd__a2111o_1
*I *1796:Y O *D sky130_fd_sc_hd__nor2_1
*CAP
1 *1835:A 0.000224876
2 *1836:A1 0.000111006
3 *1797:D1 0.000379492
4 *1796:Y 0
5 *178:17 0.000423282
6 *178:4 0.000466891
7 *1797:D1 *1786:B 1.17309e-05
8 *1797:D1 *1796:A 3.45679e-05
9 *1797:D1 *533:85 4.05674e-06
10 *1797:D1 *533:87 2.20732e-05
11 *1835:A *1832:A 4.60584e-05
12 *1835:A *1835:B 0.000226373
13 *1836:A1 *1835:B 0.000123225
14 *1836:A1 *1836:A2 4.82863e-05
15 *178:17 *1799:B1 2.23407e-05
16 *178:17 *1832:A 9.14049e-05
17 *178:17 *215:12 1.0183e-05
18 *178:17 *326:95 7.36562e-05
19 *1797:B1 *1797:D1 9.91257e-05
*RES
1 *1796:Y *178:4 1.6 
2 *178:4 *1797:D1 6.19 
3 *178:4 *178:17 6.145 
4 *178:17 *1836:A1 3.085 
5 *178:17 *1835:A 4.825 
*END

*D_NET *179 0.000692243
*CONN
*I *1798:D I *D sky130_fd_sc_hd__nor4_1
*I *1797:X O *D sky130_fd_sc_hd__a2111o_1
*CAP
1 *1798:D 0.000317521
2 *1797:X 0.000317521
3 *1798:D *501:191 5.72004e-05
*RES
1 *1797:X *1798:D 12.39 
*END

*D_NET *180 0.000293572
*CONN
*I *1799:A1 I *D sky130_fd_sc_hd__o21a_1
*I *1798:Y O *D sky130_fd_sc_hd__nor4_1
*CAP
1 *1799:A1 0.000102372
2 *1798:Y 0.000102372
3 *1799:A1 *1799:B1 0
4 *1799:A2 *1799:A1 4.82919e-05
5 *140:12 *1799:A1 4.05358e-05
*RES
1 *1798:Y *1799:A1 9.03 
*END

*D_NET *181 0.00440626
*CONN
*I *1820:B I *D sky130_fd_sc_hd__or3_4
*I *1799:X O *D sky130_fd_sc_hd__o21a_1
*CAP
1 *1820:B 0.00137736
2 *1799:X 0.00137736
3 *1820:B *1820:C 9.50342e-06
4 *1820:B *1834:A 2.59926e-05
5 *1820:B *1834:B 0.000850104
6 *1820:B *1845:A1 0.000313852
7 *1820:B *1845:A2 2.0514e-05
8 *1820:B *2077:A 0.000157309
9 *1820:B *2080:A 0
10 *1820:B *191:14 0.000155661
11 *1820:B *191:63 5.07419e-05
12 *1820:B *511:72 1.7902e-05
13 op_out[2] *1820:B 4.99619e-05
*RES
1 *1799:X *1820:B 31.44 
*END

*D_NET *182 0.00758606
*CONN
*I *1949:A2 I *D sky130_fd_sc_hd__o21a_1
*I *1891:A I *D sky130_fd_sc_hd__nand2_1
*I *1801:B I *D sky130_fd_sc_hd__or2_1
*I *1800:X O *D sky130_fd_sc_hd__or3_1
*CAP
1 *1949:A2 0.00113176
2 *1891:A 0.000387982
3 *1801:B 2.91559e-05
4 *1800:X 6.69453e-05
5 *182:21 0.00183624
6 *182:10 0.000412594
7 *1801:B *1801:A 8.23457e-05
8 *1801:B *1860:C1 4.41506e-05
9 *1891:A *1803:C 8.53756e-05
10 *1891:A *1804:B 4.82863e-05
11 *1891:A *1892:A 3.04786e-05
12 *1891:A *336:16 3.38858e-05
13 *1891:A *491:147 0.000120655
14 *1891:A *512:176 0.000106215
15 *1891:A *533:59 0
16 *1891:A *533:85 9.14314e-05
17 *1949:A2 *1803:B 3.86832e-05
18 *1949:A2 *1818:B2 0.000276188
19 *1949:A2 *1838:A 0.000175294
20 *1949:A2 *191:76 4.29198e-05
21 *1949:A2 *491:155 0.000758108
22 *1949:A2 *491:170 0.000143833
23 *1949:A2 *513:99 0.000138284
24 *182:10 *1823:A2 7.02687e-05
25 *182:10 *1860:C1 4.66108e-05
26 *182:10 *497:47 6.76938e-05
27 *182:10 *520:130 8.7152e-06
28 *182:21 *1803:B 0.000171937
29 *182:21 *1823:A2 0.000163304
30 *182:21 *1838:A 0.000403875
31 *182:21 *197:22 0.000179015
32 *182:21 *492:70 0.000153346
33 *182:21 *497:47 9.70248e-05
34 *182:21 *510:133 0.000143462
*RES
1 *1800:X *182:10 4.92 
2 *182:10 *1801:B 4.395 
3 *182:10 *182:21 9.54 
4 *182:21 *1891:A 13.5175 
5 *182:21 *1949:A2 19.65 
*END

*D_NET *183 0.0045487
*CONN
*I *1805:A1 I *D sky130_fd_sc_hd__o2111a_1
*I *1819:A1 I *D sky130_fd_sc_hd__a311o_1
*I *1801:X O *D sky130_fd_sc_hd__or2_1
*CAP
1 *1805:A1 0.000209249
2 *1819:A1 0
3 *1801:X 0.000835692
4 *183:8 0.00104494
5 *1805:A1 *1813:A 3.90495e-05
6 *1805:A1 *1819:A3 7.89611e-05
7 *1805:A1 *1819:B1 1.34361e-05
8 *1805:A1 *1819:C1 9.50342e-06
9 *1805:A1 *1838:A 0.000198939
10 *1805:A1 *1838:B 4.99619e-05
11 *1805:A1 *189:19 0.000163199
12 *1805:A1 *192:10 0
13 *1805:A1 *522:37 0.000199833
14 *1805:A1 *522:39 0.000273878
15 *1805:A1 *522:47 4.82863e-05
16 *183:8 *1812:B2 9.78798e-05
17 *183:8 *1818:A2 0
18 *183:8 *1819:C1 9.37644e-05
19 *183:8 *1823:B1 8.89019e-05
20 *183:8 *1830:C 0.000312326
21 *183:8 *192:12 0
22 *183:8 *197:10 0
23 *183:8 *513:84 0.000790905
24 *183:8 *514:149 0
25 *183:8 *514:164 0
*RES
1 *1801:X *183:8 21.045 
2 *183:8 *1819:A1 3.6 
3 *183:8 *1805:A1 10.59 
*END

*D_NET *184 0.00025606
*CONN
*I *1804:A I *D sky130_fd_sc_hd__or2_1
*I *1802:X O *D sky130_fd_sc_hd__or4_1
*CAP
1 *1804:A 3.80616e-05
2 *1802:X 3.80616e-05
3 *1804:A *1802:D 9.05837e-05
4 *1804:A *1804:B 8.93531e-05
*RES
1 *1802:X *1804:A 8.325 
*END

*D_NET *185 0.000317385
*CONN
*I *1804:B I *D sky130_fd_sc_hd__or2_1
*I *1803:X O *D sky130_fd_sc_hd__or4_1
*CAP
1 *1804:B 5.79228e-05
2 *1803:X 5.79228e-05
3 *1804:B *336:16 1.83756e-05
4 *1804:B *523:80 4.55239e-05
5 *1804:A *1804:B 8.93531e-05
6 *1891:A *1804:B 4.82863e-05
*RES
1 *1803:X *1804:B 8.775 
*END

*D_NET *186 0.00268965
*CONN
*I *1805:A2 I *D sky130_fd_sc_hd__o2111a_1
*I *1819:A2 I *D sky130_fd_sc_hd__a311o_1
*I *1804:X O *D sky130_fd_sc_hd__or2_1
*CAP
1 *1805:A2 0.000231409
2 *1819:A2 0.000161544
3 *1804:X 0.00022198
4 *186:8 0.000614934
5 *1805:A2 *1838:A 5.93757e-05
6 *1805:A2 *489:18 0.000114492
7 *1805:A2 *522:39 0.000148084
8 *1805:A2 *522:47 8.65905e-05
9 *1805:A2 *522:101 0
10 *1819:A2 *197:10 0.00015896
11 *186:8 *1806:D 0
12 *186:8 *1838:A 0.000203562
13 *186:8 *491:128 0.000593277
14 *186:8 *513:99 9.54399e-05
*RES
1 *1804:X *186:8 10.845 
2 *186:8 *1819:A2 6.12 
3 *186:8 *1805:A2 7.665 
*END

*D_NET *187 0.000447436
*CONN
*I *1820:A I *D sky130_fd_sc_hd__or3_4
*I *1805:X O *D sky130_fd_sc_hd__o2111a_1
*CAP
1 *1820:A 0.000116255
2 *1805:X 0.000116255
3 *1820:A *1838:B 9.09197e-05
4 *1820:A *2077:A 0.000124007
*RES
1 *1805:X *1820:A 5.735 
*END

*D_NET *188 0.0110237
*CONN
*I *2001:B1 I *D sky130_fd_sc_hd__o22a_1
*I *1958:B1 I *D sky130_fd_sc_hd__o22a_1
*I *1886:B1 I *D sky130_fd_sc_hd__o22a_1
*I *1913:B1 I *D sky130_fd_sc_hd__o22a_1
*I *1857:B1 I *D sky130_fd_sc_hd__o22a_1
*I *1823:B1 I *D sky130_fd_sc_hd__o22a_1
*I *2040:B1 I *D sky130_fd_sc_hd__o22a_1
*I *1812:B1 I *D sky130_fd_sc_hd__o22a_1
*I *1806:X O *D sky130_fd_sc_hd__and4b_2
*CAP
1 *2001:B1 0.000300176
2 *1958:B1 6.21245e-05
3 *1886:B1 0
4 *1913:B1 0.000118313
5 *1857:B1 0.000345375
6 *1823:B1 0.000230724
7 *2040:B1 3.44265e-05
8 *1812:B1 2.08101e-05
9 *1806:X 0.000114158
10 *188:72 0.000243245
11 *188:66 0.00055181
12 *188:40 0.000616504
13 *188:36 0.000596112
14 *188:23 0.000596999
15 *188:21 0.00107975
16 *188:6 0.000542923
17 *1812:B1 *1812:A1 0
18 *1812:B1 *1818:A3 0
19 *1823:B1 *1830:A 6.28765e-05
20 *1823:B1 *1830:C 0.000205428
21 *1823:B1 *1962:C 2.05056e-05
22 *1823:B1 *326:28 0.000382769
23 *1823:B1 *514:149 0.00012359
24 *1823:B1 *533:59 0.000419398
25 *1857:B1 *1857:B2 0.000117594
26 *1857:B1 *1859:A1 1.81253e-05
27 *1857:B1 *1859:A2 4.66474e-05
28 *1857:B1 *1859:B1 1.46455e-05
29 *1857:B1 *1859:C1 4.34748e-05
30 *1857:B1 *205:52 0.000157127
31 *1857:B1 *533:59 0.000460425
32 *1857:B1 *544:53 0
33 *1913:B1 *1886:A1 0
34 *1913:B1 *1886:B2 5.4155e-06
35 *1913:B1 *1888:C1 0.000161529
36 *1913:B1 *1913:A1 4.82919e-05
37 *1913:B1 *1913:B2 0.000100305
38 *1913:B1 *1914:A 9.53428e-06
39 *1913:B1 *1914:B 1.08758e-05
40 *1913:B1 *560:40 1.33293e-05
41 *1958:B1 *1914:A 5.16348e-05
42 *1958:B1 *1958:A2 9.63353e-06
43 *1958:B1 *1958:B2 4.87027e-05
44 *2001:B1 *192:85 0.000574284
45 *2001:B1 *196:10 3.60723e-05
46 *2001:B1 *326:8 0
47 *2001:B1 *534:16 4.99619e-05
48 *188:6 *1818:A1 8.88799e-05
49 *188:6 *523:95 2.75145e-05
50 *188:21 *1818:A1 9.95136e-05
51 *188:21 *1818:A3 0.000245884
52 *188:21 *199:40 0.000173634
53 *188:23 *1818:B2 0.000200852
54 *188:23 *190:20 3.7612e-05
55 *188:23 *196:10 1.94805e-05
56 *188:23 *196:20 9.3062e-06
57 *188:23 *326:8 0
58 *188:23 *326:18 0
59 *188:23 *501:240 1.56615e-05
60 *188:36 *1962:C 5.38986e-05
61 *188:36 *190:20 8.69417e-06
62 *188:36 *205:52 0
63 *188:36 *326:28 5.5554e-05
64 *188:36 *492:53 9.57037e-05
65 *188:36 *501:240 2.10582e-05
66 *188:36 *510:165 7.21296e-06
67 *188:40 *1828:A2 2.16917e-05
68 *188:40 *1962:C 4.35432e-05
69 *188:40 *533:59 3.57349e-05
70 *188:66 *1828:A2 0.000197093
71 *188:66 *1958:A1 9.27495e-05
72 *188:66 *1958:A2 1.56428e-05
73 *188:66 *1961:B1 7.67415e-06
74 *188:66 *1962:C 8.65961e-05
75 *188:72 *1888:A1 5.53249e-06
76 *188:72 *1913:B2 0.000120186
77 *188:72 *1914:A 3.3972e-05
78 *188:72 *1949:A1 0.000400381
79 *188:72 *510:176 6.79039e-05
80 *183:8 *1823:B1 8.89019e-05
*RES
1 *1806:X *188:6 3.43 
2 *188:6 *1812:B1 1.96 
3 *188:6 *188:21 8.09 
4 *188:21 *188:23 6.99 
5 *188:23 *2040:B1 4.05 
6 *188:23 *188:36 5.675 
7 *188:36 *188:40 1.155 
8 *188:40 *1823:B1 13.94 
9 *188:40 *1857:B1 14.12 
10 *188:36 *188:66 6.66 
11 *188:66 *188:72 8.695 
12 *188:72 *1913:B1 4.84 
13 *188:72 *1886:B1 1.6 
14 *188:66 *1958:B1 7.01 
15 *188:21 *2001:B1 10.26 
*END

*D_NET *189 0.00301899
*CONN
*I *1810:D_N I *D sky130_fd_sc_hd__or4b_4
*I *1814:C I *D sky130_fd_sc_hd__nor3_4
*I *1808:A I *D sky130_fd_sc_hd__or3b_4
*I *1813:C I *D sky130_fd_sc_hd__nor3_1
*I *1807:Y O *D sky130_fd_sc_hd__nand2_2
*CAP
1 *1810:D_N 0.000221168
2 *1814:C 0
3 *1808:A 7.22888e-05
4 *1813:C 0
5 *1807:Y 8.09268e-05
6 *189:19 0.000261872
7 *189:12 0.000298161
8 *189:6 0.000410672
9 *1808:A *1808:B 0.00023203
10 *1808:A *192:10 0.000183738
11 *1810:D_N *1588:A_N 8.26164e-05
12 *1810:D_N *1810:B 8.34281e-06
13 *1810:D_N *192:10 0.000163199
14 *1810:D_N *511:31 0.000167101
15 *1810:D_N *511:52 4.35348e-05
16 *1810:D_N *511:60 0.000234786
17 *189:6 *511:60 9.66021e-05
18 *189:12 *1838:A 8.53113e-06
19 *189:12 *489:18 0
20 *189:19 *522:37 0.000290225
21 *1805:A1 *189:19 0.000163199
*RES
1 *1807:Y *189:6 3.085 
2 *189:6 *189:12 5.635 
3 *189:12 *1813:C 1.6 
4 *189:12 *189:19 4.245 
5 *189:19 *1808:A 8.195 
6 *189:19 *1814:C 1.6 
7 *189:6 *1810:D_N 7.585 
*END

*D_NET *190 0.00993495
*CONN
*I *2000:B1 I *D sky130_fd_sc_hd__a21oi_1
*I *1811:B1 I *D sky130_fd_sc_hd__a22oi_1
*I *1957:B1 I *D sky130_fd_sc_hd__a21oi_1
*I *1912:B1 I *D sky130_fd_sc_hd__a21oi_1
*I *1885:B1 I *D sky130_fd_sc_hd__a21oi_1
*I *1822:A I *D sky130_fd_sc_hd__nor2_1
*I *1856:A_N I *D sky130_fd_sc_hd__and2b_1
*I *2039:B1 I *D sky130_fd_sc_hd__a21oi_1
*I *1808:X O *D sky130_fd_sc_hd__or3b_4
*CAP
1 *2000:B1 0.00058565
2 *1811:B1 0.000132196
3 *1957:B1 0.000319522
4 *1912:B1 0.000122744
5 *1885:B1 0.000151332
6 *1822:A 0
7 *1856:A_N 0.000189062
8 *2039:B1 0
9 *1808:X 3.38751e-05
10 *190:37 0.000360811
11 *190:35 0.000490041
12 *190:31 0.000581426
13 *190:27 0.000635069
14 *190:20 0.000356044
15 *190:10 0.000584154
16 *190:8 0.000739264
17 *1811:B1 *1811:B2 2.49909e-05
18 *1811:B1 *2004:A2 8.49205e-05
19 *1856:A_N *1822:B 0.000155497
20 *1856:A_N *1823:B2 8.29685e-05
21 *1856:A_N *1857:B2 4.66108e-05
22 *1885:B1 *1886:A1 8.8266e-05
23 *1885:B1 *1886:A2 6.90876e-05
24 *1885:B1 *518:202 4.82919e-05
25 *1885:B1 *561:223 0.000122331
26 *1912:B1 *510:165 0.000503702
27 *1912:B1 *510:176 7.3151e-05
28 *1912:B1 *560:12 0.000192218
29 *1912:B1 *560:27 4.51031e-05
30 *1957:B1 *1957:A1 0.000158066
31 *1957:B1 *1958:B2 1.34594e-05
32 *1957:B1 *1959:A2 0.000301905
33 *1957:B1 *2039:A2 2.30292e-05
34 *1957:B1 *2097:A 4.99619e-05
35 *1957:B1 *336:16 0.000162156
36 *1957:B1 *492:39 2.8185e-05
37 *1957:B1 *492:41 4.82919e-05
38 *2000:B1 *1808:B 1.15688e-05
39 *2000:B1 *1808:C_N 0.000185411
40 *2000:B1 *1814:A 0.000122325
41 *2000:B1 *2000:A1 5.05437e-05
42 *2000:B1 *192:12 0
43 *2000:B1 *196:10 0.000359338
44 *2000:B1 *522:16 3.25831e-05
45 *190:8 *192:85 4.82863e-05
46 *190:10 *196:10 0.00010125
47 *190:10 *196:20 0.000183738
48 *190:10 *501:221 0.000102802
49 *190:20 *1818:B2 3.50033e-05
50 *190:20 *2004:A2 0.000155995
51 *190:20 *2039:A2 1.91597e-05
52 *190:20 *2040:B2 5.80923e-05
53 *190:20 *2042:A2 8.41015e-06
54 *190:20 *2042:B1 5.83121e-06
55 *190:20 *2043:B1 1.88602e-05
56 *190:20 *196:20 0.000137571
57 *190:20 *205:52 9.5799e-06
58 *190:20 *336:16 4.07182e-05
59 *190:20 *492:41 4.66108e-05
60 *190:20 *501:221 8.08153e-06
61 *190:20 *501:240 0.000198939
62 *190:27 *492:41 4.66108e-05
63 *190:31 *1958:A1 0
64 *190:31 *1962:C 2.37321e-05
65 *190:31 *2082:A 3.14412e-05
66 *190:31 *199:57 0
67 *190:31 *326:18 0.000111776
68 *190:31 *492:53 0
69 *190:31 *510:165 0.000131
70 *190:31 *533:59 0
71 *190:35 *199:63 0
72 *190:35 *533:59 0
73 *188:23 *190:20 3.7612e-05
74 *188:36 *190:20 8.69417e-06
*RES
1 *1808:X *190:8 4.05 
2 *190:8 *190:10 3.42 
3 *190:10 *190:20 9.77 
4 *190:20 *2039:B1 1.6 
5 *190:20 *190:27 0.45 
6 *190:27 *190:31 7.46 
7 *190:31 *190:35 4.655 
8 *190:35 *190:37 2.52 
9 *190:37 *1856:A_N 4.825 
10 *190:37 *1822:A 1.6 
11 *190:35 *1885:B1 5.17 
12 *190:31 *1912:B1 8.88 
13 *190:27 *1957:B1 8.95 
14 *190:10 *1811:B1 5.79 
15 *190:8 *2000:B1 14.115 
*END

*D_NET *191 0.0151267
*CONN
*I *2008:A2 I *D sky130_fd_sc_hd__a21o_1
*I *1963:A2 I *D sky130_fd_sc_hd__a21o_1
*I *1949:B1 I *D sky130_fd_sc_hd__o21a_1
*I *1891:B I *D sky130_fd_sc_hd__nand2_1
*I *1831:B I *D sky130_fd_sc_hd__nand2_1
*I *1862:B1 I *D sky130_fd_sc_hd__o31a_1
*I *1839:B1 I *D sky130_fd_sc_hd__o21a_1
*I *1809:X O *D sky130_fd_sc_hd__or4b_4
*CAP
1 *2008:A2 0.000275923
2 *1963:A2 0
3 *1949:B1 0
4 *1891:B 0.000232099
5 *1831:B 2.15803e-05
6 *1862:B1 6.87228e-05
7 *1839:B1 8.31662e-05
8 *1809:X 0
9 *191:89 0.000760423
10 *191:76 0.00118539
11 *191:63 0.00160971
12 *191:24 0.000691154
13 *191:14 0.000976183
14 *191:4 0.00109207
15 *1831:B *1831:A 0
16 *1839:B1 *1774:C1 0.000349592
17 *1839:B1 *1831:A 0.000230435
18 *1839:B1 *1839:A2 1.47256e-05
19 *1862:B1 *1774:C1 0.000203762
20 *1862:B1 *1839:A2 5.2089e-05
21 *1862:B1 *219:70 0
22 *1862:B1 *326:95 3.50599e-05
23 *1862:B1 *520:192 3.24046e-05
24 *1891:B *1858:B1 0
25 *1891:B *1892:A 6.56448e-06
26 *1891:B *1892:B 0.000135896
27 *1891:B *1948:A1 6.71803e-06
28 *1891:B *523:80 0
29 *1891:B *533:85 4.13171e-05
30 *1891:B *562:48 5.53772e-05
31 *2008:A2 *352:10 4.61658e-05
32 *2008:A2 *491:217 0.000123295
33 *191:14 *1831:A 8.49205e-05
34 *191:14 *1834:A 0.000106819
35 *191:14 *2081:A 0.000175191
36 *191:14 *491:10 1.66065e-05
37 *191:14 *491:128 8.40269e-05
38 *191:14 *533:85 0.00010293
39 *191:14 *544:92 0.000185411
40 *191:24 *1774:C1 4.66108e-05
41 *191:24 *1831:A 0.000276152
42 *191:24 *1845:A3 0.00013178
43 *191:24 *1861:B1 6.50568e-05
44 *191:24 *1866:A 0.000102216
45 *191:24 *1867:B 0.000155928
46 *191:24 *1867:C 6.1886e-05
47 *191:24 *1868:B1 5.73518e-05
48 *191:24 *1890:A_N 0.000174694
49 *191:24 *192:34 0.000275789
50 *191:24 *225:8 6.17614e-05
51 *191:24 *225:10 0.000438022
52 *191:24 *245:20 7.89767e-05
53 *191:24 *533:85 4.08514e-05
54 *191:63 *1805:D1 9.29751e-06
55 *191:63 *1809:A 1.91597e-05
56 *191:63 *1809:C 9.37731e-05
57 *191:63 *1817:B_N 0
58 *191:63 *1817:D 0.000155554
59 *191:63 *511:62 3.20202e-05
60 *191:63 *511:72 0.000171028
61 *191:63 *522:49 0
62 *191:63 *522:75 0
63 *191:63 *523:80 0
64 *191:63 *523:95 0
65 *191:63 *533:85 0.000182454
66 *191:76 *1818:B2 0.000755545
67 *191:76 *192:20 0.00102368
68 *191:76 *196:20 0.000103554
69 *191:76 *491:155 0.000304433
70 *191:76 *491:170 8.247e-05
71 *191:76 *513:103 0.000283918
72 *191:89 *1963:A1 0.000493679
73 *191:89 *1963:B1 1.53032e-05
74 *191:89 *2002:A2 0
75 *191:89 *2009:B 0
76 *191:89 *338:10 9.86611e-05
77 *191:89 *491:198 0
78 *191:89 *545:41 0
79 *1820:B *191:14 0.000155661
80 *1820:B *191:63 5.07419e-05
81 *1949:A2 *191:76 4.29198e-05
*RES
1 *1809:X *191:4 1.6 
2 *191:4 *191:14 13.75 
3 *191:14 *191:24 20.665 
4 *191:24 *1839:B1 4.81 
5 *191:24 *1862:B1 8 
6 *191:14 *1831:B 1.96 
7 *191:4 *191:63 15.08 
8 *191:63 *1891:B 7.785 
9 *191:63 *191:76 21.425 
10 *191:76 *1949:B1 1.6 
11 *191:76 *191:89 13.75 
12 *191:89 *1963:A2 1.6 
13 *191:89 *2008:A2 10.46 
*END

*D_NET *192 0.0161524
*CONN
*I *2011:A I *D sky130_fd_sc_hd__nor2_1
*I *1968:B1 I *D sky130_fd_sc_hd__a31o_1
*I *1956:A_N I *D sky130_fd_sc_hd__and3b_1
*I *1811:B2 I *D sky130_fd_sc_hd__a22oi_1
*I *1918:A1 I *D sky130_fd_sc_hd__o31ai_1
*I *1869:A I *D sky130_fd_sc_hd__or3b_1
*I *1845:B1 I *D sky130_fd_sc_hd__a31oi_1
*I *1836:B1 I *D sky130_fd_sc_hd__a21oi_1
*I *1810:X O *D sky130_fd_sc_hd__or4b_4
*CAP
1 *2011:A 0.000195521
2 *1968:B1 3.21915e-05
3 *1956:A_N 0.000369844
4 *1811:B2 3.18487e-05
5 *1918:A1 0
6 *1869:A 0
7 *1845:B1 0.000174363
8 *1836:B1 0.000553888
9 *1810:X 0.000283302
10 *192:102 0.000506856
11 *192:85 0.00178075
12 *192:34 0.00100967
13 *192:24 0.000346472
14 *192:20 0.00101504
15 *192:12 0.00117793
16 *192:10 0.00161117
17 *1836:B1 *1832:A 0.000193806
18 *1836:B1 *1835:B 3.83041e-05
19 *1836:B1 *1836:A2 1.70733e-05
20 *1836:B1 *1837:B1 1.60203e-05
21 *1836:B1 *1837:B2 7.91819e-05
22 *1836:B1 *1838:B 0.000464505
23 *1845:B1 *1834:B 2.95708e-05
24 *1845:B1 *1845:A1 0
25 *1845:B1 *1845:A2 0.000169764
26 *1845:B1 *1845:A3 0.000218103
27 *1845:B1 *1861:A2 1.71207e-05
28 *1845:B1 *216:19 4.9968e-05
29 *1845:B1 *501:12 2.21935e-06
30 *1956:A_N *1952:A 0
31 *1956:A_N *1955:A 4.82919e-05
32 *1956:A_N *1969:B 0.000117825
33 *1956:A_N *336:16 0
34 *1956:A_N *341:23 0
35 *1956:A_N *342:10 3.68769e-05
36 *1956:A_N *343:21 4.99619e-05
37 *1968:B1 *1968:A3 3.15313e-05
38 *2011:A *1967:A1 2.10134e-05
39 *2011:A *1967:B1 1.19928e-05
40 *2011:A *2006:B1 0.000137571
41 *2011:A *2011:B 4.18603e-06
42 *2011:A *356:8 4.66108e-05
43 *192:10 *1808:B 0.000103699
44 *192:10 *1819:B1 0
45 *192:12 *1818:A2 3.86607e-05
46 *192:12 *1819:B1 0
47 *192:12 *501:221 0.000319448
48 *192:12 *514:149 7.21296e-06
49 *192:12 *514:164 6.90874e-05
50 *192:20 *2081:A 2.75229e-05
51 *192:20 *196:20 7.58604e-05
52 *192:20 *501:221 0.000114492
53 *192:20 *513:103 0.000259082
54 *192:20 *514:149 3.26822e-05
55 *192:24 *1869:C_N 7.40446e-05
56 *192:24 *250:6 4.66108e-05
57 *192:24 *513:103 0.000147196
58 *192:34 *1845:A3 0.000242456
59 *192:34 *1861:A2 7.26551e-05
60 *192:34 *1861:B1 0.000482407
61 *192:34 *1867:C 0
62 *192:34 *1868:A2 1.91597e-05
63 *192:34 *1868:B1 3.25831e-05
64 *192:34 *250:6 0.0001947
65 *192:34 *513:103 0.000232111
66 *192:85 *1808:B 8.65961e-05
67 *192:85 *1808:C_N 4.66742e-05
68 *192:85 *2001:A1 8.40269e-05
69 *192:85 *2003:B1 4.82863e-05
70 *192:85 *534:16 3.77036e-05
71 *192:102 *1967:A1 1.47347e-05
72 *192:102 *1967:B1 0
73 *192:102 *1968:A3 5.30673e-05
74 *192:102 *1969:B 5.36384e-06
75 *192:102 *341:23 0
76 *192:102 *355:10 0
77 *1805:A1 *192:10 0
78 *1808:A *192:10 0.000183738
79 *1810:D_N *192:10 0.000163199
80 *1811:B1 *1811:B2 2.49909e-05
81 *2000:B1 *192:12 0
82 *2001:B1 *192:85 0.000574284
83 *183:8 *192:12 0
84 *190:8 *192:85 4.82863e-05
85 *191:24 *192:34 0.000275789
86 *191:76 *192:20 0.00102368
*RES
1 *1810:X *192:10 9.015 
2 *192:10 *192:12 4.185 
3 *192:12 *192:20 19.715 
4 *192:20 *192:24 1.845 
5 *192:24 *192:34 12.485 
6 *192:34 *1836:B1 11.925 
7 *192:34 *1845:B1 8.115 
8 *192:24 *1869:A 1.6 
9 *192:20 *1918:A1 1.6 
10 *192:12 *1811:B2 4.05 
11 *192:10 *192:85 21.7 
12 *192:85 *1956:A_N 10.275 
13 *192:85 *192:102 5.645 
14 *192:102 *1968:B1 2.215 
15 *192:102 *2011:A 8.72 
*END

*D_NET *193 0.000756108
*CONN
*I *1812:B2 I *D sky130_fd_sc_hd__o22a_1
*I *1811:Y O *D sky130_fd_sc_hd__a22oi_1
*CAP
1 *1812:B2 0.000196022
2 *1811:Y 0.000196022
3 *1812:B2 *1811:A1 0.000153619
4 *1812:B2 *1811:A2 1.2818e-05
5 *1812:B2 *197:10 9.9747e-05
6 *183:8 *1812:B2 9.78798e-05
*RES
1 *1811:Y *1812:B2 11.865 
*END

*D_NET *194 0.000435283
*CONN
*I *1819:C1 I *D sky130_fd_sc_hd__a311o_1
*I *1812:X O *D sky130_fd_sc_hd__o22a_1
*CAP
1 *1819:C1 0.000119959
2 *1812:X 0.000119959
3 *1819:C1 *1819:B1 9.20976e-05
4 *1805:A1 *1819:C1 9.50342e-06
5 *183:8 *1819:C1 9.37644e-05
*RES
1 *1812:X *1819:C1 9.48 
*END

*D_NET *195 0.00044118
*CONN
*I *1819:A3 I *D sky130_fd_sc_hd__a311o_1
*I *1813:Y O *D sky130_fd_sc_hd__nor3_1
*CAP
1 *1819:A3 0.000109952
2 *1813:Y 0.000109952
3 *1819:A3 *1838:A 5.12859e-05
4 *1819:A3 *197:10 4.43871e-06
5 *1819:A3 *522:37 8.65905e-05
6 *1805:A1 *1819:A3 7.89611e-05
*RES
1 *1813:Y *1819:A3 9.63 
*END

*D_NET *196 0.0131964
*CONN
*I *1816:A I *D sky130_fd_sc_hd__or2_1
*I *1829:A1 I *D sky130_fd_sc_hd__a32o_1
*I *1859:B2 I *D sky130_fd_sc_hd__a221o_1
*I *2005:A1 I *D sky130_fd_sc_hd__a31o_1
*I *2043:A1 I *D sky130_fd_sc_hd__a311o_1
*I *1947:B1 I *D sky130_fd_sc_hd__o21a_1
*I *1916:A1 I *D sky130_fd_sc_hd__a311o_1
*I *1884:B1 I *D sky130_fd_sc_hd__o21a_1
*I *1814:Y O *D sky130_fd_sc_hd__nor3_4
*CAP
1 *1816:A 0
2 *1829:A1 4.34144e-05
3 *1859:B2 7.57074e-05
4 *2005:A1 0.000106179
5 *2043:A1 0.000162047
6 *1947:B1 0
7 *1916:A1 3.37454e-05
8 *1884:B1 1.1676e-05
9 *1814:Y 0.000246299
10 *196:75 0.000723617
11 *196:62 0.000640183
12 *196:51 0.00068898
13 *196:36 0.000829583
14 *196:28 0.000603455
15 *196:20 0.000964996
16 *196:10 0.000987597
17 *1829:A1 *1829:B1 5.83121e-06
18 *1829:A1 *1829:B2 4.35752e-06
19 *1829:A1 *1860:C1 4.66108e-05
20 *1859:B2 *1859:C1 6.03947e-06
21 *1859:B2 *533:26 1.12643e-05
22 *1859:B2 *544:34 2.72165e-05
23 *1859:B2 *544:53 0.000112799
24 *1859:B2 *561:223 0
25 *1884:B1 *234:27 4.13675e-05
26 *2005:A1 *2037:A 4.35348e-05
27 *2005:A1 *2038:A 3.09179e-05
28 *2043:A1 *2005:B1 1.08766e-05
29 *2043:A1 *2043:A2 0.000205062
30 *2043:A1 *2043:B1 5.62609e-05
31 *196:10 *326:8 0
32 *196:10 *522:16 1.34361e-05
33 *196:20 *1818:B2 0.000294421
34 *196:20 *1828:B1 0.000219012
35 *196:20 *2004:A2 9.37603e-05
36 *196:20 *2041:A2 5.28193e-05
37 *196:20 *2041:A3 5.16418e-05
38 *196:20 *2042:C1 0.000153067
39 *196:20 *202:43 0.000168523
40 *196:20 *491:155 0.000177745
41 *196:20 *501:221 3.44734e-05
42 *196:20 *514:149 0.000667193
43 *196:28 *1917:C1 0.000480916
44 *196:28 *202:43 9.50015e-05
45 *196:28 *514:149 9.66687e-05
46 *196:28 *543:14 0.000472319
47 *196:36 *1854:A 4.82863e-05
48 *196:36 *1854:B 4.60584e-05
49 *196:36 *1859:B1 3.00381e-05
50 *196:36 *1888:B2 4.60584e-05
51 *196:36 *234:27 0.000599888
52 *196:36 *544:53 3.69766e-05
53 *196:51 *1882:A 0.000389572
54 *196:51 *1882:B 4.21973e-05
55 *196:51 *1888:B2 1.16578e-05
56 *196:51 *1916:A2 5.39718e-05
57 *196:51 *1917:C1 0
58 *196:51 *234:27 0.000108559
59 *196:51 *234:34 4.99619e-05
60 *196:51 *266:12 5.92849e-05
61 *196:51 *297:10 8.08153e-06
62 *196:51 *533:26 0.000115892
63 *196:51 *560:40 0
64 *196:62 *1961:B1 5.4003e-05
65 *196:62 *297:10 2.97004e-06
66 *196:62 *297:19 8.47372e-05
67 *196:62 *297:32 6.5265e-05
68 *196:62 *545:10 0
69 *196:62 *560:40 0
70 *196:75 *1960:B1 0
71 *196:75 *1961:B1 0.00040365
72 *196:75 *2037:A 3.00381e-05
73 *196:75 *2043:A2 8.8266e-05
74 *196:75 *297:32 4.18603e-06
75 *2000:B1 *196:10 0.000359338
76 *2001:B1 *196:10 3.60723e-05
77 *188:23 *196:10 1.94805e-05
78 *188:23 *196:20 9.3062e-06
79 *190:10 *196:10 0.00010125
80 *190:10 *196:20 0.000183738
81 *190:20 *196:20 0.000137571
82 *191:76 *196:20 0.000103554
83 *192:20 *196:20 7.58604e-05
*RES
1 *1814:Y *196:10 9.09 
2 *196:10 *196:20 22.96 
3 *196:20 *196:28 2.9897 
4 *196:28 *196:36 9.8525 
5 *196:36 *1884:B1 1.96 
6 *196:36 *196:51 11.66 
7 *196:51 *1916:A1 4.05 
8 *196:51 *196:62 4.185 
9 *196:62 *1947:B1 3.6 
10 *196:62 *196:75 10.94 
11 *196:75 *2043:A1 9.08 
12 *196:75 *2005:A1 3.445 
13 *196:28 *1859:B2 5.21625 
14 *196:20 *1829:A1 4.41 
15 *196:10 *1816:A 3.6 
*END

*D_NET *197 0.0128846
*CONN
*I *1816:B I *D sky130_fd_sc_hd__or2_1
*I *2002:A3 I *D sky130_fd_sc_hd__a32o_1
*I *1959:A3 I *D sky130_fd_sc_hd__a32o_1
*I *2041:A3 I *D sky130_fd_sc_hd__a32o_1
*I *1828:B2 I *D sky130_fd_sc_hd__a22o_1
*I *1915:A3 I *D sky130_fd_sc_hd__a32o_1
*I *1887:A3 I *D sky130_fd_sc_hd__a32o_1
*I *1858:A3 I *D sky130_fd_sc_hd__a32o_1
*I *1815:X O *D sky130_fd_sc_hd__and4b_2
*CAP
1 *1816:B 0.000424903
2 *2002:A3 1.79065e-05
3 *1959:A3 2.08101e-05
4 *2041:A3 1.8286e-05
5 *1828:B2 1.27578e-05
6 *1915:A3 0.000175139
7 *1887:A3 4.73057e-05
8 *1858:A3 0.000184437
9 *1815:X 0.000499862
10 *197:108 0.000644569
11 *197:95 0.000394829
12 *197:78 0.000276804
13 *197:30 0.000293119
14 *197:28 0.000571507
15 *197:22 0.000486508
16 *197:10 0.000724879
17 *1816:B *2002:B2 8.59296e-05
18 *1816:B *2003:A1 4.66108e-05
19 *1816:B *2004:B1 6.1357e-05
20 *1816:B *199:40 0.000421062
21 *1816:B *199:55 0.000189867
22 *1816:B *492:27 2.92496e-05
23 *1816:B *492:39 1.88904e-05
24 *1828:B2 *512:121 4.66108e-05
25 *1828:B2 *560:12 2.05056e-05
26 *1858:A3 *1858:A1 4.82919e-05
27 *1858:A3 *1858:B1 8.53307e-05
28 *1858:A3 *1860:C1 3.03205e-05
29 *1858:A3 *1915:A1 2.61944e-05
30 *1858:A3 *2094:A 2.36716e-05
31 *1858:A3 *562:34 3.59531e-06
32 *1858:A3 *562:48 0
33 *1887:A3 *1887:B1 0.000128122
34 *1887:A3 *1915:A1 8.49205e-05
35 *1887:A3 *561:160 1.57505e-05
36 *1915:A3 *1862:A3 2.49909e-05
37 *1915:A3 *1887:B1 2.21449e-05
38 *1915:A3 *1915:A1 2.09303e-05
39 *1915:A3 *1915:B2 2.46087e-05
40 *1915:A3 *205:18 9.4988e-06
41 *1915:A3 *497:31 4.66108e-05
42 *1915:A3 *497:43 1.46828e-05
43 *2002:A3 *2002:A2 1.10717e-05
44 *2002:A3 *2002:B1 1.11659e-05
45 *2002:A3 *2005:B1 0
46 *2041:A3 *2004:A2 2.23485e-05
47 *2041:A3 *2041:A2 9.50342e-06
48 *197:10 *1820:C 6.98113e-05
49 *197:10 *1838:A 0.000873783
50 *197:10 *489:18 4.99619e-05
51 *197:10 *491:128 2.75145e-05
52 *197:10 *492:70 2.92496e-05
53 *197:10 *513:84 5.48836e-05
54 *197:22 *1838:A 0.000134516
55 *197:22 *326:28 0.000118081
56 *197:22 *492:70 0.000132842
57 *197:22 *510:133 0.000180689
58 *197:22 *533:59 0.000118081
59 *197:28 *1858:B1 0.000130707
60 *197:28 *1889:B1 8.63292e-05
61 *197:28 *1915:B2 2.75538e-05
62 *197:28 *512:121 0.000340209
63 *197:28 *517:110 0.000219341
64 *197:28 *560:12 0.000173266
65 *197:30 *1858:B1 8.58256e-05
66 *197:30 *1889:B1 8.53113e-06
67 *197:30 *1915:B2 7.21296e-06
68 *197:30 *561:164 0
69 *197:78 *1802:C 4.66108e-05
70 *197:78 *492:55 0.000370212
71 *197:78 *510:165 0.000418504
72 *197:95 *1962:A 0.000200615
73 *197:95 *1962:B 0.000164352
74 *197:95 *326:18 3.73232e-05
75 *197:95 *490:105 5.73163e-05
76 *197:95 *492:53 0.000259544
77 *197:95 *492:55 8.49205e-05
78 *197:95 *510:165 0.000390265
79 *197:108 *1958:A1 5.4003e-05
80 *197:108 *1962:B 6.52265e-05
81 *197:108 *2002:B2 0.000452309
82 *197:108 *199:55 0.000441132
83 *197:108 *199:57 5.4003e-05
84 *197:108 *490:105 3.66423e-05
85 *197:108 *490:142 1.19928e-05
86 *1812:B2 *197:10 9.9747e-05
87 *1819:A2 *197:10 0.00015896
88 *1819:A3 *197:10 4.43871e-06
89 *182:21 *197:22 0.000179015
90 *183:8 *197:10 0
91 *196:20 *2041:A3 5.16418e-05
*RES
1 *1815:X *197:10 16.335 
2 *197:10 *197:22 10.92 
3 *197:22 *197:28 10.64 
4 *197:28 *197:30 1.125 
5 *197:30 *1858:A3 6.48 
6 *197:30 *1887:A3 5.1 
7 *197:28 *1915:A3 6.405 
8 *197:22 *1828:B2 2.05 
9 *197:10 *197:78 5.9 
10 *197:78 *2041:A3 6.215 
11 *197:78 *197:95 7.125 
12 *197:95 *1959:A3 1.96 
13 *197:95 *197:108 9.11 
14 *197:108 *2002:A3 3.98625 
15 *197:108 *1816:B 11.745 
*END

*D_NET *198 0.000576505
*CONN
*I *1818:A3 I *D sky130_fd_sc_hd__a32o_1
*I *1816:X O *D sky130_fd_sc_hd__or2_1
*CAP
1 *1818:A3 6.64961e-05
2 *1816:X 6.64961e-05
3 *1818:A3 *1818:A1 5.46217e-05
4 *1818:A3 *199:29 3.07752e-05
5 *1818:A3 *199:40 0.000112232
6 *1812:B1 *1818:A3 0
7 *188:21 *1818:A3 0.000245884
*RES
1 *1816:X *1818:A3 5.735 
*END

*D_NET *199 0.0150233
*CONN
*I *1959:B1 I *D sky130_fd_sc_hd__a32o_1
*I *1828:A2 I *D sky130_fd_sc_hd__a22o_1
*I *1914:B I *D sky130_fd_sc_hd__and2_1
*I *1888:A2 I *D sky130_fd_sc_hd__a221o_1
*I *2003:A2 I *D sky130_fd_sc_hd__a211o_1
*I *1818:B1 I *D sky130_fd_sc_hd__a32o_1
*I *1858:B1 I *D sky130_fd_sc_hd__a32o_1
*I *1817:X O *D sky130_fd_sc_hd__and4bb_2
*CAP
1 *1959:B1 1.1202e-05
2 *1828:A2 0.000308788
3 *1914:B 0.00047466
4 *1888:A2 0
5 *2003:A2 1.85694e-05
6 *1818:B1 0
7 *1858:B1 0.00074583
8 *1817:X 0
9 *199:63 0.000903792
10 *199:57 0.000832208
11 *199:55 0.000485939
12 *199:40 0.000707477
13 *199:29 0.000925105
14 *199:4 0.00136248
15 *1828:A2 *1958:A1 8.65905e-05
16 *1828:A2 *1961:B1 0.00120582
17 *1828:A2 *492:70 6.73424e-05
18 *1828:A2 *512:113 8.53113e-06
19 *1828:A2 *513:84 0.000134509
20 *1828:A2 *533:59 0.000600647
21 *1858:B1 *1803:C 0
22 *1858:B1 *1858:A1 2.24829e-05
23 *1858:B1 *1862:A3 2.82172e-05
24 *1858:B1 *1892:B 0
25 *1858:B1 *1893:A 0.000205226
26 *1858:B1 *1915:B2 0
27 *1858:B1 *2094:A 1.35171e-05
28 *1858:B1 *205:10 0.000297909
29 *1858:B1 *205:18 0.000273877
30 *1858:B1 *495:100 2.98807e-05
31 *1858:B1 *497:43 1.7635e-05
32 *1858:B1 *533:85 1.03755e-05
33 *1858:B1 *561:185 0
34 *1858:B1 *562:34 1.16664e-05
35 *1858:B1 *562:48 0
36 *1914:B *1888:B1 0.000162311
37 *1914:B *1888:C1 7.06865e-05
38 *1914:B *1914:A 9.52646e-05
39 *1914:B *1916:B1 2.96334e-05
40 *1914:B *533:26 2.89767e-05
41 *1914:B *545:10 2.46089e-05
42 *1914:B *560:40 2.86265e-06
43 *1959:B1 *1962:B 7.72438e-06
44 *1959:B1 *490:142 2.87433e-05
45 *2003:A2 *2003:A1 9.53428e-06
46 *199:29 *1806:B 2.59835e-05
47 *199:29 *1812:A2 0.000347922
48 *199:29 *1817:A_N 0.000161417
49 *199:29 *1817:B_N 0.000115779
50 *199:29 *1818:A1 0.000442886
51 *199:29 *523:95 0.000309612
52 *199:40 *1818:B2 0.00012491
53 *199:40 *2003:A1 2.16917e-05
54 *199:55 *1959:B2 0.000276123
55 *199:55 *2003:A1 1.61831e-05
56 *199:55 *2003:B1 5.39961e-05
57 *199:55 *2003:C1 0.000145076
58 *199:55 *2004:B1 2.97373e-05
59 *199:55 *491:185 0.000266114
60 *199:57 *1949:A1 8.48367e-05
61 *199:57 *1958:A1 9.42302e-05
62 *199:57 *1959:B2 3.09164e-05
63 *199:63 *1888:A1 0
64 *199:63 *1889:C1 1.54862e-05
65 *199:63 *1949:A1 0.000144365
66 *199:63 *518:202 0
67 *199:63 *533:26 0.000111141
68 *1816:B *199:40 0.000421062
69 *1816:B *199:55 0.000189867
70 *1818:A3 *199:29 3.07752e-05
71 *1818:A3 *199:40 0.000112232
72 *1858:A3 *1858:B1 8.53307e-05
73 *1891:B *1858:B1 0
74 *1913:B1 *1914:B 1.08758e-05
75 *188:21 *199:40 0.000173634
76 *188:40 *1828:A2 2.16917e-05
77 *188:66 *1828:A2 0.000197093
78 *190:31 *199:57 0
79 *190:35 *199:63 0
80 *197:28 *1858:B1 0.000130707
81 *197:30 *1858:B1 8.58256e-05
82 *197:108 *199:55 0.000441132
83 *197:108 *199:57 5.4003e-05
*RES
1 *1817:X *199:4 1.6 
2 *199:4 *1858:B1 22.4225 
3 *199:4 *199:29 13.4625 
4 *199:29 *1818:B1 1.6 
5 *199:29 *199:40 7.0275 
6 *199:40 *2003:A2 1.96 
7 *199:40 *199:55 12.365 
8 *199:55 *199:57 2.91 
9 *199:57 *199:63 9.38 
10 *199:63 *1888:A2 1.6 
11 *199:63 *1914:B 12.5675 
12 *199:57 *1828:A2 20.38 
13 *199:55 *1959:B1 3.8775 
*END

*D_NET *200 0.000251812
*CONN
*I *1819:B1 I *D sky130_fd_sc_hd__a311o_1
*I *1818:X O *D sky130_fd_sc_hd__a32o_1
*CAP
1 *1819:B1 7.31393e-05
2 *1818:X 7.31393e-05
3 *1805:A1 *1819:B1 1.34361e-05
4 *1819:C1 *1819:B1 9.20976e-05
5 *192:10 *1819:B1 0
6 *192:12 *1819:B1 0
*RES
1 *1818:X *1819:B1 8.58 
*END

*D_NET *201 0.00196544
*CONN
*I *1820:C I *D sky130_fd_sc_hd__or3_4
*I *1819:X O *D sky130_fd_sc_hd__a311o_1
*CAP
1 *1820:C 0.000621139
2 *1819:X 0.000621139
3 *1820:C *1824:A_N 8.40213e-05
4 *1820:C *489:18 9.2741e-05
5 *1820:C *489:20 2.16917e-05
6 *1820:C *489:35 0.00030615
7 *1820:C *511:72 0.000139245
8 *1820:B *1820:C 9.50342e-06
9 *197:10 *1820:C 6.98113e-05
*RES
1 *1819:X *1820:C 15.84 
*END

*D_NET *202 0.00485358
*CONN
*I *1828:B1 I *D sky130_fd_sc_hd__a22o_1
*I *1822:B I *D sky130_fd_sc_hd__nor2_1
*I *1826:C I *D sky130_fd_sc_hd__and3_1
*I *1846:B1 I *D sky130_fd_sc_hd__a21o_1
*I *1848:C I *D sky130_fd_sc_hd__and3_1
*I *1821:X O *D sky130_fd_sc_hd__and2_1
*CAP
1 *1828:B1 0.000220197
2 *1822:B 4.11217e-05
3 *1826:C 5.29588e-05
4 *1846:B1 2.12116e-05
5 *1848:C 4.40628e-05
6 *1821:X 7.01849e-05
7 *202:43 0.000529285
8 *202:32 0.000361983
9 *202:21 0.000166182
10 *202:6 0.000218159
11 *1822:B *1823:B2 0.000155497
12 *1826:C *207:10 2.65814e-06
13 *1828:B1 *1830:A 4.80285e-05
14 *1828:B1 *1838:A 0.000341896
15 *1828:B1 *1856:B 5.16418e-05
16 *1828:B1 *2004:A2 9.766e-05
17 *1828:B1 *512:113 1.39832e-05
18 *1828:B1 *512:121 4.35034e-05
19 *1828:B1 *560:12 9.64918e-05
20 *1846:B1 *514:119 4.82863e-05
21 *1848:C *1821:B 0
22 *202:6 *1848:A 2.49909e-05
23 *202:6 *1848:B 6.1357e-05
24 *202:6 *512:41 5.30673e-05
25 *202:6 *513:65 2.75145e-05
26 *202:21 *1847:A 6.75724e-05
27 *202:21 *1848:A 7.45881e-05
28 *202:21 *1848:B 7.00889e-06
29 *202:21 *1850:D 0.000116165
30 *202:21 *229:8 5.83121e-06
31 *202:32 *1847:A 0.000137578
32 *202:32 *1848:A 1.61461e-05
33 *202:32 *514:119 5.39718e-05
34 *202:43 *1847:A 3.09233e-05
35 *202:43 *1856:B 0.000664024
36 *202:43 *514:119 5.37442e-05
37 *202:43 *514:128 8.97564e-05
38 *202:43 *514:149 0.000106317
39 *1856:A_N *1822:B 0.000155497
40 *196:20 *1828:B1 0.000219012
41 *196:20 *202:43 0.000168523
42 *196:28 *202:43 9.50015e-05
*RES
1 *1821:X *202:6 3.43 
2 *202:6 *1848:C 2.38 
3 *202:6 *202:21 4.94 
4 *202:21 *1846:B1 4.05 
5 *202:21 *202:32 1.635 
6 *202:32 *1826:C 4.275 
7 *202:32 *202:43 8.52 
8 *202:43 *1822:B 5.085 
9 *202:43 *1828:B1 10.155 
*END

*D_NET *203 0.000779195
*CONN
*I *1823:B2 I *D sky130_fd_sc_hd__o22a_1
*I *1822:Y O *D sky130_fd_sc_hd__nor2_1
*CAP
1 *1823:B2 0.000270365
2 *1822:Y 0.000270365
3 *1822:B *1823:B2 0.000155497
4 *1856:A_N *1823:B2 8.29685e-05
*RES
1 *1822:Y *1823:B2 8.39 
*END

*D_NET *204 0.000437609
*CONN
*I *1830:A I *D sky130_fd_sc_hd__or3_1
*I *1823:X O *D sky130_fd_sc_hd__o22a_1
*CAP
1 *1830:A 6.28127e-05
2 *1823:X 6.28127e-05
3 *1830:A *514:149 0.000116158
4 *1830:A *560:12 8.49205e-05
5 *1823:B1 *1830:A 6.28765e-05
6 *1828:B1 *1830:A 4.80285e-05
*RES
1 *1823:X *1830:A 9.375 
*END

*D_NET *205 0.013514
*CONN
*I *2002:B1 I *D sky130_fd_sc_hd__a32o_1
*I *1960:A2 I *D sky130_fd_sc_hd__a221o_1
*I *2042:A2 I *D sky130_fd_sc_hd__a211o_1
*I *1859:A2 I *D sky130_fd_sc_hd__a221o_1
*I *1829:B1 I *D sky130_fd_sc_hd__a32o_1
*I *1887:B1 I *D sky130_fd_sc_hd__a32o_1
*I *1915:B1 I *D sky130_fd_sc_hd__a32o_1
*I *1824:X O *D sky130_fd_sc_hd__and4bb_2
*CAP
1 *2002:B1 0.000444744
2 *1960:A2 0.000104851
3 *2042:A2 2.54111e-05
4 *1859:A2 0.00011063
5 *1829:B1 0.000157804
6 *1887:B1 0.000159973
7 *1915:B1 0
8 *1824:X 0.000508925
9 *205:93 0.00088076
10 *205:52 0.000614587
11 *205:48 0.000371564
12 *205:46 0.001432
13 *205:18 0.000549871
14 *205:10 0.00199966
15 *1829:B1 *1829:B2 4.40113e-05
16 *1829:B1 *1860:C1 1.57306e-05
17 *1859:A2 *1829:B2 0.000125382
18 *1859:A2 *1857:B2 4.66474e-05
19 *1859:A2 *1860:C1 7.00889e-06
20 *1859:A2 *561:143 2.00935e-05
21 *1887:B1 *1858:A1 1.62905e-05
22 *1887:B1 *1915:A1 3.9132e-05
23 *1887:B1 *1915:B2 9.89207e-05
24 *1887:B1 *561:160 3.78462e-05
25 *1960:A2 *1914:A 2.86623e-05
26 *1960:A2 *1949:A1 7.29356e-05
27 *1960:A2 *1962:B 4.9253e-06
28 *1960:A2 *490:142 3.84487e-05
29 *1960:A2 *490:161 2.88529e-05
30 *1960:A2 *490:182 1.35532e-05
31 *2002:B1 *1949:A1 9.76351e-05
32 *2002:B1 *2002:A2 6.67659e-05
33 *2002:B1 *2005:B1 7.81413e-05
34 *2002:B1 *490:182 0.000175123
35 *2002:B1 *491:185 0
36 *2042:A2 *2004:A2 9.67081e-06
37 *2042:A2 *2042:B1 4.66108e-05
38 *2042:A2 *501:240 2.49909e-05
39 *205:10 *1893:A 1.92979e-05
40 *205:10 *1918:B1 0
41 *205:10 *2080:A 0
42 *205:10 *2081:A 0
43 *205:10 *491:128 1.91597e-05
44 *205:10 *533:85 0.000127842
45 *205:18 *1862:A3 5.13684e-05
46 *205:18 *1893:A 0.000196303
47 *205:18 *1915:A1 2.24829e-05
48 *205:18 *1918:B1 0
49 *205:18 *1961:A2 0.000156098
50 *205:46 *1960:A1 0.00106262
51 *205:52 *1857:B2 6.59891e-05
52 *205:52 *2004:A2 0.000777641
53 *205:52 *326:28 8.17796e-05
54 *205:93 *1960:A1 0.000935475
55 *205:93 *2043:B1 0.000529423
56 *1829:A1 *1829:B1 5.83121e-06
57 *1857:B1 *1859:A2 4.66474e-05
58 *1857:B1 *205:52 0.000157127
59 *1858:B1 *205:10 0.000297909
60 *1858:B1 *205:18 0.000273877
61 *1887:A3 *1887:B1 0.000128122
62 *1915:A3 *1887:B1 2.21449e-05
63 *1915:A3 *205:18 9.4988e-06
64 *2002:A3 *2002:B1 1.11659e-05
65 *188:36 *205:52 0
66 *190:20 *2042:A2 8.41015e-06
67 *190:20 *205:52 9.5799e-06
*RES
1 *1824:X *205:10 12.9675 
2 *205:10 *205:18 10.79 
3 *205:18 *1915:B1 1.6 
4 *205:18 *1887:B1 5.86 
5 *205:10 *205:46 2.86867 
6 *205:46 *205:48 0.5 
7 *205:48 *205:52 11.4125 
8 *205:52 *1829:B1 3.6475 
9 *205:52 *1859:A2 7.6325 
10 *205:48 *2042:A2 4.2825 
11 *205:46 *205:93 1.99467 
12 *205:93 *1960:A2 5.985 
13 *205:93 *2002:B1 11.175 
*END

*D_NET *206 0.000577885
*CONN
*I *1829:A2 I *D sky130_fd_sc_hd__a32o_1
*I *1825:X O *D sky130_fd_sc_hd__a22o_1
*CAP
1 *1829:A2 0.000115834
2 *1825:X 0.000115834
3 *1829:A2 *1829:A3 0.000216793
4 *1829:A2 *514:149 0.000129424
*RES
1 *1825:X *1829:A2 9.63 
*END

*D_NET *207 0.00181473
*CONN
*I *1827:A I *D sky130_fd_sc_hd__inv_2
*I *1853:A I *D sky130_fd_sc_hd__nor2_1
*I *1852:A I *D sky130_fd_sc_hd__and2_1
*I *1826:X O *D sky130_fd_sc_hd__and3_1
*CAP
1 *1827:A 0.000127208
2 *1853:A 0.000192818
3 *1852:A 0
4 *1826:X 0.000401411
5 *207:12 0.000192818
6 *207:10 0.00052862
7 *1827:A *233:12 1.71013e-05
8 *1827:A *234:10 0
9 *1827:A *495:83 0
10 *1827:A *544:53 3.09233e-05
11 *1827:A *561:119 0
12 *1853:A *1853:B 0.000161529
13 *207:10 *1847:A 9.09197e-05
14 *207:10 *1849:B1 5.062e-06
15 *207:10 *233:12 6.36578e-05
16 *207:10 *495:83 0
17 *1826:C *207:10 2.65814e-06
*RES
1 *1826:X *207:10 8.88 
2 *207:10 *207:12 2 
3 *207:12 *1852:A 1.6 
4 *207:12 *1853:A 4.825 
5 *207:10 *1827:A 5.745 
*END

*D_NET *208 0.0013629
*CONN
*I *1829:A3 I *D sky130_fd_sc_hd__a32o_1
*I *1827:Y O *D sky130_fd_sc_hd__inv_2
*CAP
1 *1829:A3 0.000338385
2 *1827:Y 0.000338385
3 *1829:A3 *1857:A1 0.000232105
4 *1829:A3 *1857:B2 2.75229e-05
5 *1829:A3 *1859:B1 4.82863e-05
6 *1829:A3 *514:149 1.0129e-05
7 *1829:A3 *544:53 9.99851e-05
8 *1829:A3 *544:71 1.80209e-05
9 *1829:A3 *561:143 3.32916e-05
10 *1829:A2 *1829:A3 0.000216793
*RES
1 *1827:Y *1829:A3 14.025 
*END

*D_NET *209 0.000120528
*CONN
*I *1830:B I *D sky130_fd_sc_hd__or3_1
*I *1828:X O *D sky130_fd_sc_hd__a22o_1
*CAP
1 *1830:B 3.69588e-05
2 *1828:X 3.69588e-05
3 *1830:B *560:12 4.66108e-05
*RES
1 *1828:X *1830:B 3.65 
*END

*D_NET *210 0.000764732
*CONN
*I *1830:C I *D sky130_fd_sc_hd__or3_1
*I *1829:X O *D sky130_fd_sc_hd__a32o_1
*CAP
1 *1830:C 0.000123489
2 *1829:X 0.000123489
3 *1830:C *514:149 0
4 *1823:B1 *1830:C 0.000205428
5 *183:8 *1830:C 0.000312326
*RES
1 *1829:X *1830:C 10.875 
*END

*D_NET *211 0.00446476
*CONN
*I *1838:A I *D sky130_fd_sc_hd__or2_1
*I *1830:X O *D sky130_fd_sc_hd__or3_1
*CAP
1 *1838:A 0.000867971
2 *1830:X 0.000867971
3 *1838:A *1813:A 0.000124007
4 *1838:A *492:70 0.000115863
5 *1838:A *512:121 2.63322e-05
6 *1838:A *513:99 1.1561e-05
7 *1805:A1 *1838:A 0.000198939
8 *1805:A2 *1838:A 5.93757e-05
9 *1819:A3 *1838:A 5.12859e-05
10 *1828:B1 *1838:A 0.000341896
11 *1949:A2 *1838:A 0.000175294
12 *182:21 *1838:A 0.000403875
13 *186:8 *1838:A 0.000203562
14 *189:12 *1838:A 8.53113e-06
15 *197:10 *1838:A 0.000873783
16 *197:22 *1838:A 0.000134516
*RES
1 *1830:X *1838:A 28.5 
*END

*D_NET *212 0.000544115
*CONN
*I *1832:B I *D sky130_fd_sc_hd__xnor2_1
*I *1831:Y O *D sky130_fd_sc_hd__nand2_1
*CAP
1 *1832:B 7.18726e-05
2 *1831:Y 7.18726e-05
3 *1832:B *1838:B 0.000120655
4 *1832:B *1844:A2 6.71882e-05
5 *1832:B *1844:B1 0.000116158
6 *1832:B *2079:A 2.23407e-05
7 *1832:B *225:8 7.4027e-05
*RES
1 *1831:Y *1832:B 9.72 
*END

*D_NET *213 0.00357667
*CONN
*I *1833:B I *D sky130_fd_sc_hd__nand2_1
*I *1834:B I *D sky130_fd_sc_hd__xnor2_1
*I *1832:Y O *D sky130_fd_sc_hd__xnor2_1
*CAP
1 *1833:B 0.000359588
2 *1834:B 0.000187351
3 *1832:Y 0
4 *213:4 0.000546939
5 *1833:B *1832:A 6.38722e-05
6 *1833:B *1838:B 0.00012657
7 *1833:B *1844:A2 0.000326251
8 *1833:B *1844:B1 3.25831e-05
9 *1833:B *1845:A1 8.53113e-06
10 *1833:B *2079:A 1.43975e-05
11 *1833:B *214:6 1.61831e-05
12 *1833:B *491:10 0
13 *1834:B *1834:A 0.00063775
14 *1834:B *1845:A2 1.20394e-05
15 *1834:B *1861:A2 3.86607e-05
16 *1834:B *501:12 0.000135896
17 *1834:B *532:24 0.000190379
18 *1820:B *1834:B 0.000850104
19 *1845:B1 *1834:B 2.95708e-05
*RES
1 *1832:Y *213:4 1.6 
2 *213:4 *1834:B 14.93 
3 *213:4 *1833:B 11.525 
*END

*D_NET *214 0.00113382
*CONN
*I *1844:A1 I *D sky130_fd_sc_hd__a21o_1
*I *1845:A1 I *D sky130_fd_sc_hd__a31oi_1
*I *1833:Y O *D sky130_fd_sc_hd__nand2_1
*CAP
1 *1844:A1 0
2 *1845:A1 0.000190448
3 *1833:Y 8.74427e-05
4 *214:6 0.000277891
5 *1845:A1 *1834:A 3.83194e-05
6 *1845:A1 *1845:A2 4.82863e-05
7 *1845:A1 *2079:A 4.82919e-05
8 *1845:A1 *491:10 4.42841e-05
9 *214:6 *1838:B 1.03323e-05
10 *214:6 *1844:A2 4.99619e-05
11 *1820:B *1845:A1 0.000313852
12 *1833:B *1845:A1 8.53113e-06
13 *1833:B *214:6 1.61831e-05
14 *1845:B1 *1845:A1 0
*RES
1 *1833:Y *214:6 2.74 
2 *214:6 *1845:A1 10.1 
3 *214:6 *1844:A1 1.6 
*END

*D_NET *215 0.00117523
*CONN
*I *1835:B I *D sky130_fd_sc_hd__or2_1
*I *1836:A2 I *D sky130_fd_sc_hd__a21oi_1
*I *1834:Y O *D sky130_fd_sc_hd__xnor2_1
*CAP
1 *1835:B 7.3775e-05
2 *1836:A2 5.94689e-05
3 *1834:Y 0.000113179
4 *215:12 0.000246423
5 *1835:B *1832:A 0.000108398
6 *1835:B *1837:B1 6.00027e-05
7 *1835:B *1837:B2 2.30292e-05
8 *215:12 *1799:B1 0
9 *215:12 *1834:A 2.75145e-05
10 *215:12 *501:191 0
11 *1835:A *1835:B 0.000226373
12 *1836:A1 *1835:B 0.000123225
13 *1836:A1 *1836:A2 4.82863e-05
14 *1836:B1 *1835:B 3.83041e-05
15 *1836:B1 *1836:A2 1.70733e-05
16 *178:17 *215:12 1.0183e-05
*RES
1 *1834:Y *215:12 7.175 
2 *215:12 *1836:A2 2.755 
3 *215:12 *1835:B 4.81 
*END

*D_NET *216 0.0028829
*CONN
*I *1845:A2 I *D sky130_fd_sc_hd__a31oi_1
*I *1844:A2 I *D sky130_fd_sc_hd__a21o_1
*I *1837:B1 I *D sky130_fd_sc_hd__a22o_1
*I *1835:X O *D sky130_fd_sc_hd__or2_1
*CAP
1 *1845:A2 0.000103518
2 *1844:A2 0.000121059
3 *1837:B1 7.89923e-05
4 *1835:X 0
5 *216:19 0.000283287
6 *216:4 0.000137702
7 *1837:B1 *1832:A 0.000359569
8 *1837:B1 *1837:B2 1.85674e-05
9 *1837:B1 *1838:B 0.000203178
10 *1844:A2 *1832:A 4.66108e-05
11 *1844:A2 *1838:B 3.0145e-05
12 *1845:A2 *1834:A 8.40213e-05
13 *1845:A2 *1861:A2 8.5242e-05
14 *216:19 *1832:A 0.000234674
15 *216:19 *1838:B 0.000224698
16 *216:19 *1861:A2 5.16418e-05
17 *1820:B *1845:A2 2.0514e-05
18 *1832:B *1844:A2 6.71882e-05
19 *1833:B *1844:A2 0.000326251
20 *1834:B *1845:A2 1.20394e-05
21 *1835:B *1837:B1 6.00027e-05
22 *1836:B1 *1837:B1 1.60203e-05
23 *1845:A1 *1845:A2 4.82863e-05
24 *1845:B1 *1845:A2 0.000169764
25 *1845:B1 *216:19 4.9968e-05
26 *214:6 *1844:A2 4.99619e-05
*RES
1 *1835:X *216:4 1.6 
2 *216:4 *1837:B1 5.17 
3 *216:4 *216:19 4.79 
4 *216:19 *1844:A2 7.17 
5 *216:19 *1845:A2 6.585 
*END

*D_NET *217 0.000186463
*CONN
*I *1837:B2 I *D sky130_fd_sc_hd__a22o_1
*I *1836:Y O *D sky130_fd_sc_hd__a21oi_1
*CAP
1 *1837:B2 2.74045e-05
2 *1836:Y 2.74045e-05
3 *1837:B2 *1832:A 1.08758e-05
4 *1835:B *1837:B2 2.30292e-05
5 *1836:B1 *1837:B2 7.91819e-05
6 *1837:B1 *1837:B2 1.85674e-05
*RES
1 *1836:Y *1837:B2 4.37 
*END

*D_NET *218 0.00351483
*CONN
*I *1838:B I *D sky130_fd_sc_hd__or2_1
*I *1837:X O *D sky130_fd_sc_hd__a22o_1
*CAP
1 *1838:B 0.00090888
2 *1837:X 0.00090888
3 *1838:B *1809:C 6.02762e-05
4 *1838:B *1813:A 0.000160635
5 *1838:B *1832:A 2.05056e-05
6 *1838:B *2077:A 2.66586e-05
7 *1838:B *522:47 0.000108031
8 *1805:A1 *1838:B 4.99619e-05
9 *1820:A *1838:B 9.09197e-05
10 *1832:B *1838:B 0.000120655
11 *1833:B *1838:B 0.00012657
12 *1836:B1 *1838:B 0.000464505
13 *1837:B1 *1838:B 0.000203178
14 *1844:A2 *1838:B 3.0145e-05
15 *214:6 *1838:B 1.03323e-05
16 *216:19 *1838:B 0.000224698
*RES
1 *1837:X *1838:B 21.275 
*END

*D_NET *219 0.0178221
*CONN
*I *1592:A1 I *D sky130_fd_sc_hd__o41ai_4
*I *1601:C1 I *D sky130_fd_sc_hd__a211o_1
*I *1609:A I *D sky130_fd_sc_hd__or2_1
*I *1678:A I *D sky130_fd_sc_hd__or2_1
*I *1725:A I *D sky130_fd_sc_hd__or2_1
*I *1796:A I *D sky130_fd_sc_hd__nor2_1
*I *1786:A I *D sky130_fd_sc_hd__and2_1
*I *1788:B1 I *D sky130_fd_sc_hd__o211a_1
*I *1783:A I *D sky130_fd_sc_hd__nand2_1
*I *1719:A I *D sky130_fd_sc_hd__nand2_1
*I *1677:A I *D sky130_fd_sc_hd__nor2_1
*I *1656:A I *D sky130_fd_sc_hd__nor2_1
*I *1606:A I *D sky130_fd_sc_hd__nor2_1
*I *1578:Y O *D sky130_fd_sc_hd__clkinv_4
*CAP
1 *1592:A1 1.41437e-05
2 *1601:C1 0
3 *1609:A 0.000635112
4 *1678:A 0
5 *1725:A 0
6 *1796:A 2.37137e-05
7 *1786:A 0
8 *1788:B1 1.83977e-06
9 *1783:A 0
10 *1719:A 0
11 *1677:A 0
12 *1656:A 0
13 *1606:A 0.000691693
14 *1578:Y 0
15 *219:136 0.000782292
16 *219:130 0.000458293
17 *219:100 0.000139254
18 *219:85 0.000363173
19 *219:74 0.000301583
20 *219:70 0.00103892
21 *219:57 0.00104959
22 *219:30 0.00120734
23 *219:18 0.000717359
24 *219:10 0.000268169
25 *219:8 0.000236632
26 *219:4 0.000533601
27 *1592:A1 *1961:A3 4.31106e-05
28 *1592:A1 *520:102 5.16418e-05
29 *1606:A *1606:B 1.85674e-05
30 *1606:A *1643:A0 0.000162311
31 *1606:A *1643:S 4.49585e-05
32 *1606:A *1644:A1 0
33 *1606:A *1653:A1 5.3866e-05
34 *1606:A *1657:B 0
35 *1606:A *2019:B 7.46537e-05
36 *1606:A *2019:D_N 5.53249e-06
37 *1606:A *446:10 2.8185e-05
38 *1606:A *475:35 2.16022e-05
39 *1606:A *493:8 0
40 *1606:A *493:25 0.00035695
41 *1606:A *510:213 0
42 *1609:A *1603:B 2.14655e-05
43 *1609:A *1603:C 4.66108e-05
44 *1609:A *1609:B 8.52845e-05
45 *1609:A *2026:B 0.000111725
46 *1609:A *2090:A 9.50342e-06
47 *1609:A *2091:A 9.28053e-05
48 *1609:A *2108:A 0.000249234
49 *1609:A *273:66 4.77757e-05
50 *1609:A *423:12 0
51 *1609:A *451:10 3.60648e-05
52 *1609:A *490:89 0.000344141
53 *1609:A *501:160 5.60404e-05
54 *1609:A *510:133 9.28053e-05
55 *1609:A *512:41 6.84173e-05
56 *1609:A *562:34 0
57 *1788:B1 *1788:C1 6.71803e-06
58 *1796:A *1786:B 4.66108e-05
59 *1796:A *533:87 4.82919e-05
60 *219:8 *520:8 0.000246223
61 *219:18 *1677:B 0.000120655
62 *219:18 *273:14 0.000113797
63 *219:18 *496:18 0.000312778
64 *219:18 *519:142 1.65192e-05
65 *219:18 *520:10 0.000110087
66 *219:18 *520:16 2.42236e-05
67 *219:30 *1674:B1 0.000113871
68 *219:30 *1677:B 1.37583e-05
69 *219:30 *2019:D_N 0.000175848
70 *219:30 *283:22 0
71 *219:30 *493:25 0.000332023
72 *219:30 *519:142 1.43805e-05
73 *219:57 *519:142 0
74 *219:57 *520:10 3.25831e-05
75 *219:57 *520:162 0.000108322
76 *219:57 *520:179 2.30797e-05
77 *219:70 *1839:A2 4.65565e-05
78 *219:70 *1840:B 0
79 *219:70 *1863:B 0.000138551
80 *219:70 *221:12 0
81 *219:70 *326:95 0.0002253
82 *219:70 *493:80 0
83 *219:70 *493:86 0.000101317
84 *219:70 *512:176 0.000124895
85 *219:70 *519:142 0
86 *219:70 *520:179 0.000572525
87 *219:70 *520:192 9.61052e-05
88 *219:74 *273:114 0.000161623
89 *219:74 *497:31 6.36578e-05
90 *219:85 *1788:A1 0.000200648
91 *219:85 *1837:A2 0
92 *219:85 *273:114 0.000307296
93 *219:85 *513:111 0.000118527
94 *219:85 *513:129 0.000156842
95 *219:100 *1788:C1 0.000124356
96 *219:100 *1832:A 7.21296e-06
97 *219:130 *2054:A 0.000622454
98 *219:130 *294:35 4.21757e-05
99 *219:130 *520:8 6.58339e-05
100 *219:130 *520:61 0.000567476
101 *219:136 *1594:C1 7.21296e-06
102 *219:136 *1601:A1 0
103 *219:136 *1601:B1 8.71079e-05
104 *219:136 *1961:A3 0.000261889
105 *219:136 *423:12 0
106 *219:136 *512:41 4.82919e-05
107 *219:136 *520:65 9.14049e-05
108 *219:136 *520:102 2.07184e-05
109 *1651:B1 *1606:A 0.000120186
110 *1668:B *219:30 0.000201407
111 *1679:A2 *219:30 4.66108e-05
112 *1699:B1 *1606:A 0.000270647
113 *1714:B *219:8 1.85674e-05
114 *1720:A *219:57 6.28765e-05
115 *1721:A1 *219:70 0.000136877
116 *1784:A *219:74 1.65192e-05
117 *1784:A *219:85 4.18603e-06
118 *1789:B1 *219:85 0
119 *1797:A2 *219:100 0
120 *1797:D1 *1796:A 3.45679e-05
121 *1862:B1 *219:70 0
122 *35:14 *1606:A 9.37731e-05
123 *103:8 *219:70 0
124 *103:21 *219:70 0
125 *103:38 *219:70 0
126 *107:8 *219:70 2.49909e-05
127 *167:19 *219:85 8.514e-05
*RES
1 *1578:Y *219:4 1.6 
2 *219:4 *219:8 4.605 
3 *219:8 *219:10 2 
4 *219:10 *219:18 7.775 
5 *219:18 *219:30 14.015 
6 *219:30 *1606:A 20.01 
7 *219:30 *1656:A 3.6 
8 *219:18 *1677:A 1.6 
9 *219:10 *219:57 1.89 
10 *219:57 *1719:A 3.6 
11 *219:57 *219:70 22.955 
12 *219:70 *219:74 3.89 
13 *219:74 *1783:A 3.6 
14 *219:74 *219:85 7.0575 
15 *219:85 *1788:B1 3.8325 
16 *219:85 *219:100 4.2125 
17 *219:100 *1786:A 1.6 
18 *219:100 *1796:A 2.395 
19 *219:70 *1725:A 1.6 
20 *219:8 *1678:A 1.6 
21 *219:4 *219:130 10.85 
22 *219:130 *219:136 6.125 
23 *219:136 *1609:A 22.725 
24 *219:136 *1601:C1 1.6 
25 *219:130 *1592:A1 4.215 
*END

*D_NET *220 0.000527288
*CONN
*I *1840:B I *D sky130_fd_sc_hd__xnor2_1
*I *1839:X O *D sky130_fd_sc_hd__o21a_1
*CAP
1 *1840:B 0.000238663
2 *1839:X 0.000238663
3 *1840:B *221:12 4.99619e-05
4 *107:14 *1840:B 0
5 *219:70 *1840:B 0
*RES
1 *1839:X *1840:B 11.01 
*END

*D_NET *221 0.000963708
*CONN
*I *1842:B I *D sky130_fd_sc_hd__nand2_1
*I *1841:B I *D sky130_fd_sc_hd__or2_1
*I *1840:Y O *D sky130_fd_sc_hd__xnor2_1
*CAP
1 *1842:B 0
2 *1841:B 8.45477e-05
3 *1840:Y 0.000268598
4 *221:12 0.000353145
5 *1841:B *1842:A 8.8266e-05
6 *1841:B *223:6 8.8266e-05
7 *221:12 *1837:A2 3.09233e-05
8 *221:12 *223:12 0
9 *221:12 *512:176 0
10 *1784:A *221:12 0
11 *1840:B *221:12 4.99619e-05
12 *107:14 *221:12 0
13 *219:70 *221:12 0
*RES
1 *1840:Y *221:12 9.725 
2 *221:12 *1841:B 3.445 
3 *221:12 *1842:B 1.6 
*END

*D_NET *222 0.000229312
*CONN
*I *1843:A I *D sky130_fd_sc_hd__nand2_1
*I *1841:X O *D sky130_fd_sc_hd__or2_1
*CAP
1 *1843:A 7.55584e-05
2 *1841:X 7.55584e-05
3 *1843:A *1837:A2 0
4 *1843:A *223:12 7.81954e-05
*RES
1 *1841:X *1843:A 8.835 
*END

*D_NET *223 0.00174583
*CONN
*I *1867:A I *D sky130_fd_sc_hd__and3_1
*I *1868:A1 I *D sky130_fd_sc_hd__a21o_1
*I *1843:B I *D sky130_fd_sc_hd__nand2_1
*I *1842:Y O *D sky130_fd_sc_hd__nand2_1
*CAP
1 *1867:A 0.000151162
2 *1868:A1 9.34252e-05
3 *1843:B 0
4 *1842:Y 0.000236923
5 *223:12 0.000186465
6 *223:6 0.000481124
7 *1867:A *1866:B 4.23703e-05
8 *1867:A *247:14 0
9 *1868:A1 *1868:A2 8.09809e-05
10 *1868:A1 *513:103 8.73389e-06
11 *223:6 *1842:A 4.35348e-05
12 *223:12 *1837:A2 0
13 *223:12 *326:95 0.000254651
14 *223:12 *512:176 0
15 *1841:B *223:6 8.8266e-05
16 *1843:A *223:12 7.81954e-05
17 *221:12 *223:12 0
*RES
1 *1842:Y *223:6 4.465 
2 *223:6 *223:12 6.91 
3 *223:12 *1843:B 1.6 
4 *223:12 *1868:A1 3.01 
5 *223:6 *1867:A 3.445 
*END

*D_NET *224 0.00358798
*CONN
*I *1844:B1 I *D sky130_fd_sc_hd__a21o_1
*I *1845:A3 I *D sky130_fd_sc_hd__a31oi_1
*I *1843:Y O *D sky130_fd_sc_hd__nand2_1
*CAP
1 *1844:B1 0.000189112
2 *1845:A3 0.000307977
3 *1843:Y 0.000445056
4 *224:16 0.000942144
5 *1844:B1 *1831:A 6.44247e-05
6 *1844:B1 *2079:A 9.3062e-06
7 *1844:B1 *225:8 7.27273e-05
8 *1844:B1 *225:10 5.98136e-05
9 *1844:B1 *491:10 0
10 *1845:A3 *1834:A 4.10051e-05
11 *1845:A3 *2079:A 0.000198642
12 *1845:A3 *225:8 1.86911e-05
13 *224:16 *1831:A 0.000103845
14 *224:16 *1837:A2 0
15 *224:16 *1890:A_N 5.4003e-05
16 *224:16 *225:10 0.000301498
17 *224:16 *326:95 3.86529e-05
18 *1832:B *1844:B1 0.000116158
19 *1833:B *1844:B1 3.25831e-05
20 *1845:B1 *1845:A3 0.000218103
21 *191:24 *1845:A3 0.00013178
22 *192:34 *1845:A3 0.000242456
*RES
1 *1843:Y *224:16 15.1 
2 *224:16 *1845:A3 14.2 
3 *224:16 *1844:B1 7.83 
*END

*D_NET *225 0.00294887
*CONN
*I *1861:A1 I *D sky130_fd_sc_hd__a21o_1
*I *1868:A2 I *D sky130_fd_sc_hd__a21o_1
*I *1867:B I *D sky130_fd_sc_hd__and3_1
*I *1844:X O *D sky130_fd_sc_hd__a21o_1
*CAP
1 *1861:A1 0.000147215
2 *1868:A2 0.000142517
3 *1867:B 0.000100118
4 *1844:X 6.33155e-05
5 *225:10 0.000361917
6 *225:8 0.000329814
7 *1861:A1 *533:85 0.000191226
8 *1867:B *1866:B 2.75229e-05
9 *1867:B *1890:A_N 8.25609e-05
10 *1868:A2 *250:6 4.66108e-05
11 *1868:A2 *513:103 5.36372e-05
12 *225:8 *2079:A 7.4027e-05
13 *225:10 *1890:A_N 4.5783e-05
14 *1832:B *225:8 7.4027e-05
15 *1844:B1 *225:8 7.27273e-05
16 *1844:B1 *225:10 5.98136e-05
17 *1845:A3 *225:8 1.86911e-05
18 *1868:A1 *1868:A2 8.09809e-05
19 *191:24 *1867:B 0.000155928
20 *191:24 *225:8 6.17614e-05
21 *191:24 *225:10 0.000438022
22 *192:34 *1868:A2 1.91597e-05
23 *224:16 *225:10 0.000301498
*RES
1 *1844:X *225:8 5.745 
2 *225:8 *225:10 5.205 
3 *225:10 *1867:B 5.94 
4 *225:10 *1868:A2 6.135 
5 *225:8 *1861:A1 5.43 
*END

*D_NET *226 0.000697097
*CONN
*I *1861:A2 I *D sky130_fd_sc_hd__a21o_1
*I *1845:Y O *D sky130_fd_sc_hd__a31oi_1
*CAP
1 *1861:A2 0.000139584
2 *1845:Y 0.000139584
3 *1861:A2 *1861:B1 8.53113e-06
4 *1861:A2 *501:12 9.41168e-05
5 *1861:A2 *533:85 4.99619e-05
6 *1834:B *1861:A2 3.86607e-05
7 *1845:A2 *1861:A2 8.5242e-05
8 *1845:B1 *1861:A2 1.71207e-05
9 *192:34 *1861:A2 7.26551e-05
10 *216:19 *1861:A2 5.16418e-05
*RES
1 *1845:Y *1861:A2 11.325 
*END

*D_NET *227 0.00169095
*CONN
*I *1847:A I *D sky130_fd_sc_hd__inv_2
*I *1850:D I *D sky130_fd_sc_hd__and4b_1
*I *1846:X O *D sky130_fd_sc_hd__a21o_1
*CAP
1 *1847:A 0.000144594
2 *1850:D 0.000193692
3 *1846:X 0
4 *227:6 0.000338286
5 *1847:A *1849:B1 9.2741e-05
6 *1847:A *1856:B 0.000231564
7 *1850:D *1850:B 8.65961e-05
8 *1850:D *1856:B 0.000116165
9 *1850:D *229:8 4.41506e-05
10 *202:21 *1847:A 6.75724e-05
11 *202:21 *1850:D 0.000116165
12 *202:32 *1847:A 0.000137578
13 *202:43 *1847:A 3.09233e-05
14 *207:10 *1847:A 9.09197e-05
*RES
1 *1846:X *227:6 3.6 
2 *227:6 *1850:D 7.59375 
3 *227:6 *1847:A 8.43 
*END

*D_NET *228 0.00068728
*CONN
*I *1849:B1 I *D sky130_fd_sc_hd__o2bb2a_1
*I *1847:Y O *D sky130_fd_sc_hd__inv_2
*CAP
1 *1849:B1 0.000177743
2 *1847:Y 0.000177743
3 *1849:B1 *1856:B 0.000117832
4 *1849:B1 *495:68 5.33085e-05
5 *1849:B1 *495:83 6.28498e-05
6 *1847:A *1849:B1 9.2741e-05
7 *207:10 *1849:B1 5.062e-06
*RES
1 *1847:Y *1849:B1 10.41 
*END

*D_NET *229 0.00175255
*CONN
*I *1870:A I *D sky130_fd_sc_hd__nor2_1
*I *1849:B2 I *D sky130_fd_sc_hd__o2bb2a_1
*I *1850:A_N I *D sky130_fd_sc_hd__and4b_1
*I *1848:X O *D sky130_fd_sc_hd__and3_1
*CAP
1 *1870:A 0.000243268
2 *1849:B2 0
3 *1850:A_N 1.91476e-05
4 *1848:X 0.000102625
5 *229:23 0.000303864
6 *229:8 0.000182368
7 *1850:A_N *1856:B 7.47215e-05
8 *1850:A_N *495:57 9.50342e-06
9 *1850:A_N *495:68 6.52181e-05
10 *1870:A *1849:A1_N 1.75693e-05
11 *1870:A *1851:A 4.86055e-05
12 *1870:A *1870:B 0.000132191
13 *1870:A *233:12 4.99619e-05
14 *1870:A *514:72 0.000209183
15 *1870:A *514:119 4.80182e-05
16 *229:23 *1856:B 8.69088e-05
17 *229:23 *495:68 9.37731e-05
18 *229:23 *514:119 1.56428e-05
19 *1850:D *229:8 4.41506e-05
20 *202:21 *229:8 5.83121e-06
*RES
1 *1848:X *229:8 4.74 
2 *229:8 *1850:A_N 4.47 
3 *229:8 *229:23 3.575 
4 *229:23 *1849:B2 1.6 
5 *229:23 *1870:A 7.525 
*END

*D_NET *230 0.00262574
*CONN
*I *1805:B1 I *D sky130_fd_sc_hd__o2111a_1
*I *1813:A I *D sky130_fd_sc_hd__nor3_1
*I *1815:B I *D sky130_fd_sc_hd__and4b_2
*I *1806:C I *D sky130_fd_sc_hd__and4b_2
*I *1579:Y O *D sky130_fd_sc_hd__inv_2
*CAP
1 *1805:B1 0
2 *1813:A 0.00011368
3 *1815:B 1.65033e-05
4 *1806:C 0.000218452
5 *1579:Y 2.31097e-05
6 *230:32 0.00011368
7 *230:10 0.000336277
8 *230:8 0.000124431
9 *1806:C *1806:B 0.000158072
10 *1806:C *1806:D 2.30292e-05
11 *1806:C *1817:A_N 4.82863e-05
12 *1806:C *1817:B_N 0.000134141
13 *1806:C *500:31 4.38051e-05
14 *1806:C *500:35 8.86692e-05
15 *1806:C *522:49 8.53113e-06
16 *1813:A *1809:C 9.53428e-06
17 *1813:A *2078:A 0.000238919
18 *1815:B *489:35 4.66108e-05
19 *1815:B *500:55 2.49909e-05
20 *230:8 *1805:D1 3.50033e-05
21 *230:8 *500:31 7.4027e-05
22 *230:10 *1805:D1 2.42236e-05
23 *230:10 *500:31 0.000219758
24 *230:10 *522:49 0.000103592
25 *230:10 *522:75 7.47215e-05
26 *1805:A1 *1813:A 3.90495e-05
27 *1838:A *1813:A 0.000124007
28 *1838:B *1813:A 0.000160635
*RES
1 *1579:Y *230:8 4.47 
2 *230:8 *230:10 2.655 
3 *230:10 *1806:C 7.41 
4 *230:10 *1815:B 4.05 
5 *230:8 *230:32 2 
6 *230:32 *1813:A 5.17 
7 *230:32 *1805:B1 1.6 
*END

*D_NET *231 0.000151068
*CONN
*I *1851:A I *D sky130_fd_sc_hd__nor2_1
*I *1849:X O *D sky130_fd_sc_hd__o2bb2a_1
*CAP
1 *1851:A 4.19477e-05
2 *1849:X 4.19477e-05
3 *1851:A *1849:A1_N 1.85674e-05
4 *1870:A *1851:A 4.86055e-05
*RES
1 *1849:X *1851:A 4.265 
*END

*D_NET *232 0.000952633
*CONN
*I *1851:B I *D sky130_fd_sc_hd__nor2_1
*I *1870:B I *D sky130_fd_sc_hd__nor2_1
*I *1850:X O *D sky130_fd_sc_hd__and4b_1
*CAP
1 *1851:B 0
2 *1870:B 8.3395e-05
3 *1850:X 0.000242403
4 *232:12 0.000325798
5 *1870:B *1877:B 0
6 *1870:B *253:8 3.00381e-05
7 *1870:B *514:72 0.000138808
8 *232:12 *514:74 0
9 *232:12 *514:111 0
10 *232:12 *561:119 0
11 *1870:A *1870:B 0.000132191
*RES
1 *1850:X *232:12 8.375 
2 *232:12 *1870:B 4.495 
3 *232:12 *1851:B 1.6 
*END

*D_NET *233 0.000927917
*CONN
*I *1853:B I *D sky130_fd_sc_hd__nor2_1
*I *1852:B I *D sky130_fd_sc_hd__and2_1
*I *1851:Y O *D sky130_fd_sc_hd__nor2_1
*CAP
1 *1853:B 6.85082e-05
2 *1852:B 0
3 *1851:Y 0.000249325
4 *233:12 0.000317833
5 *233:12 *495:83 0
6 *233:12 *561:119 0
7 *1827:A *233:12 1.71013e-05
8 *1853:A *1853:B 0.000161529
9 *1870:A *233:12 4.99619e-05
10 *207:10 *233:12 6.36578e-05
*RES
1 *1851:Y *233:12 9.725 
2 *233:12 *1852:B 1.6 
3 *233:12 *1853:B 3.085 
*END

*D_NET *234 0.00279494
*CONN
*I *1882:A I *D sky130_fd_sc_hd__and2_1
*I *1883:A I *D sky130_fd_sc_hd__nand2_1
*I *1884:A1 I *D sky130_fd_sc_hd__o21a_1
*I *1854:A I *D sky130_fd_sc_hd__nor2_1
*I *1852:X O *D sky130_fd_sc_hd__and2_1
*CAP
1 *1882:A 5.94528e-05
2 *1883:A 1.14971e-05
3 *1884:A1 0
4 *1854:A 9.73191e-06
5 *1852:X 6.61116e-05
6 *234:34 7.6997e-05
7 *234:27 0.000291259
8 *234:10 0.000361055
9 *1854:A *1854:B 4.82863e-05
10 *1882:A *1882:B 1.16578e-05
11 *1882:A *1884:A2 3.90495e-05
12 *1882:A *265:14 0.000312964
13 *1883:A *1884:A2 1.0831e-05
14 *234:10 *561:119 6.28765e-05
15 *234:27 *1854:B 0.00010978
16 *234:27 *1884:A2 6.2727e-05
17 *234:34 *1884:A2 2.30292e-05
18 *1827:A *234:10 0
19 *1884:B1 *234:27 4.13675e-05
20 *196:36 *1854:A 4.82863e-05
21 *196:36 *234:27 0.000599888
22 *196:51 *1882:A 0.000389572
23 *196:51 *234:27 0.000108559
24 *196:51 *234:34 4.99619e-05
*RES
1 *1852:X *234:10 6.98 
2 *234:10 *1854:A 2.05 
3 *234:10 *234:27 7.845 
4 *234:27 *1884:A1 1.6 
5 *234:27 *234:34 0.45 
6 *234:34 *1883:A 1.96 
7 *234:34 *1882:A 5.155 
*END

*D_NET *235 0.000735494
*CONN
*I *1854:B I *D sky130_fd_sc_hd__nor2_1
*I *1853:Y O *D sky130_fd_sc_hd__nor2_1
*CAP
1 *1854:B 0.000170245
2 *1853:Y 0.000170245
3 *1854:B *518:171 9.54399e-05
4 *1854:B *561:119 9.54399e-05
5 *1854:A *1854:B 4.82863e-05
6 *196:36 *1854:B 4.60584e-05
7 *234:27 *1854:B 0.00010978
*RES
1 *1853:Y *1854:B 10.86 
*END

*D_NET *236 0.000617832
*CONN
*I *1859:B1 I *D sky130_fd_sc_hd__a221o_1
*I *1854:Y O *D sky130_fd_sc_hd__nor2_1
*CAP
1 *1859:B1 0.000149087
2 *1854:Y 0.000149087
3 *1859:B1 *1859:A1 8.7152e-06
4 *1859:B1 *1859:C1 8.75387e-05
5 *1859:B1 *544:53 0.000130434
6 *1829:A3 *1859:B1 4.82863e-05
7 *1857:B1 *1859:B1 1.46455e-05
8 *196:36 *1859:B1 3.00381e-05
*RES
1 *1854:Y *1859:B1 9.975 
*END

*D_NET *237 0.0043827
*CONN
*I *1856:B I *D sky130_fd_sc_hd__and2b_1
*I *1902:A I *D sky130_fd_sc_hd__xnor2_1
*I *1855:Y O *D sky130_fd_sc_hd__nand2_1
*CAP
1 *1856:B 0.000628135
2 *1902:A 0.000152278
3 *1855:Y 0
4 *237:4 0.000780413
5 *1856:B *1848:A 0
6 *1856:B *1855:B 0.000264672
7 *1856:B *2004:A2 0.000571403
8 *1856:B *495:57 6.00003e-05
9 *1856:B *495:68 2.13396e-05
10 *1856:B *495:83 0.000127553
11 *1856:B *512:29 0
12 *1902:A *1855:B 8.23457e-05
13 *1902:A *1902:B 1.70935e-05
14 *1902:A *2054:A 9.28188e-05
15 *1902:A *512:16 0.000187071
16 *1902:A *513:65 5.47165e-05
17 *1828:B1 *1856:B 5.16418e-05
18 *1847:A *1856:B 0.000231564
19 *1849:B1 *1856:B 0.000117832
20 *1850:A_N *1856:B 7.47215e-05
21 *1850:D *1856:B 0.000116165
22 *202:43 *1856:B 0.000664024
23 *229:23 *1856:B 8.69088e-05
*RES
1 *1855:Y *237:4 1.6 
2 *237:4 *1902:A 9.305 
3 *237:4 *1856:B 22.805 
*END

*D_NET *238 0.000992449
*CONN
*I *1857:B2 I *D sky130_fd_sc_hd__o22a_1
*I *1856:X O *D sky130_fd_sc_hd__and2b_1
*CAP
1 *1857:B2 0.000219443
2 *1856:X 0.000219443
3 *1857:B2 *2004:A2 3.10714e-05
4 *1857:B2 *495:83 7.16199e-05
5 *1857:B2 *495:100 9.65453e-05
6 *1857:B2 *544:53 4.99619e-05
7 *1829:A3 *1857:B2 2.75229e-05
8 *1856:A_N *1857:B2 4.66108e-05
9 *1857:B1 *1857:B2 0.000117594
10 *1859:A2 *1857:B2 4.66474e-05
11 *205:52 *1857:B2 6.59891e-05
*RES
1 *1856:X *1857:B2 11.775 
*END

*D_NET *239 0.000622084
*CONN
*I *1859:C1 I *D sky130_fd_sc_hd__a221o_1
*I *1857:X O *D sky130_fd_sc_hd__o22a_1
*CAP
1 *1859:C1 0.000139476
2 *1857:X 0.000139476
3 *1859:C1 *533:26 5.05828e-05
4 *1859:C1 *544:34 0
5 *1859:C1 *561:143 0.000155497
6 *1857:B1 *1859:C1 4.34748e-05
7 *1859:B1 *1859:C1 8.75387e-05
8 *1859:B2 *1859:C1 6.03947e-06
*RES
1 *1857:X *1859:C1 10.425 
*END

*D_NET *240 0.00133401
*CONN
*I *1860:B1 I *D sky130_fd_sc_hd__a211o_1
*I *1858:X O *D sky130_fd_sc_hd__a32o_1
*CAP
1 *1860:B1 0.000446687
2 *1858:X 0.000446687
3 *1860:B1 *1860:C1 0.000413354
4 *1860:B1 *1890:A_N 7.9642e-06
5 *1860:B1 *326:40 1.37861e-05
6 *1860:B1 *518:103 0
7 *1889:A2 *1860:B1 5.53249e-06
*RES
1 *1858:X *1860:B1 13.305 
*END

*D_NET *241 0.00322739
*CONN
*I *1656:B I *D sky130_fd_sc_hd__nor2_1
*I *1657:B I *D sky130_fd_sc_hd__nand2_1
*I *1670:B1 I *D sky130_fd_sc_hd__a21o_1
*I *2019:A I *D sky130_fd_sc_hd__or4b_1
*I *1580:Y O *D sky130_fd_sc_hd__inv_2
*CAP
1 *1656:B 0
2 *1657:B 0.000349173
3 *1670:B1 0.000391169
4 *2019:A 0
5 *1580:Y 8.06358e-05
6 *241:19 0.000815252
7 *241:17 0.000313453
8 *241:6 0.00031918
9 *1657:B *1638:B 0
10 *1657:B *1664:C1 0
11 *1657:B *493:8 4.18603e-06
12 *1657:B *493:25 0.000161492
13 *1657:B *518:60 0.000125088
14 *241:6 *413:6 4.92062e-05
15 *241:6 *496:30 2.32597e-05
16 *241:17 *2019:C 4.82919e-05
17 *241:17 *496:30 5.30673e-05
18 *1606:A *1657:B 0
19 *1660:B *1657:B 0
20 *1682:A2 *1657:B 0
21 *1682:A2 *1670:B1 0.000111316
22 *1682:B1 *1670:B1 5.16418e-05
23 *38:10 *241:17 5.83121e-06
24 *38:10 *241:19 1.47256e-05
25 *45:32 *1657:B 0.000310424
26 *48:12 *1670:B1 0
*RES
1 *1580:Y *241:6 3.085 
2 *241:6 *2019:A 1.6 
3 *241:6 *241:17 3.93 
4 *241:17 *241:19 1.14 
5 *241:19 *1670:B1 11.9 
6 *241:19 *1657:B 13.865 
7 *241:17 *1656:B 1.6 
*END

*D_NET *242 0.00471076
*CONN
*I *1860:C1 I *D sky130_fd_sc_hd__a211o_1
*I *1859:X O *D sky130_fd_sc_hd__a221o_1
*CAP
1 *1860:C1 0.00123692
2 *1859:X 0.00123692
3 *1860:C1 *1800:A 0.000192125
4 *1860:C1 *1801:A 6.66729e-05
5 *1860:C1 *1829:B2 7.79048e-05
6 *1860:C1 *1860:A1 8.07399e-05
7 *1860:C1 *1890:A_N 4.82863e-05
8 *1860:C1 *1917:A1 2.8185e-05
9 *1860:C1 *2094:A 0.000542446
10 *1860:C1 *326:49 4.66108e-05
11 *1860:C1 *526:8 1.13241e-05
12 *1860:C1 *543:14 4.66108e-05
13 *1860:C1 *544:71 8.40213e-05
14 *1860:C1 *561:143 0.000408216
15 *1801:B *1860:C1 4.41506e-05
16 *1829:A1 *1860:C1 4.66108e-05
17 *1829:B1 *1860:C1 1.57306e-05
18 *1858:A3 *1860:C1 3.03205e-05
19 *1859:A2 *1860:C1 7.00889e-06
20 *1860:B1 *1860:C1 0.000413354
21 *182:10 *1860:C1 4.66108e-05
*RES
1 *1859:X *1860:C1 25.37 
*END

*D_NET *243 0.00422607
*CONN
*I *1861:B1 I *D sky130_fd_sc_hd__a21o_1
*I *1860:X O *D sky130_fd_sc_hd__a211o_1
*CAP
1 *1861:B1 0.00077508
2 *1860:X 0.00077508
3 *1861:B1 *1774:C1 0.000437096
4 *1861:B1 *1866:A 0.000295393
5 *1861:B1 *1867:C 5.44892e-05
6 *1861:B1 *1868:B1 0.000130714
7 *1861:B1 *245:20 0.000139473
8 *1861:B1 *326:95 0.000845997
9 *1861:B1 *501:12 0
10 *1861:B1 *518:103 0.00017014
11 *1861:B1 *533:85 4.66108e-05
12 *1861:A2 *1861:B1 8.53113e-06
13 *191:24 *1861:B1 6.50568e-05
14 *192:34 *1861:B1 0.000482407
*RES
1 *1860:X *1861:B1 29.565 
*END

*D_NET *244 0.000292701
*CONN
*I *1863:B I *D sky130_fd_sc_hd__xnor2_1
*I *1862:X O *D sky130_fd_sc_hd__o31a_1
*CAP
1 *1863:B 7.70753e-05
2 *1862:X 7.70753e-05
3 *103:38 *1863:B 0
4 *219:70 *1863:B 0.000138551
*RES
1 *1862:X *1863:B 8.835 
*END

*D_NET *245 0.00198876
*CONN
*I *1865:B I *D sky130_fd_sc_hd__nand2_1
*I *1864:B I *D sky130_fd_sc_hd__or2_1
*I *1863:Y O *D sky130_fd_sc_hd__xnor2_1
*CAP
1 *1865:B 4.90179e-05
2 *1864:B 0
3 *1863:Y 0.000357434
4 *245:20 0.000406452
5 *1865:B *1864:A 2.89963e-05
6 *1865:B *1865:A 5.4155e-06
7 *245:20 *1774:C1 0.00015829
8 *245:20 *1890:A_N 0.00037967
9 *245:20 *497:31 0.000194694
10 *245:20 *518:103 8.40213e-05
11 *245:20 *520:179 4.24292e-06
12 *245:20 *520:192 5.21046e-05
13 *1860:A2 *245:20 4.9968e-05
14 *1861:B1 *245:20 0.000139473
15 *191:24 *245:20 7.89767e-05
*RES
1 *1863:Y *245:20 18.555 
2 *245:20 *1864:B 1.6 
3 *245:20 *1865:B 2.41 
*END

*D_NET *246 0.000718721
*CONN
*I *1866:A I *D sky130_fd_sc_hd__nand2_1
*I *1864:X O *D sky130_fd_sc_hd__or2_1
*CAP
1 *1866:A 0.000146676
2 *1864:X 0.000146676
3 *1866:A *1867:C 2.77613e-05
4 *1861:B1 *1866:A 0.000295393
5 *191:24 *1866:A 0.000102216
*RES
1 *1864:X *1866:A 11.07 
*END

*D_NET *247 0.00176854
*CONN
*I *1895:A1 I *D sky130_fd_sc_hd__a21oi_1
*I *1866:B I *D sky130_fd_sc_hd__nand2_1
*I *1894:A I *D sky130_fd_sc_hd__and3_1
*I *1865:Y O *D sky130_fd_sc_hd__nand2_1
*CAP
1 *1895:A1 0.000140955
2 *1866:B 0.00019436
3 *1894:A 0
4 *1865:Y 6.40631e-05
5 *247:14 0.000258873
6 *247:10 0.000269531
7 *1866:B *1842:A 0
8 *1866:B *1867:C 2.8323e-05
9 *1866:B *1869:B 2.75145e-05
10 *1866:B *1895:A2 1.37328e-05
11 *1866:B *248:8 4.80285e-05
12 *1895:A1 *1869:B 9.60582e-07
13 *1895:A1 *1894:B 1.09781e-06
14 *1895:A1 *1894:C 0.000148211
15 *247:10 *1831:A 0.000249921
16 *247:10 *1890:A_N 0.000249921
17 *247:14 *1869:B 3.1562e-06
18 *1867:A *1866:B 4.23703e-05
19 *1867:A *247:14 0
20 *1867:B *1866:B 2.75229e-05
*RES
1 *1865:Y *247:10 8.51 
2 *247:10 *247:14 0.81 
3 *247:14 *1894:A 1.6 
4 *247:14 *1866:B 5.44 
5 *247:10 *1895:A1 3.43 
*END

*D_NET *248 0.000848612
*CONN
*I *1868:B1 I *D sky130_fd_sc_hd__a21o_1
*I *1867:C I *D sky130_fd_sc_hd__and3_1
*I *1866:Y O *D sky130_fd_sc_hd__nand2_1
*CAP
1 *1868:B1 4.24724e-05
2 *1867:C 9.63455e-05
3 *1866:Y 6.49196e-05
4 *248:8 0.000203737
5 *1861:B1 *1867:C 5.44892e-05
6 *1861:B1 *1868:B1 0.000130714
7 *1866:A *1867:C 2.77613e-05
8 *1866:B *1867:C 2.8323e-05
9 *1866:B *248:8 4.80285e-05
10 *191:24 *1867:C 6.1886e-05
11 *191:24 *1868:B1 5.73518e-05
12 *192:34 *1867:C 0
13 *192:34 *1868:B1 3.25831e-05
*RES
1 *1866:Y *248:8 4.395 
2 *248:8 *1867:C 5.79 
3 *248:8 *1868:B1 5.235 
*END

*D_NET *249 0.000373054
*CONN
*I *1869:B I *D sky130_fd_sc_hd__or3b_1
*I *1867:X O *D sky130_fd_sc_hd__and3_1
*CAP
1 *1869:B 9.8351e-05
2 *1867:X 9.8351e-05
3 *1869:B *1831:A 7.23602e-05
4 *1869:B *1890:A_N 7.23602e-05
5 *1866:B *1869:B 2.75145e-05
6 *1895:A1 *1869:B 9.60582e-07
7 *247:14 *1869:B 3.1562e-06
*RES
1 *1867:X *1869:B 8.865 
*END

*D_NET *250 0.00134655
*CONN
*I *1869:C_N I *D sky130_fd_sc_hd__or3b_1
*I *1895:A2 I *D sky130_fd_sc_hd__a21oi_1
*I *1894:B I *D sky130_fd_sc_hd__and3_1
*I *1868:X O *D sky130_fd_sc_hd__a21o_1
*CAP
1 *1869:C_N 3.86508e-05
2 *1895:A2 7.66619e-05
3 *1894:B 3.87791e-05
4 *1868:X 8.47617e-05
5 *250:12 0.00016957
6 *250:6 0.000177542
7 *1894:B *1894:C 7.3044e-06
8 *1895:A2 *1894:C 8.65905e-05
9 *250:6 *1890:B 4.92062e-05
10 *250:12 *1831:A 0.00013521
11 *250:12 *1918:A2 7.23602e-05
12 *250:12 *491:16 3.31204e-05
13 *1866:B *1895:A2 1.37328e-05
14 *1868:A2 *250:6 4.66108e-05
15 *1895:A1 *1894:B 1.09781e-06
16 *192:24 *1869:C_N 7.40446e-05
17 *192:24 *250:6 4.66108e-05
18 *192:34 *250:6 0.0001947
*RES
1 *1868:X *250:6 3.775 
2 *250:6 *250:12 5.635 
3 *250:12 *1894:B 2.05 
4 *250:12 *1895:A2 3.265 
5 *250:6 *1869:C_N 2.395 
*END

*D_NET *251 0.00219566
*CONN
*I *2019:B I *D sky130_fd_sc_hd__or4b_1
*I *1653:A1 I *D sky130_fd_sc_hd__o211ai_2
*I *1581:Y O *D sky130_fd_sc_hd__inv_2
*CAP
1 *2019:B 0.000115097
2 *1653:A1 0.000140792
3 *1581:Y 0.000136104
4 *251:8 0.000391993
5 *1653:A1 *1581:A 0.000286577
6 *1653:A1 *510:213 0.000205428
7 *1653:A1 *559:32 7.23602e-05
8 *2019:B *1581:A 7.23602e-05
9 *2019:B *2019:D_N 7.63883e-05
10 *2019:B *273:16 0
11 *2019:B *283:22 6.68849e-05
12 *2019:B *283:30 0.000120186
13 *2019:B *559:32 2.14129e-05
14 *251:8 *559:40 0.000197264
15 *1606:A *1653:A1 5.3866e-05
16 *1606:A *2019:B 7.46537e-05
17 *1651:B1 *1653:A1 6.55328e-05
18 *1699:B1 *1653:A1 9.87538e-05
*RES
1 *1581:Y *251:8 5.43 
2 *251:8 *1653:A1 9.315 
3 *251:8 *2019:B 7.02 
*END

*D_NET *252 0.000493922
*CONN
*I *1890:B I *D sky130_fd_sc_hd__nand2b_1
*I *1869:X O *D sky130_fd_sc_hd__or3b_1
*CAP
1 *1890:B 0.000104672
2 *1869:X 0.000104672
3 *1890:B *1831:A 0.000116853
4 *1890:B *1890:A_N 0.00011852
5 *250:6 *1890:B 4.92062e-05
*RES
1 *1869:X *1890:B 9.48375 
*END

*D_NET *253 0.000787274
*CONN
*I *1877:A_N I *D sky130_fd_sc_hd__and2b_1
*I *1878:A I *D sky130_fd_sc_hd__xnor2_1
*I *1870:Y O *D sky130_fd_sc_hd__nor2_1
*CAP
1 *1877:A_N 7.2589e-05
2 *1878:A 0
3 *1870:Y 0.000177127
4 *253:8 0.000249716
5 *1877:A_N *1877:B 0.000118294
6 *1877:A_N *261:12 3.00381e-05
7 *253:8 *1877:B 1.12578e-05
8 *253:8 *259:14 5.05521e-05
9 *253:8 *514:72 4.7662e-05
10 *1870:B *253:8 3.00381e-05
*RES
1 *1870:Y *253:8 4.825 
2 *253:8 *1878:A 1.6 
3 *253:8 *1877:A_N 3.43 
*END

*D_NET *254 0.000654893
*CONN
*I *1899:A1 I *D sky130_fd_sc_hd__o21ba_1
*I *1876:A I *D sky130_fd_sc_hd__xnor2_1
*I *1871:Y O *D sky130_fd_sc_hd__nand2_1
*CAP
1 *1899:A1 8.63915e-05
2 *1876:A 0
3 *1871:Y 0.000122238
4 *254:12 0.000208629
5 *1899:A1 *1899:B1_N 0.000138799
6 *1899:A1 *259:14 5.05437e-05
7 *254:12 *1871:A 4.82919e-05
8 *254:12 *514:80 0
9 *254:12 *561:119 0
*RES
1 *1871:Y *254:12 7.43 
2 *254:12 *1876:A 1.6 
3 *254:12 *1899:A1 3.775 
*END

*D_NET *255 0.00020524
*CONN
*I *1901:A2 I *D sky130_fd_sc_hd__a21oi_1
*I *1872:Y O *D sky130_fd_sc_hd__nand2_1
*CAP
1 *1901:A2 3.38369e-05
2 *1872:Y 3.38369e-05
3 *1901:A2 *1872:A 3.95724e-05
4 *1901:A2 *1872:B 9.79935e-05
5 *1901:A2 *286:8 0
*RES
1 *1872:Y *1901:A2 4.355 
*END

*D_NET *256 0.00123747
*CONN
*I *1899:B1_N I *D sky130_fd_sc_hd__o21ba_1
*I *1875:A I *D sky130_fd_sc_hd__nor2_1
*I *1873:X O *D sky130_fd_sc_hd__and3_1
*CAP
1 *1899:B1_N 0.000287394
2 *1875:A 8.37727e-05
3 *1873:X 8.96704e-05
4 *256:6 0.000460838
5 *1875:A *1876:B 5.20968e-05
6 *1875:A *514:80 6.4422e-05
7 *1875:A *561:119 0
8 *1899:B1_N *259:14 6.04726e-05
9 *1899:A1 *1899:B1_N 0.000138799
*RES
1 *1873:X *256:6 2.74 
2 *256:6 *1875:A 7.49 
3 *256:6 *1899:B1_N 6.46 
*END

*D_NET *257 0.00177523
*CONN
*I *1899:A2 I *D sky130_fd_sc_hd__o21ba_1
*I *1875:B I *D sky130_fd_sc_hd__nor2_1
*I *1874:Y O *D sky130_fd_sc_hd__a21oi_1
*CAP
1 *1899:A2 0.000284137
2 *1875:B 2.08101e-05
3 *1874:Y 0.000430129
4 *257:12 0.000735076
5 *1899:A2 *543:20 0
6 *1899:A2 *561:119 0.000101325
7 *257:12 *2016:B2 1.19928e-05
8 *257:12 *513:40 0.000118527
9 *257:12 *519:186 5.83121e-06
10 *1900:C *257:12 6.74079e-05
*RES
1 *1874:Y *257:12 12.605 
2 *257:12 *1875:B 1.96 
3 *257:12 *1899:A2 10.265 
*END

*D_NET *258 0.000193651
*CONN
*I *1876:B I *D sky130_fd_sc_hd__xnor2_1
*I *1875:Y O *D sky130_fd_sc_hd__nor2_1
*CAP
1 *1876:B 7.07771e-05
2 *1875:Y 7.07771e-05
3 *1876:B *514:80 0
4 *1876:B *561:119 0
5 *1875:A *1876:B 5.20968e-05
*RES
1 *1875:Y *1876:B 8.58 
*END

*D_NET *259 0.00240139
*CONN
*I *1878:B I *D sky130_fd_sc_hd__xnor2_1
*I *1877:B I *D sky130_fd_sc_hd__and2b_1
*I *1876:Y O *D sky130_fd_sc_hd__xnor2_1
*CAP
1 *1878:B 0
2 *1877:B 8.17508e-05
3 *1876:Y 0.000696278
4 *259:14 0.000778028
5 *1877:B *261:12 3.99879e-05
6 *1877:B *514:72 0.000353831
7 *259:14 *284:10 0.000116853
8 *259:14 *514:72 4.35432e-05
9 *259:14 *543:20 0
10 *259:14 *561:119 0
11 *1870:B *1877:B 0
12 *1877:A_N *1877:B 0.000118294
13 *1899:A1 *259:14 5.05437e-05
14 *1899:B1_N *259:14 6.04726e-05
15 *253:8 *1877:B 1.12578e-05
16 *253:8 *259:14 5.05521e-05
*RES
1 *1876:Y *259:14 16.76 
2 *259:14 *1877:B 5.17 
3 *259:14 *1878:B 1.6 
*END

*D_NET *260 0.00184397
*CONN
*I *1907:A1 I *D sky130_fd_sc_hd__o21ai_1
*I *1908:A I *D sky130_fd_sc_hd__or3_1
*I *1877:X O *D sky130_fd_sc_hd__and2b_1
*CAP
1 *1907:A1 7.05591e-05
2 *1908:A 0
3 *1877:X 0.000508093
4 *260:12 0.000578653
5 *1907:A1 *1907:B1 0.000160635
6 *260:12 *261:12 2.11084e-05
7 *260:12 *291:12 0.000187766
8 *260:12 *388:8 0.000186099
9 *260:12 *514:68 0.000131052
*RES
1 *1877:X *260:12 15.095 
2 *260:12 *1908:A 1.6 
3 *260:12 *1907:A1 3.085 
*END

*D_NET *261 0.00104646
*CONN
*I *1880:B1 I *D sky130_fd_sc_hd__a21oi_1
*I *1879:C I *D sky130_fd_sc_hd__and3_1
*I *1878:Y O *D sky130_fd_sc_hd__xnor2_1
*CAP
1 *1880:B1 0
2 *1879:C 0.000116826
3 *1878:Y 0.000261409
4 *261:12 0.000378235
5 *1879:C *1879:A 7.1084e-05
6 *1879:C *1881:B 3.20286e-05
7 *261:12 *1880:A1 3.86607e-05
8 *261:12 *514:68 3.82323e-06
9 *261:12 *514:72 3.81908e-06
10 *261:12 *543:20 0
11 *261:12 *544:34 4.94404e-05
12 *1877:A_N *261:12 3.00381e-05
13 *1877:B *261:12 3.99879e-05
14 *260:12 *261:12 2.11084e-05
*RES
1 *1878:Y *261:12 9.245 
2 *261:12 *1879:C 3.16 
3 *261:12 *1880:B1 1.6 
*END

*D_NET *262 0.000171361
*CONN
*I *1591:A2 I *D sky130_fd_sc_hd__a2111oi_1
*I *1582:Y O *D sky130_fd_sc_hd__inv_2
*CAP
1 *1591:A2 1.71066e-05
2 *1582:Y 1.71066e-05
3 *1591:A2 *1800:C 5.05521e-05
4 *1591:A2 *520:126 8.65961e-05
*RES
1 *1582:Y *1591:A2 3.995 
*END

*D_NET *263 0.00133375
*CONN
*I *1907:A2 I *D sky130_fd_sc_hd__o21ai_1
*I *1908:B I *D sky130_fd_sc_hd__or3_1
*I *1881:A I *D sky130_fd_sc_hd__nor2_1
*I *1879:X O *D sky130_fd_sc_hd__and3_1
*CAP
1 *1907:A2 7.45573e-05
2 *1908:B 2.08101e-05
3 *1881:A 3.55506e-05
4 *1879:X 0.000114303
5 *263:15 0.000359516
6 *263:6 0.000414002
7 *1907:A2 *1907:B1 0.000152328
8 *263:6 *1881:B 7.60965e-05
9 *263:15 *1907:B1 8.65905e-05
*RES
1 *1879:X *263:6 3.43 
2 *263:6 *1881:A 2.215 
3 *263:6 *263:15 3.9 
4 *263:15 *1908:B 1.96 
5 *263:15 *1907:A2 3.085 
*END

*D_NET *264 0.000600867
*CONN
*I *1881:B I *D sky130_fd_sc_hd__nor2_1
*I *1880:Y O *D sky130_fd_sc_hd__a21oi_1
*CAP
1 *1881:B 0.000143195
2 *1880:Y 0.000143195
3 *1881:B *1879:A 0.000136339
4 *1881:B *518:180 7.00118e-05
5 *1879:C *1881:B 3.20286e-05
6 *263:6 *1881:B 7.60965e-05
*RES
1 *1880:Y *1881:B 6.68 
*END

*D_NET *265 0.00161306
*CONN
*I *1882:B I *D sky130_fd_sc_hd__and2_1
*I *1883:B I *D sky130_fd_sc_hd__nand2_1
*I *1884:A2 I *D sky130_fd_sc_hd__o21a_1
*I *1881:Y O *D sky130_fd_sc_hd__nor2_1
*CAP
1 *1882:B 3.89277e-05
2 *1883:B 0
3 *1884:A2 9.90407e-05
4 *1881:Y 0.000151434
5 *265:14 0.000226428
6 *265:12 0.000317749
7 *265:12 *533:26 0.000277029
8 *265:12 *560:40 0
9 *1882:A *1882:B 1.16578e-05
10 *1882:A *1884:A2 3.90495e-05
11 *1882:A *265:14 0.000312964
12 *1883:A *1884:A2 1.0831e-05
13 *196:51 *1882:B 4.21973e-05
14 *234:27 *1884:A2 6.2727e-05
15 *234:34 *1884:A2 2.30292e-05
*RES
1 *1881:Y *265:12 9.125 
2 *265:12 *265:14 2.865 
3 *265:14 *1884:A2 3.805 
4 *265:14 *1883:B 1.6 
5 *265:12 *1882:B 2.395 
*END

*D_NET *266 0.000584811
*CONN
*I *1910:A I *D sky130_fd_sc_hd__or2_1
*I *1911:A I *D sky130_fd_sc_hd__nand2_1
*I *1882:X O *D sky130_fd_sc_hd__and2_1
*CAP
1 *1910:A 0
2 *1911:A 8.69962e-05
3 *1882:X 0.000107045
4 *266:12 0.000194041
5 *1911:A *1910:B 3.29384e-05
6 *1911:A *297:10 2.8185e-05
7 *266:12 *1917:C1 7.63204e-05
8 *196:51 *266:12 5.92849e-05
*RES
1 *1882:X *266:12 7.685 
2 *266:12 *1911:A 3.46 
3 *266:12 *1910:A 1.6 
*END

*D_NET *267 0.000701042
*CONN
*I *1888:B1 I *D sky130_fd_sc_hd__a221o_1
*I *1883:Y O *D sky130_fd_sc_hd__nand2_1
*CAP
1 *1888:B1 0.000180792
2 *1883:Y 0.000180792
3 *1888:B1 *1888:B2 2.49764e-05
4 *1888:B1 *1888:C1 1.22676e-05
5 *1888:B1 *2096:A 3.08148e-05
6 *1888:B1 *533:26 8.23947e-05
7 *1888:B1 *544:34 2.66935e-05
8 *1888:B1 *560:40 0
9 *1914:B *1888:B1 0.000162311
*RES
1 *1883:Y *1888:B1 11.265 
*END

*D_NET *268 0.000470932
*CONN
*I *1888:B2 I *D sky130_fd_sc_hd__a221o_1
*I *1884:X O *D sky130_fd_sc_hd__o21a_1
*CAP
1 *1888:B2 0.000174888
2 *1884:X 0.000174888
3 *1888:B2 *1888:C1 4.43871e-06
4 *1888:B2 *2096:A 2.05191e-05
5 *1888:B2 *533:26 1.35051e-05
6 *1888:B2 *543:20 0
7 *1888:B1 *1888:B2 2.49764e-05
8 *196:36 *1888:B2 4.60584e-05
9 *196:51 *1888:B2 1.16578e-05
*RES
1 *1884:X *1888:B2 9.87 
*END

*D_NET *269 0.000350875
*CONN
*I *1886:B2 I *D sky130_fd_sc_hd__o22a_1
*I *1885:Y O *D sky130_fd_sc_hd__a21oi_1
*CAP
1 *1886:B2 0.000127171
2 *1885:Y 0.000127171
3 *1886:B2 *1886:A1 5.4155e-06
4 *1886:B2 *1886:A2 8.57024e-05
5 *1913:B1 *1886:B2 5.4155e-06
*RES
1 *1885:Y *1886:B2 5.405 
*END

*D_NET *270 0.000609286
*CONN
*I *1888:C1 I *D sky130_fd_sc_hd__a221o_1
*I *1886:X O *D sky130_fd_sc_hd__o22a_1
*CAP
1 *1888:C1 0.000180182
2 *1886:X 0.000180182
3 *1888:C1 *1888:A1 0
4 *1888:B1 *1888:C1 1.22676e-05
5 *1888:B2 *1888:C1 4.43871e-06
6 *1913:B1 *1888:C1 0.000161529
7 *1914:B *1888:C1 7.06865e-05
*RES
1 *1886:X *1888:C1 10.065 
*END

*D_NET *271 0.00180798
*CONN
*I *1889:B1 I *D sky130_fd_sc_hd__a211o_1
*I *1887:X O *D sky130_fd_sc_hd__a32o_1
*CAP
1 *1889:B1 0.000582153
2 *1887:X 0.000582153
3 *1889:B1 *1889:C1 2.05571e-05
4 *1889:B1 *1915:B2 3.86529e-05
5 *1889:B1 *1917:B1 3.0277e-05
6 *1889:B1 *1918:B1 0
7 *1889:B1 *491:16 0.000286275
8 *1889:B1 *517:110 2.27571e-05
9 *1889:B1 *544:92 0.000150299
10 *197:28 *1889:B1 8.63292e-05
11 *197:30 *1889:B1 8.53113e-06
*RES
1 *1887:X *1889:B1 20.08 
*END

*D_NET *272 0.00660179
*CONN
*I *1889:C1 I *D sky130_fd_sc_hd__a211o_1
*I *1888:X O *D sky130_fd_sc_hd__a221o_1
*CAP
1 *1889:C1 0.000964706
2 *1888:X 0.000964706
3 *1889:C1 *1888:A1 1.23192e-05
4 *1889:C1 *1917:B1 9.5799e-06
5 *1889:C1 *1917:C1 6.23426e-05
6 *1889:C1 *1949:A1 0.000182098
7 *1889:C1 *495:100 0.0014959
8 *1889:C1 *518:103 0.000593403
9 *1889:C1 *518:161 0.0018058
10 *1889:C1 *543:14 0.000474889
11 *1889:B1 *1889:C1 2.05571e-05
12 *199:63 *1889:C1 1.54862e-05
*RES
1 *1888:X *1889:C1 13.0949 
*END

*D_NET *273 0.0208509
*CONN
*I *1673:A I *D sky130_fd_sc_hd__and2_1
*I *1797:A1 I *D sky130_fd_sc_hd__a2111o_1
*I *1832:A I *D sky130_fd_sc_hd__xnor2_1
*I *1788:A2 I *D sky130_fd_sc_hd__o211a_1
*I *1787:A I *D sky130_fd_sc_hd__nor2_1
*I *1789:A1 I *D sky130_fd_sc_hd__a21o_1
*I *1723:A I *D sky130_fd_sc_hd__and2_1
*I *1602:B I *D sky130_fd_sc_hd__and3_1
*I *1603:B I *D sky130_fd_sc_hd__nand3_1
*I *1604:B1 I *D sky130_fd_sc_hd__a21o_1
*I *1652:C1 I *D sky130_fd_sc_hd__o211a_1
*I *1640:A I *D sky130_fd_sc_hd__xnor2_1
*I *1583:Y O *D sky130_fd_sc_hd__inv_2
*CAP
1 *1673:A 0
2 *1797:A1 9.9533e-05
3 *1832:A 0.000543189
4 *1788:A2 3.54805e-05
5 *1787:A 0
6 *1789:A1 8.46836e-05
7 *1723:A 0
8 *1602:B 3.43202e-05
9 *1603:B 9.98342e-05
10 *1604:B1 0
11 *1652:C1 0
12 *1640:A 0.00086423
13 *1583:Y 0.000207723
14 *273:138 0.000722584
15 *273:134 0.000263148
16 *273:125 0.000112246
17 *273:114 0.000988232
18 *273:101 0.0012637
19 *273:95 0.000935616
20 *273:66 0.000867859
21 *273:44 0.00116723
22 *273:16 0.00146093
23 *273:14 0.00123516
24 *273:6 0.000964208
25 *1602:B *443:22 3.66286e-05
26 *1603:B *1603:A 9.53428e-06
27 *1603:B *1603:C 2.59295e-05
28 *1603:B *1614:C1 9.72742e-06
29 *1603:B *443:22 0.000106017
30 *1603:B *491:65 0.00011659
31 *1640:A *1640:B 0.000723555
32 *1640:A *1644:A0 6.4422e-05
33 *1640:A *1649:A1 0
34 *1640:A *2045:A 0
35 *1640:A *464:6 0.000113237
36 *1640:A *464:19 9.49289e-05
37 *1640:A *475:35 6.14887e-05
38 *1640:A *510:19 0.000187766
39 *1640:A *510:209 0.000127366
40 *1788:A2 *1788:A1 9.53428e-06
41 *1832:A *1788:A1 1.47347e-05
42 *1832:A *1788:C1 4.57897e-05
43 *1832:A *1837:A2 5.16418e-05
44 *1832:A *326:95 4.49844e-05
45 *273:6 *520:44 0.000111901
46 *273:6 *520:51 2.05056e-05
47 *273:14 *496:18 0.000178554
48 *273:14 *512:54 1.07797e-05
49 *273:14 *520:16 7.06865e-05
50 *273:14 *523:14 0.000106784
51 *273:14 *523:31 0.000154722
52 *273:16 *1581:A 0
53 *273:16 *1649:A1 0
54 *273:16 *1649:A2 0
55 *273:16 *283:22 0
56 *273:16 *283:30 0
57 *273:16 *475:27 2.37321e-05
58 *273:16 *496:18 0.000121688
59 *273:16 *510:213 0
60 *273:16 *523:14 0.000588359
61 *273:44 *443:22 0.000193806
62 *273:44 *471:6 6.27529e-05
63 *273:44 *471:8 0.000100198
64 *273:66 *1602:A 1.88904e-05
65 *273:66 *1603:C 1.85674e-05
66 *273:66 *1613:C1 1.44809e-05
67 *273:66 *1614:A1 4.66108e-05
68 *273:66 *1614:A2 3.09233e-05
69 *273:66 *1614:C1 4.48568e-05
70 *273:66 *2017:D 7.39088e-05
71 *273:66 *442:8 3.83194e-05
72 *273:66 *443:22 2.61785e-05
73 *273:66 *450:18 0
74 *273:66 *456:10 1.7635e-05
75 *273:66 *540:18 0.000191226
76 *273:66 *562:34 3.40521e-05
77 *273:95 *518:60 3.96653e-05
78 *273:101 *283:91 0
79 *273:101 *493:80 0
80 *273:101 *501:129 2.97561e-05
81 *273:101 *518:60 4.82919e-05
82 *273:101 *519:122 0
83 *273:114 *1725:B 0.000138544
84 *273:114 *493:80 0
85 *273:114 *497:31 0.000229801
86 *273:114 *501:18 0
87 *273:114 *501:22 0
88 *273:114 *501:129 4.13171e-05
89 *273:125 *501:18 0.000138188
90 *273:134 *501:18 1.86911e-05
91 *273:138 *1788:A1 1.83756e-05
92 *1609:A *1603:B 2.14655e-05
93 *1609:A *273:66 4.77757e-05
94 *1652:B1 *1640:A 5.53249e-06
95 *1652:B1 *273:16 0.000121876
96 *1653:B1 *273:16 0.000117832
97 *1672:A *273:101 0.000157753
98 *1676:A *273:95 4.99619e-05
99 *1676:B *273:95 4.82863e-05
100 *1714:A *273:95 3.3814e-05
101 *1715:A0 *273:101 7.4027e-05
102 *1715:S *273:101 0
103 *1727:A2 *273:114 0.00013521
104 *1776:B *273:101 0
105 *1785:S *1789:A1 0.000122331
106 *1785:S *273:114 0.000161529
107 *1787:B *1788:A2 0
108 *1787:B *273:138 0.000123225
109 *1789:B1 *273:125 0.000118527
110 *1797:A2 *1797:A1 2.09514e-05
111 *1797:A2 *273:134 7.21296e-06
112 *1797:B1 *1797:A1 3.45679e-05
113 *1797:C1 *1797:A1 6.17386e-05
114 *1797:C1 *273:134 9.50342e-06
115 *1833:B *1832:A 6.38722e-05
116 *1835:A *1832:A 4.60584e-05
117 *1835:B *1832:A 0.000108398
118 *1836:B1 *1832:A 0.000193806
119 *1837:B1 *1832:A 0.000359569
120 *1837:B2 *1832:A 1.08758e-05
121 *1838:B *1832:A 2.05056e-05
122 *1844:A2 *1832:A 4.66108e-05
123 *1889:A2 *273:44 0.00041851
124 *2019:B *273:16 0
125 *43:14 *273:14 4.5783e-05
126 *43:14 *273:16 1.71013e-05
127 *53:12 *273:101 4.43871e-06
128 *92:93 *273:101 0
129 *97:8 *273:101 0.000119311
130 *97:23 *273:101 4.61701e-06
131 *107:22 *273:114 0.000163019
132 *167:19 *273:125 3.04982e-05
133 *167:19 *273:134 1.22676e-05
134 *178:17 *1832:A 9.14049e-05
135 *216:19 *1832:A 0.000234674
136 *219:18 *273:14 0.000113797
137 *219:74 *273:114 0.000161623
138 *219:85 *273:114 0.000307296
139 *219:100 *1832:A 7.21296e-06
*RES
1 *1583:Y *273:6 4.12 
2 *273:6 *273:14 9.8 
3 *273:14 *273:16 14.64 
4 *273:16 *1640:A 18.9 
5 *273:16 *1652:C1 3.6 
6 *273:14 *273:44 9.125 
7 *273:44 *273:66 10.1576 
8 *273:66 *1604:B1 1.6 
9 *273:66 *1603:B 4.495 
10 *273:44 *1602:B 2.05 
11 *273:6 *273:95 7.035 
12 *273:95 *273:101 10.715 
13 *273:101 *1723:A 3.6 
14 *273:101 *273:114 19.4 
15 *273:114 *1789:A1 2.74 
16 *273:114 *273:125 4.91 
17 *273:125 *1787:A 3.6 
18 *273:125 *273:134 0.615 
19 *273:134 *273:138 3.83 
20 *273:138 *1788:A2 2.215 
21 *273:138 *1832:A 21.63 
22 *273:134 *1797:A1 5.265 
23 *273:95 *1673:A 1.6 
*END

*D_NET *274 0.00256492
*CONN
*I *1890:A_N I *D sky130_fd_sc_hd__nand2b_1
*I *1889:X O *D sky130_fd_sc_hd__a211o_1
*CAP
1 *1890:A_N 0.000539662
2 *1889:X 0.000539662
3 *1890:A_N *1831:A 0.000245677
4 *1890:A_N *326:40 0
5 *1890:A_N *518:103 6.15576e-06
6 *1860:B1 *1890:A_N 7.9642e-06
7 *1860:C1 *1890:A_N 4.82863e-05
8 *1867:B *1890:A_N 8.25609e-05
9 *1869:B *1890:A_N 7.23602e-05
10 *1890:B *1890:A_N 0.00011852
11 *191:24 *1890:A_N 0.000174694
12 *224:16 *1890:A_N 5.4003e-05
13 *225:10 *1890:A_N 4.5783e-05
14 *245:20 *1890:A_N 0.00037967
15 *247:10 *1890:A_N 0.000249921
*RES
1 *1889:X *1890:A_N 21.27 
*END

*D_NET *275 0.000517492
*CONN
*I *1892:B I *D sky130_fd_sc_hd__xor2_1
*I *1891:Y O *D sky130_fd_sc_hd__nand2_1
*CAP
1 *1892:B 0.000147947
2 *1891:Y 0.000147947
3 *1892:B *512:176 8.57024e-05
4 *1858:B1 *1892:B 0
5 *1891:B *1892:B 0.000135896
*RES
1 *1891:Y *1892:B 9.63 
*END

*D_NET *276 0.000751307
*CONN
*I *1948:A2 I *D sky130_fd_sc_hd__a21o_1
*I *1893:B I *D sky130_fd_sc_hd__xnor2_1
*I *1892:X O *D sky130_fd_sc_hd__xor2_1
*CAP
1 *1948:A2 0.000104898
2 *1893:B 5.36366e-05
3 *1892:X 0
4 *276:4 0.000158535
5 *1893:B *1948:B1 8.65961e-05
6 *1948:A2 *1892:A 4.83139e-05
7 *1948:A2 *1948:B1 0.000299327
*RES
1 *1892:X *276:4 1.6 
2 *276:4 *1893:B 2.755 
3 *276:4 *1948:A2 4.735 
*END

*D_NET *277 0.000734866
*CONN
*I *1895:B1 I *D sky130_fd_sc_hd__a21oi_1
*I *1894:C I *D sky130_fd_sc_hd__and3_1
*I *1893:Y O *D sky130_fd_sc_hd__xnor2_1
*CAP
1 *1895:B1 0
2 *1894:C 8.48926e-05
3 *1893:Y 0.000150286
4 *277:8 0.000235179
5 *1894:C *279:6 4.05674e-06
6 *277:8 *1948:B1 1.32843e-05
7 *277:8 *279:6 5.062e-06
8 *1894:B *1894:C 7.3044e-06
9 *1895:A1 *1894:C 0.000148211
10 *1895:A2 *1894:C 8.65905e-05
*RES
1 *1893:Y *277:8 3.445 
2 *277:8 *1894:C 3.655 
3 *277:8 *1895:B1 1.6 
*END

*D_NET *278 0.000535505
*CONN
*I *1918:A2 I *D sky130_fd_sc_hd__o31ai_1
*I *1894:X O *D sky130_fd_sc_hd__and3_1
*CAP
1 *1918:A2 0.000125936
2 *1894:X 0.000125936
3 *1918:A2 *491:16 7.23533e-05
4 *1918:A2 *513:103 0.000138919
5 *250:12 *1918:A2 7.23602e-05
*RES
1 *1894:X *1918:A2 9.3825 
*END

*D_NET *279 0.00188095
*CONN
*I *1948:B1 I *D sky130_fd_sc_hd__a21o_1
*I *1918:A3 I *D sky130_fd_sc_hd__o31ai_1
*I *1895:Y O *D sky130_fd_sc_hd__a21oi_1
*CAP
1 *1948:B1 0.000615924
2 *1918:A3 3.19137e-05
3 *1895:Y 3.79861e-05
4 *279:6 0.000685824
5 *1918:A3 *1918:B1 3.86607e-05
6 *1918:A3 *544:92 3.86529e-05
7 *1948:B1 *1892:A 2.36616e-05
8 *1893:B *1948:B1 8.65961e-05
9 *1894:C *279:6 4.05674e-06
10 *1948:A2 *1948:B1 0.000299327
11 *277:8 *1948:B1 1.32843e-05
12 *277:8 *279:6 5.062e-06
*RES
1 *1895:Y *279:6 2.05 
2 *279:6 *1918:A3 6.47 
3 *279:6 *1948:B1 9.475 
*END

*D_NET *280 0.00180993
*CONN
*I *1940:A I *D sky130_fd_sc_hd__xnor2_1
*I *1970:A1 I *D sky130_fd_sc_hd__a21o_1
*I *1898:A I *D sky130_fd_sc_hd__or2_1
*I *1896:X O *D sky130_fd_sc_hd__and4_1
*CAP
1 *1940:A 8.43214e-05
2 *1970:A1 0.000188207
3 *1898:A 0
4 *1896:X 0.000217298
5 *280:15 0.0003743
6 *280:8 0.00031907
7 *1970:A1 *1905:A_N 0
8 *1970:A1 *1937:B 0
9 *1970:A1 *1970:A2 4.66108e-05
10 *1970:A1 *388:8 0.000250623
11 *280:8 *1897:B2 0.000160937
12 *280:8 *1898:B 0.000105158
13 *280:8 *282:8 1.03423e-05
14 *280:15 *282:8 5.30673e-05
*RES
1 *1896:X *280:8 5.425 
2 *280:8 *1898:A 1.6 
3 *280:8 *280:15 1.83 
4 *280:15 *1970:A1 8.96 
5 *280:15 *1940:A 2.74 
*END

*D_NET *281 0.000229514
*CONN
*I *1898:B I *D sky130_fd_sc_hd__or2_1
*I *1897:Y O *D sky130_fd_sc_hd__a22oi_1
*CAP
1 *1898:B 3.71972e-05
2 *1897:Y 3.71972e-05
3 *1898:B *1897:B2 4.99619e-05
4 *280:8 *1898:B 0.000105158
*RES
1 *1897:Y *1898:B 4.355 
*END

*D_NET *282 0.00107048
*CONN
*I *1906:A I *D sky130_fd_sc_hd__xnor2_1
*I *1905:A_N I *D sky130_fd_sc_hd__nand2b_1
*I *1898:X O *D sky130_fd_sc_hd__or2_1
*CAP
1 *1906:A 5.71065e-05
2 *1905:A_N 0.00018997
3 *1898:X 8.68293e-05
4 *282:8 0.000333906
5 *1905:A_N *1906:B 0.000219076
6 *1905:A_N *1937:B 9.50342e-06
7 *1905:A_N *388:8 0
8 *1906:A *1906:B 0.000110683
9 *1906:A *388:8 0
10 *1970:A1 *1905:A_N 0
11 *280:8 *282:8 1.03423e-05
12 *280:15 *282:8 5.30673e-05
*RES
1 *1898:X *282:8 4.74 
2 *282:8 *1905:A_N 7.065 
3 *282:8 *1906:A 4.98 
*END

*D_NET *283 0.0168704
*CONN
*I *1780:C1 I *D sky130_fd_sc_hd__o211a_1
*I *1740:A I *D sky130_fd_sc_hd__xnor2_1
*I *1779:C1 I *D sky130_fd_sc_hd__a211o_1
*I *2019:C I *D sky130_fd_sc_hd__or4b_1
*I *1639:A I *D sky130_fd_sc_hd__xnor2_2
*I *1694:A I *D sky130_fd_sc_hd__and3_1
*I *1696:B1 I *D sky130_fd_sc_hd__a21o_1
*I *1695:B1 I *D sky130_fd_sc_hd__a21oi_1
*I *1584:Y O *D sky130_fd_sc_hd__inv_2
*CAP
1 *1780:C1 2.31558e-05
2 *1740:A 0.000359446
3 *1779:C1 0
4 *2019:C 2.2266e-05
5 *1639:A 1.88809e-05
6 *1694:A 5.13805e-05
7 *1696:B1 1.15568e-05
8 *1695:B1 0.000150287
9 *1584:Y 3.72342e-05
10 *283:106 0.00113687
11 *283:91 0.00149931
12 *283:40 0.000288741
13 *283:38 0.00129226
14 *283:30 0.00126389
15 *283:22 0.00124637
16 *283:8 0.00187535
17 *1695:B1 *1695:A1 8.43946e-05
18 *1696:B1 *1695:A1 1.93182e-05
19 *1740:A *1780:A2 0
20 *1740:A *497:31 0.000849087
21 *1780:C1 *497:31 6.39292e-05
22 *283:8 *518:60 1.83756e-05
23 *283:22 *1674:B1 0.000172746
24 *283:22 *2019:D_N 0.000132655
25 *283:22 *471:18 0.000145024
26 *283:22 *496:18 0.00070484
27 *283:22 *501:28 0
28 *283:22 *518:60 0
29 *283:22 *519:142 8.39517e-05
30 *283:30 *1581:A 1.08758e-05
31 *283:30 *477:12 1.91597e-05
32 *283:30 *477:20 2.05056e-05
33 *283:38 *1701:A 3.50152e-06
34 *283:38 *1702:B1 5.04585e-05
35 *283:38 *477:20 0.000291112
36 *283:38 *479:10 0.000126575
37 *283:38 *519:27 0.000152379
38 *283:40 *1695:A1 3.87788e-05
39 *283:91 *1774:A2 9.76522e-05
40 *283:91 *1778:B 9.50342e-06
41 *283:91 *501:22 0.000553358
42 *283:91 *501:28 0
43 *283:91 *518:31 0.000110609
44 *283:91 *518:37 0.000225918
45 *283:91 *519:122 6.96106e-05
46 *283:91 *524:36 1.07797e-05
47 *283:106 *1778:B 5.16348e-05
48 *283:106 *1780:A2 0.000755465
49 *283:106 *497:31 9.5248e-06
50 *283:106 *501:18 1.07797e-05
51 *283:106 *524:10 8.45475e-05
52 *1671:A *283:22 0
53 *1679:B1 *283:22 4.99619e-05
54 *1688:B *283:22 4.75576e-05
55 *1696:A2 *283:40 0.000122325
56 *1699:B1 *283:38 0.000135819
57 *1701:B *283:38 8.28916e-05
58 *1727:A1 *283:91 3.42142e-05
59 *1728:B1 *283:91 0.00032782
60 *1740:B *1740:A 2.16833e-05
61 *1764:A *1740:A 8.49205e-05
62 *1764:B *1740:A 7.66426e-05
63 *1774:B1 *283:91 0.000139245
64 *1776:B *283:91 3.69338e-05
65 *1791:B1 *283:106 0
66 *2019:B *283:22 6.68849e-05
67 *2019:B *283:30 0.000120186
68 *2044:A1 *283:91 0.000162332
69 *2044:A1 *283:106 0.000149759
70 *38:27 *283:22 0.00026617
71 *53:12 *283:91 0
72 *61:22 *283:22 0
73 *81:12 *283:38 0.000353831
74 *82:14 *283:38 1.31227e-05
75 *84:14 *1694:A 3.64998e-06
76 *84:14 *283:38 0.000272157
77 *97:8 *283:91 0
78 *219:30 *283:22 0
79 *241:17 *2019:C 4.82919e-05
80 *273:16 *283:22 0
81 *273:16 *283:30 0
82 *273:101 *283:91 0
*RES
1 *1584:Y *283:8 4.05 
2 *283:8 *283:22 24.7 
3 *283:22 *283:30 4.535 
4 *283:30 *283:38 19.89 
5 *283:38 *283:40 2.44875 
6 *283:40 *1695:B1 4.20625 
7 *283:40 *1696:B1 2.24125 
8 *283:38 *1694:A 2.665 
9 *283:30 *1639:A 1.96 
10 *283:22 *2019:C 4.05 
11 *283:8 *283:91 19.785 
12 *283:91 *1779:C1 3.6 
13 *283:91 *283:106 13.91 
14 *283:106 *1740:A 10.465 
15 *283:106 *1780:C1 2.74 
*END

*D_NET *284 0.000636768
*CONN
*I *1903:A_N I *D sky130_fd_sc_hd__nand2b_1
*I *1904:A I *D sky130_fd_sc_hd__xnor2_1
*I *1899:X O *D sky130_fd_sc_hd__o21ba_1
*CAP
1 *1903:A_N 4.98732e-05
2 *1904:A 4.23074e-05
3 *1899:X 4.06368e-05
4 *284:10 0.000132817
5 *1903:A_N *1903:B 0.000123225
6 *1904:A *1903:B 8.40213e-05
7 *284:10 *543:20 4.70343e-05
8 *259:14 *284:10 0.000116853
*RES
1 *1899:X *284:10 6.98 
2 *284:10 *1904:A 2.395 
3 *284:10 *1903:A_N 2.74 
*END

*D_NET *285 0.000962641
*CONN
*I *1925:B1 I *D sky130_fd_sc_hd__a31oi_1
*I *1901:B1 I *D sky130_fd_sc_hd__a21oi_1
*I *1900:X O *D sky130_fd_sc_hd__and3_1
*CAP
1 *1925:B1 0.000119819
2 *1901:B1 0
3 *1900:X 6.84097e-05
4 *285:12 0.000188228
5 *1925:B1 *1872:A 2.75145e-05
6 *1925:B1 *1872:B 0.000192125
7 *1925:B1 *1925:A1 2.30292e-05
8 *1925:B1 *286:8 2.67275e-05
9 *1925:B1 *519:186 8.40269e-05
10 *285:12 *510:98 0.000141356
11 *285:12 *561:33 9.14049e-05
*RES
1 *1900:X *285:12 7.175 
2 *285:12 *1901:B1 1.6 
3 *285:12 *1925:B1 4.48 
*END

*D_NET *286 0.00324092
*CONN
*I *1925:A3 I *D sky130_fd_sc_hd__a31oi_1
*I *1902:B I *D sky130_fd_sc_hd__xnor2_1
*I *1901:Y O *D sky130_fd_sc_hd__a21oi_1
*CAP
1 *1925:A3 0
2 *1902:B 0.000409009
3 *1901:Y 0.000107861
4 *286:8 0.00051687
5 *1902:B *2017:D 1.92979e-05
6 *1902:B *2021:A1 0.000197914
7 *1902:B *2054:A 0.000185411
8 *1902:B *409:8 8.46846e-05
9 *1902:B *491:78 0.00082156
10 *1902:B *497:47 8.77729e-05
11 *1902:B *512:16 5.12017e-06
12 *1902:B *519:186 0.000387963
13 *1902:B *519:198 9.50342e-06
14 *1902:B *521:107 2.23407e-05
15 *1902:B *521:120 9.15582e-05
16 *1902:B *521:133 0.000153658
17 *286:8 *1872:A 4.82863e-05
18 *1901:A2 *286:8 0
19 *1902:A *1902:B 1.70935e-05
20 *1925:B1 *286:8 2.67275e-05
21 *38:27 *1902:B 4.82919e-05
*RES
1 *1901:Y *286:8 3.355 
2 *286:8 *1902:B 20.435 
3 *286:8 *1925:A3 1.6 
*END

*D_NET *287 0.00193732
*CONN
*I *1903:B I *D sky130_fd_sc_hd__nand2b_1
*I *1904:B I *D sky130_fd_sc_hd__xnor2_1
*I *1902:Y O *D sky130_fd_sc_hd__xnor2_1
*CAP
1 *1903:B 0.000130903
2 *1904:B 0
3 *1902:Y 0.00053608
4 *287:8 0.000666984
5 *1903:B *289:10 8.59527e-05
6 *287:8 *1871:A 0.000125284
7 *287:8 *1871:B 0.000184866
8 *1903:A_N *1903:B 0.000123225
9 *1904:A *1903:B 8.40213e-05
*RES
1 *1902:Y *287:8 10.345 
2 *287:8 *1904:B 1.6 
3 *287:8 *1903:B 4.58875 
*END

*D_NET *288 0.00177621
*CONN
*I *1938:A1 I *D sky130_fd_sc_hd__a21oi_1
*I *1937:A I *D sky130_fd_sc_hd__and3_1
*I *1903:Y O *D sky130_fd_sc_hd__nand2b_1
*CAP
1 *1938:A1 4.81237e-05
2 *1937:A 7.26805e-05
3 *1903:Y 0.000376237
4 *288:6 0.000497042
5 *1937:A *1938:B1 8.76033e-05
6 *1937:A *323:8 9.50342e-06
7 *1937:A *533:26 0
8 *1938:A1 *1938:B1 0.000122337
9 *1938:A1 *289:10 2.41483e-05
10 *1938:A1 *290:8 5.90545e-05
11 *288:6 *289:10 0.000479483
*RES
1 *1903:Y *288:6 8.26 
2 *288:6 *1937:A 7.085 
3 *288:6 *1938:A1 3.085 
*END

*D_NET *289 0.00239381
*CONN
*I *1906:B I *D sky130_fd_sc_hd__xnor2_1
*I *1905:B I *D sky130_fd_sc_hd__nand2b_1
*I *1904:Y O *D sky130_fd_sc_hd__xnor2_1
*CAP
1 *1906:B 0.000207163
2 *1905:B 0
3 *1904:Y 0.00048095
4 *289:10 0.000688113
5 *1906:B *388:8 0
6 *1906:B *533:26 0
7 *289:10 *290:8 9.82432e-05
8 *1903:B *289:10 8.59527e-05
9 *1905:A_N *1906:B 0.000219076
10 *1906:A *1906:B 0.000110683
11 *1938:A1 *289:10 2.41483e-05
12 *288:6 *289:10 0.000479483
*RES
1 *1904:Y *289:10 10.8175 
2 *289:10 *1905:B 1.6 
3 *289:10 *1906:B 10.04 
*END

*D_NET *290 0.00084876
*CONN
*I *1938:A2 I *D sky130_fd_sc_hd__a21oi_1
*I *1937:B I *D sky130_fd_sc_hd__and3_1
*I *1905:Y O *D sky130_fd_sc_hd__nand2b_1
*CAP
1 *1938:A2 0
2 *1937:B 0.000173974
3 *1905:Y 0.000108004
4 *290:8 0.000281977
5 *1937:B *1937:C 6.37488e-06
6 *1937:B *1938:B1 5.02217e-05
7 *1937:B *323:8 5.74016e-05
8 *1937:B *388:8 0
9 *1937:B *533:26 0
10 *290:8 *1970:A2 0
11 *290:8 *325:10 4.00541e-06
12 *1905:A_N *1937:B 9.50342e-06
13 *1938:A1 *290:8 5.90545e-05
14 *1970:A1 *1937:B 0
15 *289:10 *290:8 9.82432e-05
*RES
1 *1905:Y *290:8 3.79 
2 *290:8 *1937:B 8.705 
3 *290:8 *1938:A2 1.6 
*END

*D_NET *291 0.0012944
*CONN
*I *1907:B1 I *D sky130_fd_sc_hd__o21ai_1
*I *1908:C I *D sky130_fd_sc_hd__or3_1
*I *1906:Y O *D sky130_fd_sc_hd__xnor2_1
*CAP
1 *1907:B1 0.000123238
2 *1908:C 0
3 *1906:Y 0.000193973
4 *291:12 0.00031721
5 *291:12 *388:8 7.26629e-05
6 *291:12 *533:26 0
7 *1907:A1 *1907:B1 0.000160635
8 *1907:A2 *1907:B1 0.000152328
9 *260:12 *291:12 0.000187766
10 *263:15 *1907:B1 8.65905e-05
*RES
1 *1906:Y *291:12 9.725 
2 *291:12 *1908:C 1.6 
3 *291:12 *1907:B1 4.825 
*END

*D_NET *292 0.000717829
*CONN
*I *1943:A I *D sky130_fd_sc_hd__nand2_1
*I *1941:A I *D sky130_fd_sc_hd__or2_1
*I *1909:A I *D sky130_fd_sc_hd__and2_1
*I *1907:Y O *D sky130_fd_sc_hd__o21ai_1
*CAP
1 *1943:A 5.67208e-05
2 *1941:A 0
3 *1909:A 4.05519e-05
4 *1907:Y 5.7669e-05
5 *292:19 7.53739e-05
6 *292:10 0.000116874
7 *1909:A *1944:B 2.75145e-05
8 *1909:A *329:10 2.75229e-05
9 *1943:A *1943:B 4.78882e-05
10 *1943:A *1944:B 0.00012657
11 *292:10 *1909:B 3.47668e-05
12 *292:10 *328:12 5.72004e-05
13 *292:10 *329:10 2.86623e-05
14 *292:19 *1944:B 2.0514e-05
*RES
1 *1907:Y *292:10 7.235 
2 *292:10 *1909:A 2.395 
3 *292:10 *292:19 0.45 
4 *292:19 *1941:A 1.6 
5 *292:19 *1943:A 3.46 
*END

*D_NET *293 0.000325076
*CONN
*I *1909:B I *D sky130_fd_sc_hd__and2_1
*I *1908:X O *D sky130_fd_sc_hd__or3_1
*CAP
1 *1909:B 7.77348e-05
2 *1908:X 7.77348e-05
3 *1909:B *329:10 5.39961e-05
4 *1909:B *388:8 8.08439e-05
5 *292:10 *1909:B 3.47668e-05
*RES
1 *1908:X *1909:B 9.285 
*END

*D_NET *294 0.0170977
*CONN
*I *1620:B1 I *D sky130_fd_sc_hd__a21oi_1
*I *1619:B I *D sky130_fd_sc_hd__and3_1
*I *1659:A2 I *D sky130_fd_sc_hd__a221o_1
*I *1689:A I *D sky130_fd_sc_hd__xnor2_1
*I *1774:C1 I *D sky130_fd_sc_hd__o211a_1
*I *1585:Y O *D sky130_fd_sc_hd__inv_2
*CAP
1 *1620:B1 9.0406e-05
2 *1619:B 8.88903e-05
3 *1659:A2 6.83923e-05
4 *1689:A 0.000222215
5 *1774:C1 0.00104381
6 *1585:Y 3.19143e-05
7 *294:45 0.00170643
8 *294:37 0.00160119
9 *294:35 0.00147575
10 *294:6 0.00236458
11 *1619:B *459:23 0.000120655
12 *1620:B1 *1618:A 3.35621e-05
13 *1620:B1 *456:23 2.42043e-05
14 *1659:A2 *1691:B1 3.25831e-05
15 *1659:A2 *484:10 0.000195918
16 *1659:A2 *485:8 0.000225175
17 *1689:A *1689:B 0.000194509
18 *1689:A *484:10 9.54469e-05
19 *1689:A *485:8 9.37731e-05
20 *1774:C1 *1585:A 0.000143655
21 *1774:C1 *1721:A0 7.21296e-06
22 *1774:C1 *1917:A2 0.000240541
23 *1774:C1 *326:95 7.21296e-06
24 *1774:C1 *520:179 0
25 *1774:C1 *520:192 1.32017e-05
26 *294:6 *520:8 4.99619e-05
27 *294:35 *1598:C1 7.47215e-05
28 *294:35 *1602:A 0
29 *294:35 *1616:A2 7.0176e-05
30 *294:35 *2017:D 1.93765e-05
31 *294:35 *2054:A 9.2741e-05
32 *294:35 *2113:A 0
33 *294:35 *434:10 0.000365035
34 *294:35 *453:10 0.000102161
35 *294:35 *453:25 1.52119e-05
36 *294:35 *456:10 0.000536632
37 *294:35 *457:10 0.000264277
38 *294:35 *474:22 0.000157904
39 *294:35 *501:160 0
40 *294:35 *520:8 0.0003711
41 *294:35 *520:61 0.000137571
42 *294:37 *1619:A 0.000139238
43 *294:37 *1619:C 0.000116853
44 *294:37 *453:25 3.17967e-05
45 *294:37 *456:10 4.9968e-05
46 *294:37 *457:10 4.14369e-05
47 *294:37 *459:23 2.92496e-05
48 *294:37 *460:8 4.21256e-05
49 *294:45 *459:23 0.000354208
50 *294:45 *460:8 0.000192868
51 *294:45 *495:27 0.001903
52 *1839:B1 *1774:C1 0.000349592
53 *1860:A2 *1774:C1 0.000153441
54 *1861:B1 *1774:C1 0.000437096
55 *1862:B1 *1774:C1 0.000203762
56 *1889:A2 *1774:C1 0
57 *34:6 *294:45 1.74678e-05
58 *39:6 *1659:A2 6.8725e-06
59 *103:38 *1774:C1 0.000403558
60 *191:24 *1774:C1 4.66108e-05
61 *219:130 *294:35 4.21757e-05
62 *245:20 *1774:C1 0.00015829
*RES
1 *1585:Y *294:6 2.05 
2 *294:6 *1774:C1 28.85 
3 *294:6 *294:35 27.8 
4 *294:35 *294:37 3.165 
5 *294:37 *294:45 26.23 
6 *294:45 *1689:A 8.205 
7 *294:45 *1659:A2 6.37875 
8 *294:37 *1619:B 4.74 
9 *294:35 *1620:B1 5.22 
*END

*D_NET *295 0.000885696
*CONN
*I *1910:B I *D sky130_fd_sc_hd__or2_1
*I *1911:B I *D sky130_fd_sc_hd__nand2_1
*I *1909:X O *D sky130_fd_sc_hd__and2_1
*CAP
1 *1910:B 8.2576e-05
2 *1911:B 0
3 *1909:X 0.000219286
4 *295:12 0.000301862
5 *1910:B *297:10 4.82919e-05
6 *295:12 *1917:C1 6.81107e-05
7 *295:12 *388:8 0.000132631
8 *295:12 *533:26 0
9 *1911:A *1910:B 3.29384e-05
*RES
1 *1909:X *295:12 10.07 
2 *295:12 *1911:B 1.6 
3 *295:12 *1910:B 3.1 
*END

*D_NET *296 0.000292644
*CONN
*I *1916:A2 I *D sky130_fd_sc_hd__a311o_1
*I *1910:X O *D sky130_fd_sc_hd__or2_1
*CAP
1 *1916:A2 7.16161e-05
2 *1910:X 7.16161e-05
3 *1916:A2 *297:10 9.54399e-05
4 *196:51 *1916:A2 5.39718e-05
*RES
1 *1910:X *1916:A2 8.775 
*END

*D_NET *297 0.00134398
*CONN
*I *1945:A I *D sky130_fd_sc_hd__nand2_1
*I *1947:A1 I *D sky130_fd_sc_hd__o21a_1
*I *1946:A I *D sky130_fd_sc_hd__nor2_1
*I *1916:A3 I *D sky130_fd_sc_hd__a311o_1
*I *1911:Y O *D sky130_fd_sc_hd__nand2_1
*CAP
1 *1945:A 2.2266e-05
2 *1947:A1 0
3 *1946:A 0.000102407
4 *1916:A3 0
5 *1911:Y 0.000142084
6 *297:32 0.000111055
7 *297:19 0.000295584
8 *297:10 0.000246471
9 *1945:A *1947:A2 4.82919e-05
10 *297:10 *1917:C1 3.86607e-05
11 *297:10 *388:8 0
12 *297:19 *2012:B1 0
13 *297:19 *388:8 0
14 *1910:B *297:10 4.82919e-05
15 *1911:A *297:10 2.8185e-05
16 *1916:A2 *297:10 9.54399e-05
17 *196:51 *297:10 8.08153e-06
18 *196:62 *297:10 2.97004e-06
19 *196:62 *297:19 8.47372e-05
20 *196:62 *297:32 6.5265e-05
21 *196:75 *297:32 4.18603e-06
*RES
1 *1911:Y *297:10 6.12 
2 *297:10 *1916:A3 3.6 
3 *297:10 *297:19 2.4 
4 *297:19 *1946:A 5.085 
5 *297:19 *297:32 3.89 
6 *297:32 *1947:A1 1.6 
7 *297:32 *1945:A 2.05 
*END

*D_NET *298 0.000673273
*CONN
*I *1913:B2 I *D sky130_fd_sc_hd__o22a_1
*I *1912:Y O *D sky130_fd_sc_hd__a21oi_1
*CAP
1 *1913:B2 0.000110053
2 *1912:Y 0.000110053
3 *1913:B2 *1913:A1 4.82919e-05
4 *1913:B2 *1914:A 1.27894e-05
5 *1913:B2 *510:176 0.000118527
6 *1913:B2 *560:40 5.30673e-05
7 *1913:B1 *1913:B2 0.000100305
8 *188:72 *1913:B2 0.000120186
*RES
1 *1912:Y *1913:B2 10.77 
*END

*D_NET *299 0.00068188
*CONN
*I *1916:B1 I *D sky130_fd_sc_hd__a311o_1
*I *1913:X O *D sky130_fd_sc_hd__o22a_1
*CAP
1 *1916:B1 0.000162102
2 *1913:X 0.000162102
3 *1916:B1 *1914:A 0.000124007
4 *1916:B1 *1916:C1 8.8266e-05
5 *1916:B1 *560:40 0.00011577
6 *1914:B *1916:B1 2.96334e-05
*RES
1 *1913:X *1916:B1 7.115 
*END

*D_NET *300 0.000153397
*CONN
*I *1916:C1 I *D sky130_fd_sc_hd__a311o_1
*I *1914:X O *D sky130_fd_sc_hd__and2_1
*CAP
1 *1916:C1 3.25657e-05
2 *1914:X 3.25657e-05
3 *1916:B1 *1916:C1 8.8266e-05
*RES
1 *1914:X *1916:C1 3.995 
*END

*D_NET *301 0.000665882
*CONN
*I *1917:B1 I *D sky130_fd_sc_hd__a211oi_1
*I *1915:X O *D sky130_fd_sc_hd__a32o_1
*CAP
1 *1917:B1 0.000181006
2 *1915:X 0.000181006
3 *1917:B1 *1917:A1 5.20968e-05
4 *1917:B1 *1918:B1 0.000126995
5 *1917:B1 *491:16 0
6 *1917:B1 *497:31 8.49205e-05
7 *1889:B1 *1917:B1 3.0277e-05
8 *1889:C1 *1917:B1 9.5799e-06
*RES
1 *1915:X *1917:B1 10.905 
*END

*D_NET *302 0.00774791
*CONN
*I *1917:C1 I *D sky130_fd_sc_hd__a211oi_1
*I *1916:X O *D sky130_fd_sc_hd__a311o_1
*CAP
1 *1917:C1 0.00292745
2 *1916:X 0.00292745
3 *1917:C1 *1917:A1 9.26907e-06
4 *1917:C1 *2096:A 0.000161104
5 *1917:C1 *388:8 0
6 *1917:C1 *495:100 0.000288153
7 *1917:C1 *517:110 1.00941e-05
8 *1917:C1 *543:14 0.000698037
9 *1889:C1 *1917:C1 6.23426e-05
10 *196:28 *1917:C1 0.000480916
11 *196:51 *1917:C1 0
12 *266:12 *1917:C1 7.63204e-05
13 *295:12 *1917:C1 6.81107e-05
14 *297:10 *1917:C1 3.86607e-05
*RES
1 *1916:X *1917:C1 17.2401 
*END

*D_NET *303 0.00212879
*CONN
*I *1918:B1 I *D sky130_fd_sc_hd__o31ai_1
*I *1917:Y O *D sky130_fd_sc_hd__a211oi_1
*CAP
1 *1918:B1 0.000685961
2 *1917:Y 0.000685961
3 *1918:B1 *1961:A2 4.84393e-05
4 *1918:B1 *2081:A 1.71013e-05
5 *1918:B1 *517:110 0.000525671
6 *1918:B1 *544:92 0
7 *1889:B1 *1918:B1 0
8 *1917:B1 *1918:B1 0.000126995
9 *1918:A3 *1918:B1 3.86607e-05
10 *205:10 *1918:B1 0
11 *205:18 *1918:B1 0
*RES
1 *1917:Y *1918:B1 21.075 
*END

*D_NET *304 0.000700726
*CONN
*I *1746:A1_N I *D sky130_fd_sc_hd__o2bb2a_1
*I *1745:A1 I *D sky130_fd_sc_hd__o21bai_1
*I *1586:Y O *D sky130_fd_sc_hd__inv_2
*CAP
1 *1746:A1_N 0.000137227
2 *1745:A1 9.10628e-05
3 *1586:Y 0
4 *304:4 0.00022829
5 *1746:A1_N *1586:A 2.04923e-05
6 *1746:A2_N *1746:A1_N 0.00013521
7 *1754:B *1746:A1_N 2.80371e-05
8 *100:20 *1746:A1_N 1.20411e-05
9 *113:10 *1745:A1 4.02369e-05
10 *113:10 *1746:A1_N 8.12896e-06
*RES
1 *1586:Y *304:4 1.6 
2 *304:4 *1745:A1 3.37 
3 *304:4 *1746:A1_N 8.14625 
*END

*D_NET *305 0.00119945
*CONN
*I *1922:B1 I *D sky130_fd_sc_hd__o21a_1
*I *1923:A I *D sky130_fd_sc_hd__nor3_1
*I *1919:Y O *D sky130_fd_sc_hd__nand2_1
*CAP
1 *1922:B1 8.28935e-05
2 *1923:A 0
3 *1919:Y 0.00011958
4 *305:12 0.000202474
5 *1922:B1 *1923:B 2.30292e-05
6 *1922:B1 *1923:C 8.40213e-05
7 *1922:B1 *1972:A1 0
8 *1922:B1 *309:10 3.23663e-05
9 *1922:B1 *309:19 0
10 *1922:B1 *497:80 2.75145e-05
11 *1922:B1 *555:20 0.000270415
12 *305:12 *1919:A 0.000124895
13 *305:12 *1974:B 9.47454e-05
14 *305:12 *2099:A 2.30292e-05
15 *305:12 *497:80 0.000114492
16 *305:12 *513:174 0
*RES
1 *1919:Y *305:12 8.465 
2 *305:12 *1923:A 1.6 
3 *305:12 *1922:B1 4.48 
*END

*D_NET *306 0.00301131
*CONN
*I *1971:A1 I *D sky130_fd_sc_hd__o211a_1
*I *1922:A1 I *D sky130_fd_sc_hd__o21a_1
*I *1923:B I *D sky130_fd_sc_hd__nor3_1
*I *1972:B1 I *D sky130_fd_sc_hd__a211oi_1
*I *1920:X O *D sky130_fd_sc_hd__and4_1
*CAP
1 *1971:A1 0.000411298
2 *1922:A1 0
3 *1923:B 2.47787e-05
4 *1972:B1 0.000272262
5 *1920:X 0.000125998
6 *306:25 2.47787e-05
7 *306:12 0.000333709
8 *306:10 0.000598743
9 *1923:B *1923:C 4.82863e-05
10 *1923:B *309:10 4.82863e-05
11 *1971:A1 *1919:A 5.48723e-05
12 *1971:A1 *1921:A2 6.8725e-06
13 *1971:A1 *1921:B1 4.99619e-05
14 *1971:A1 *1921:B2 4.66108e-05
15 *1971:A1 *1971:B1 8.07016e-05
16 *1972:B1 *1924:A 0.000163204
17 *1972:B1 *1974:B 0
18 *1972:B1 *309:10 0.000174857
19 *1972:B1 *497:80 2.97004e-06
20 *306:10 *1920:B 2.0514e-05
21 *306:10 *1921:B1 5.65627e-05
22 *306:10 *1921:B2 0.000157602
23 *306:10 *307:10 7.06865e-05
24 *306:10 *496:95 4.82863e-05
25 *306:10 *497:80 5.98004e-06
26 *306:12 *307:10 0.000112123
27 *306:12 *497:80 4.83328e-05
28 *1922:B1 *1923:B 2.30292e-05
*RES
1 *1920:X *306:10 6.54 
2 *306:10 *306:12 1.635 
3 *306:12 *1972:B1 7.425 
4 *306:12 *306:25 2 
5 *306:25 *1923:B 2.395 
6 *306:25 *1922:A1 1.6 
7 *306:10 *1971:A1 9.015 
*END

*D_NET *307 0.000629475
*CONN
*I *1922:A2 I *D sky130_fd_sc_hd__o21a_1
*I *1923:C I *D sky130_fd_sc_hd__nor3_1
*I *1921:Y O *D sky130_fd_sc_hd__a22oi_1
*CAP
1 *1922:A2 0
2 *1923:C 1.95859e-05
3 *1921:Y 7.92872e-05
4 *307:10 9.8873e-05
5 *1923:C *309:10 2.16917e-05
6 *307:10 *1921:B1 5.16418e-05
7 *307:10 *555:16 1.7396e-05
8 *307:10 *555:81 2.58818e-05
9 *1922:B1 *1923:C 8.40213e-05
10 *1923:B *1923:C 4.82863e-05
11 *306:10 *307:10 7.06865e-05
12 *306:12 *307:10 0.000112123
*RES
1 *1921:Y *307:10 7.745 
2 *307:10 *1923:C 2.395 
3 *307:10 *1922:A2 1.6 
*END

*D_NET *308 0.000743918
*CONN
*I *1924:A I *D sky130_fd_sc_hd__nor2_1
*I *1922:X O *D sky130_fd_sc_hd__o21a_1
*CAP
1 *1924:A 0.00015039
2 *1922:X 0.00015039
3 *1924:A *1973:B 3.23663e-05
4 *1924:A *309:10 0.000201508
5 *1924:A *309:19 4.60584e-05
6 *1972:B1 *1924:A 0.000163204
*RES
1 *1922:X *1924:A 7.025 
*END

*D_NET *309 0.00138355
*CONN
*I *1924:B I *D sky130_fd_sc_hd__nor2_1
*I *1971:A2 I *D sky130_fd_sc_hd__o211a_1
*I *1972:C1 I *D sky130_fd_sc_hd__a211oi_1
*I *1923:Y O *D sky130_fd_sc_hd__nor3_1
*CAP
1 *1924:B 0
2 *1971:A2 9.92764e-05
3 *1972:C1 0
4 *1923:Y 0.000132632
5 *309:19 0.000140106
6 *309:10 0.000173462
7 *1971:A2 *1972:A2 6.4422e-05
8 *1971:A2 *323:8 5.85158e-05
9 *1971:A2 *538:38 4.18603e-06
10 *309:10 *1972:A2 0.00012657
11 *309:10 *555:20 1.13241e-05
12 *309:19 *1973:B 4.82863e-05
13 *1922:B1 *309:10 3.23663e-05
14 *1922:B1 *309:19 0
15 *1923:B *309:10 4.82863e-05
16 *1923:C *309:10 2.16917e-05
17 *1924:A *309:10 0.000201508
18 *1924:A *309:19 4.60584e-05
19 *1972:B1 *309:10 0.000174857
*RES
1 *1923:Y *309:10 5.965 
2 *309:10 *1972:C1 1.6 
3 *309:10 *309:19 1.155 
4 *309:19 *1971:A2 7.49 
5 *309:19 *1924:B 1.6 
*END

*D_NET *310 0.00146209
*CONN
*I *1934:A I *D sky130_fd_sc_hd__or2_1
*I *1935:A I *D sky130_fd_sc_hd__nand2_1
*I *1924:Y O *D sky130_fd_sc_hd__nor2_1
*CAP
1 *1934:A 0
2 *1935:A 5.5739e-05
3 *1924:Y 0.000299496
4 *310:12 0.000355235
5 *1935:A *1934:B 0.000203178
6 *1935:A *322:8 0.000278111
7 *310:12 *322:8 4.66108e-05
8 *310:12 *323:8 0.000173751
9 *310:12 *363:10 0
10 *310:12 *382:14 4.9968e-05
11 *310:12 *555:16 0
*RES
1 *1924:Y *310:12 11.765 
2 *310:12 *1935:A 4.12 
3 *310:12 *1934:A 1.6 
*END

*D_NET *311 0.00169167
*CONN
*I *1933:A I *D sky130_fd_sc_hd__xnor2_1
*I *1932:A I *D sky130_fd_sc_hd__or3_1
*I *1925:Y O *D sky130_fd_sc_hd__a31oi_1
*CAP
1 *1933:A 0
2 *1932:A 6.40424e-05
3 *1925:Y 0.000354651
4 *311:12 0.000418694
5 *1932:A *1931:A 0
6 *1932:A *1931:B 0.000119151
7 *1932:A *1932:B 0.000122155
8 *1932:A *1933:B 9.53428e-06
9 *1932:A *317:18 4.99619e-05
10 *311:12 *1925:A1 0.000279787
11 *311:12 *317:18 0
12 *311:12 *320:12 0
13 *311:12 *495:29 0.000273695
*RES
1 *1925:Y *311:12 12.485 
2 *311:12 *1932:A 4.135 
3 *311:12 *1933:A 1.6 
*END

*D_NET *312 0.000551972
*CONN
*I *1930:A I *D sky130_fd_sc_hd__nor3_1
*I *1929:B1 I *D sky130_fd_sc_hd__o21a_1
*I *1926:Y O *D sky130_fd_sc_hd__nand2_1
*CAP
1 *1930:A 4.09849e-05
2 *1929:B1 0
3 *1926:Y 0.000115035
4 *312:8 0.00015602
5 *1930:A *1930:C 0.00012657
6 *312:8 *1926:A 2.75229e-05
7 *312:8 *1930:C 7.38465e-05
8 *312:8 *313:25 1.19928e-05
*RES
1 *1926:Y *312:8 3.79 
2 *312:8 *1929:B1 1.6 
3 *312:8 *1930:A 2.74 
*END

*D_NET *313 0.00234624
*CONN
*I *1985:A I *D sky130_fd_sc_hd__nor3_1
*I *1986:A1 I *D sky130_fd_sc_hd__o21a_1
*I *1930:B I *D sky130_fd_sc_hd__nor3_1
*I *1929:A1 I *D sky130_fd_sc_hd__o21a_1
*I *1927:X O *D sky130_fd_sc_hd__and3_1
*CAP
1 *1985:A 0.000195355
2 *1986:A1 0
3 *1930:B 3.03383e-05
4 *1929:A1 2.12536e-05
5 *1927:X 3.18062e-05
6 *313:34 0.000324724
7 *313:25 0.000433636
8 *313:10 0.000326988
9 *1929:A1 *1926:A 3.26889e-05
10 *1929:A1 *1930:C 1.85674e-05
11 *1930:B *1930:C 4.99619e-05
12 *1985:A *1985:B 4.47125e-05
13 *1985:A *1985:C 6.29663e-05
14 *1985:A *317:8 1.12578e-05
15 *1985:A *377:12 0.000150618
16 *313:10 *314:10 7.23533e-05
17 *313:10 *521:107 3.86607e-05
18 *313:25 *1930:C 0.000308936
19 *313:25 *317:8 4.99619e-05
20 *313:34 *317:8 0.000129465
21 *312:8 *313:25 1.19928e-05
*RES
1 *1927:X *313:10 6.47 
2 *313:10 *1929:A1 2.215 
3 *313:10 *313:25 4.635 
4 *313:25 *1930:B 2.395 
5 *313:25 *313:34 2.865 
6 *313:34 *1986:A1 1.6 
7 *313:34 *1985:A 5.635 
*END

*D_NET *314 0.00115598
*CONN
*I *1930:C I *D sky130_fd_sc_hd__nor3_1
*I *1929:A2 I *D sky130_fd_sc_hd__o21a_1
*I *1928:Y O *D sky130_fd_sc_hd__a21oi_1
*CAP
1 *1930:C 7.85639e-05
2 *1929:A2 0
3 *1928:Y 0.000146251
4 *314:10 0.000224815
5 *314:10 *1979:A 0
6 *314:10 *1981:C 1.70935e-05
7 *314:10 *521:107 3.90184e-05
8 *1929:A1 *1930:C 1.85674e-05
9 *1930:A *1930:C 0.00012657
10 *1930:B *1930:C 4.99619e-05
11 *312:8 *1930:C 7.38465e-05
12 *313:10 *314:10 7.23533e-05
13 *313:25 *1930:C 0.000308936
*RES
1 *1928:Y *314:10 8 
2 *314:10 *1929:A2 1.6 
3 *314:10 *1930:C 5.395 
*END

*D_NET *315 0.00345251
*CONN
*I *1588:B I *D sky130_fd_sc_hd__and3b_2
*I *1810:C I *D sky130_fd_sc_hd__or4b_4
*I *1805:D1 I *D sky130_fd_sc_hd__o2111a_1
*I *1587:Y O *D sky130_fd_sc_hd__nor2_1
*CAP
1 *1588:B 0.000236144
2 *1810:C 0
3 *1805:D1 0.00010174
4 *1587:Y 6.39827e-05
5 *315:23 0.000907044
6 *315:10 0.000836622
7 *1588:B *1588:A_N 9.07793e-05
8 *1588:B *1810:B 3.66286e-05
9 *1588:B *511:31 5.33172e-05
10 *1805:D1 *1809:A 5.4003e-05
11 *1805:D1 *1809:C 7.90106e-05
12 *1805:D1 *500:29 1.73877e-05
13 *1805:D1 *500:31 2.0413e-05
14 *1805:D1 *522:75 9.50342e-06
15 *315:10 *1809:A 6.45236e-05
16 *315:10 *489:79 4.43871e-06
17 *315:10 *500:29 2.16389e-05
18 *315:23 *1807:B 6.97118e-05
19 *315:23 *1809:D_N 7.10578e-05
20 *315:23 *1810:B 4.99619e-05
21 *315:23 *511:52 2.30292e-05
22 *315:23 *511:60 0.000394217
23 *315:23 *532:24 0.000130536
24 op_out[0] *315:10 4.82919e-05
25 *191:63 *1805:D1 9.29751e-06
26 *230:8 *1805:D1 3.50033e-05
27 *230:10 *1805:D1 2.42236e-05
*RES
1 *1587:Y *315:10 4.92 
2 *315:10 *1805:D1 6.255 
3 *315:10 *315:23 11.075 
4 *315:23 *1810:C 1.6 
5 *315:23 *1588:B 4.81 
*END

*D_NET *316 0.00104995
*CONN
*I *1932:B I *D sky130_fd_sc_hd__or3_1
*I *1931:A I *D sky130_fd_sc_hd__nor2_1
*I *1929:X O *D sky130_fd_sc_hd__o21a_1
*CAP
1 *1932:B 0.000253921
2 *1931:A 4.83619e-05
3 *1929:X 0.000102391
4 *316:12 0.000404674
5 *1931:A *1931:B 5.4155e-06
6 *1931:A *1933:B 0
7 *1932:B *1931:B 9.27255e-06
8 *1932:B *1933:B 8.8266e-05
9 *1932:B *495:27 1.0124e-05
10 *316:12 *495:27 5.36384e-06
11 *316:12 *521:107 0
12 *1932:A *1931:A 0
13 *1932:A *1932:B 0.000122155
*RES
1 *1929:X *316:12 6.92 
2 *316:12 *1931:A 2.47 
3 *316:12 *1932:B 5.155 
*END

*D_NET *317 0.0023358
*CONN
*I *1985:B I *D sky130_fd_sc_hd__nor3_1
*I *1986:A2 I *D sky130_fd_sc_hd__o21a_1
*I *1931:B I *D sky130_fd_sc_hd__nor2_1
*I *1932:C I *D sky130_fd_sc_hd__or3_1
*I *1930:Y O *D sky130_fd_sc_hd__nor3_1
*CAP
1 *1985:B 0.000102351
2 *1986:A2 0
3 *1931:B 0.000160888
4 *1932:C 0
5 *1930:Y 0.000277854
6 *317:18 0.000377735
7 *317:10 0.000237657
8 *317:8 0.000401014
9 *1931:B *1933:B 3.72916e-05
10 *1931:B *495:27 8.8266e-05
11 *1985:B *1985:C 0.000122337
12 *1985:B *1987:A 4.99619e-05
13 *1985:B *377:12 5.57182e-05
14 *317:18 *2030:A 0
15 *317:18 *375:12 5.53249e-06
16 *1931:A *1931:B 5.4155e-06
17 *1932:A *1931:B 0.000119151
18 *1932:A *317:18 4.99619e-05
19 *1932:B *1931:B 9.27255e-06
20 *1985:A *1985:B 4.47125e-05
21 *1985:A *317:8 1.12578e-05
22 *311:12 *317:18 0
23 *313:25 *317:8 4.99619e-05
24 *313:34 *317:8 0.000129465
*RES
1 *1930:Y *317:8 5.515 
2 *317:8 *317:10 0.36 
3 *317:10 *317:18 7.54 
4 *317:18 *1932:C 1.6 
5 *317:18 *1931:B 5.185 
6 *317:10 *1986:A2 1.6 
7 *317:8 *1985:B 4.135 
*END

*D_NET *318 0.00020007
*CONN
*I *1933:B I *D sky130_fd_sc_hd__xnor2_1
*I *1931:Y O *D sky130_fd_sc_hd__nor2_1
*CAP
1 *1933:B 3.24893e-05
2 *1931:Y 3.24893e-05
3 *1931:A *1933:B 0
4 *1931:B *1933:B 3.72916e-05
5 *1932:A *1933:B 9.53428e-06
6 *1932:B *1933:B 8.8266e-05
*RES
1 *1931:Y *1933:B 4.355 
*END

*D_NET *319 0.00259938
*CONN
*I *1991:A1 I *D sky130_fd_sc_hd__a21oi_1
*I *1990:A I *D sky130_fd_sc_hd__and3_1
*I *1932:X O *D sky130_fd_sc_hd__or3_1
*CAP
1 *1991:A1 0.000196389
2 *1990:A 2.08101e-05
3 *1932:X 0.000976336
4 *319:6 0.00119354
5 *1990:A *1990:C 0
6 *1991:A1 *1990:B 1.76069e-06
7 *1991:A1 *1990:C 0.000110683
8 *1991:A1 *383:8 3.09179e-05
9 *319:6 *1988:A 2.49909e-05
10 *319:6 *2032:A2 4.3954e-05
*RES
1 *1932:X *319:6 12.4 
2 *319:6 *1990:A 1.96 
3 *319:6 *1991:A1 4.12 
*END

*D_NET *320 0.00212447
*CONN
*I *1935:B I *D sky130_fd_sc_hd__nand2_1
*I *1934:B I *D sky130_fd_sc_hd__or2_1
*I *1933:Y O *D sky130_fd_sc_hd__xnor2_1
*CAP
1 *1935:B 0
2 *1934:B 0.000150591
3 *1933:Y 0.000798539
4 *320:12 0.000949131
5 *1934:B *322:8 2.30292e-05
6 *320:12 *2030:A 0
7 *1935:A *1934:B 0.000203178
8 *311:12 *320:12 0
*RES
1 *1933:Y *320:12 17.435 
2 *320:12 *1934:B 4.48 
3 *320:12 *1935:B 1.6 
*END

*D_NET *321 8.68287e-05
*CONN
*I *1936:A I *D sky130_fd_sc_hd__nand2_1
*I *1934:X O *D sky130_fd_sc_hd__or2_1
*CAP
1 *1936:A 1.84334e-05
2 *1934:X 1.84334e-05
3 *1936:A *322:8 4.99619e-05
*RES
1 *1934:X *1936:A 3.65 
*END

*D_NET *322 0.00186704
*CONN
*I *1936:B I *D sky130_fd_sc_hd__nand2_1
*I *1991:A2 I *D sky130_fd_sc_hd__a21oi_1
*I *1990:B I *D sky130_fd_sc_hd__and3_1
*I *1935:Y O *D sky130_fd_sc_hd__nand2_1
*CAP
1 *1936:B 0
2 *1991:A2 0
3 *1990:B 0.000201122
4 *1935:Y 0.000188877
5 *322:12 0.00028839
6 *322:8 0.000276145
7 *1990:B *1990:C 1.63672e-05
8 *1990:B *2014:B 0
9 *1990:B *2035:A 2.97004e-06
10 *1990:B *2036:B 0
11 *1990:B *381:16 2.9664e-05
12 *1990:B *382:14 4.99619e-05
13 *1990:B *383:8 7.10578e-05
14 *1990:B *383:14 1.71013e-05
15 *322:8 *1992:A1 3.26889e-05
16 *322:8 *382:14 0.000198939
17 *322:12 *382:14 0
18 *322:12 *383:14 9.428e-05
19 *1934:B *322:8 2.30292e-05
20 *1935:A *322:8 0.000278111
21 *1936:A *322:8 4.99619e-05
22 *1991:A1 *1990:B 1.76069e-06
23 *310:12 *322:8 4.66108e-05
*RES
1 *1935:Y *322:8 6.55 
2 *322:8 *322:12 3.89 
3 *322:12 *1990:B 6.645 
4 *322:12 *1991:A2 3.6 
5 *322:8 *1936:B 1.6 
*END

*D_NET *323 0.00268081
*CONN
*I *1938:B1 I *D sky130_fd_sc_hd__a21oi_1
*I *1937:C I *D sky130_fd_sc_hd__and3_1
*I *1936:Y O *D sky130_fd_sc_hd__nand2_1
*CAP
1 *1938:B1 0.000196786
2 *1937:C 3.76968e-05
3 *1936:Y 0.000716521
4 *323:8 0.000951004
5 *1938:B1 *1970:A2 9.53428e-06
6 *1938:B1 *325:10 4.9253e-06
7 *323:8 *361:12 9.54469e-05
8 *323:8 *363:10 0
9 *323:8 *385:31 0
10 *323:8 *388:8 0
11 *323:8 *496:72 0
12 *323:8 *514:10 0
13 *323:8 *533:12 0.000103185
14 *323:8 *533:26 0
15 *323:8 *538:38 0
16 *323:8 *544:14 0
17 *1937:A *1938:B1 8.76033e-05
18 *1937:A *323:8 9.50342e-06
19 *1937:B *1937:C 6.37488e-06
20 *1937:B *1938:B1 5.02217e-05
21 *1937:B *323:8 5.74016e-05
22 *1938:A1 *1938:B1 0.000122337
23 *1971:A2 *323:8 5.85158e-05
24 *310:12 *323:8 0.000173751
*RES
1 *1936:Y *323:8 17.73 
2 *323:8 *1937:C 4.11 
3 *323:8 *1938:B1 6.915 
*END

*D_NET *324 0.000924667
*CONN
*I *1939:A I *D sky130_fd_sc_hd__nor2_1
*I *1937:X O *D sky130_fd_sc_hd__and3_1
*CAP
1 *1939:A 0.000425465
2 *1937:X 0.000425465
3 *1939:A *1940:B 0
4 *1939:A *360:8 2.67022e-05
5 *1939:A *431:12 4.70343e-05
*RES
1 *1937:X *1939:A 12.48 
*END

*D_NET *325 0.000539913
*CONN
*I *1939:B I *D sky130_fd_sc_hd__nor2_1
*I *1970:B1 I *D sky130_fd_sc_hd__a21o_1
*I *1938:Y O *D sky130_fd_sc_hd__a21oi_1
*CAP
1 *1939:B 4.09849e-05
2 *1970:B1 0
3 *1938:Y 0.000126886
4 *325:10 0.000167871
5 *1939:B *327:6 0.00012657
6 *325:10 *1970:A2 4.8156e-05
7 *325:10 *327:6 2.0514e-05
8 *1938:B1 *325:10 4.9253e-06
9 *290:8 *325:10 4.00541e-06
*RES
1 *1938:Y *325:10 3.805 
2 *325:10 *1970:B1 1.6 
3 *325:10 *1939:B 2.74 
*END

*D_NET *326 0.0168066
*CONN
*I *2004:A1 I *D sky130_fd_sc_hd__a211o_1
*I *2041:B2 I *D sky130_fd_sc_hd__a32o_1
*I *1961:A1 I *D sky130_fd_sc_hd__a31o_1
*I *1799:B1 I *D sky130_fd_sc_hd__o21a_1
*I *1837:A1 I *D sky130_fd_sc_hd__a22o_1
*I *1917:A1 I *D sky130_fd_sc_hd__a211oi_1
*I *1860:A1 I *D sky130_fd_sc_hd__a211o_1
*I *1889:A1 I *D sky130_fd_sc_hd__a211o_1
*I *1588:X O *D sky130_fd_sc_hd__and3b_2
*CAP
1 *2004:A1 0
2 *2041:B2 0
3 *1961:A1 0
4 *1799:B1 0.000624569
5 *1837:A1 0
6 *1917:A1 0.000122553
7 *1860:A1 0.000221274
8 *1889:A1 0
9 *1588:X 0.000451689
10 *326:95 0.00179446
11 *326:49 0.000380436
12 *326:40 0.000200741
13 *326:36 0.001649
14 *326:28 0.000793532
15 *326:18 0.000913097
16 *326:8 0.000886229
17 *1799:B1 *1837:A2 9.50342e-06
18 *1799:B1 *501:12 0
19 *1799:B1 *501:16 0
20 *1799:B1 *532:24 0.000975117
21 *1860:A1 *518:103 6.58725e-05
22 *1917:A1 *1589:B 0
23 *1917:A1 *491:16 0.000101317
24 *1917:A1 *517:110 0
25 *326:8 *1814:A 0.000136606
26 *326:8 *2004:B1 9.428e-05
27 *326:8 *2007:B 0.000100297
28 *326:8 *2082:A 0
29 *326:8 *511:8 6.61742e-05
30 *326:8 *522:16 0
31 *326:18 *2004:B1 5.53249e-06
32 *326:18 *2041:A1 4.00541e-06
33 *326:18 *2082:A 0
34 *326:18 *490:105 0.00023635
35 *326:18 *492:39 2.45662e-05
36 *326:18 *492:53 0.000208148
37 *326:18 *501:240 1.08723e-05
38 *326:28 *1961:A2 1.47347e-05
39 *326:28 *1961:B1 0.000129028
40 *326:28 *1962:C 0.0011138
41 *326:28 *533:59 0.00017824
42 *326:36 *1831:A 0.000105849
43 *326:36 *1961:A2 0.000390622
44 *326:36 *491:16 0.000209179
45 *326:36 *561:185 0.000646659
46 *326:40 *491:16 0.000307688
47 *326:95 *1831:A 0.000341885
48 *326:95 *1837:A2 0.000246599
49 *326:95 *501:12 7.96104e-06
50 *326:95 *512:176 0
51 *326:95 *520:179 0
52 *326:95 *533:85 0.000462829
53 *1774:C1 *326:95 7.21296e-06
54 *1799:A1 *1799:B1 0
55 *1823:B1 *326:28 0.000382769
56 *1832:A *326:95 4.49844e-05
57 *1860:B1 *326:40 1.37861e-05
58 *1860:C1 *1860:A1 8.07399e-05
59 *1860:C1 *1917:A1 2.8185e-05
60 *1860:C1 *326:49 4.66108e-05
61 *1861:B1 *326:95 0.000845997
62 *1862:B1 *326:95 3.50599e-05
63 *1889:A2 *326:40 9.50342e-06
64 *1890:A_N *326:40 0
65 *1917:B1 *1917:A1 5.20968e-05
66 *1917:C1 *1917:A1 9.26907e-06
67 *2001:B1 *326:8 0
68 *178:17 *1799:B1 2.23407e-05
69 *178:17 *326:95 7.36562e-05
70 *188:23 *326:8 0
71 *188:23 *326:18 0
72 *188:36 *326:28 5.5554e-05
73 *190:31 *326:18 0.000111776
74 *196:10 *326:8 0
75 *197:22 *326:28 0.000118081
76 *197:95 *326:18 3.73232e-05
77 *205:52 *326:28 8.17796e-05
78 *215:12 *1799:B1 0
79 *219:70 *326:95 0.0002253
80 *223:12 *326:95 0.000254651
81 *224:16 *326:95 3.86529e-05
*RES
1 *1588:X *326:8 12.375 
2 *326:8 *326:18 10.7 
3 *326:18 *326:28 18.085 
4 *326:28 *326:36 11.42 
5 *326:36 *326:40 5.675 
6 *326:40 *1889:A1 1.6 
7 *326:40 *326:49 1.065 
8 *326:49 *1860:A1 5.635 
9 *326:49 *1917:A1 8.54 
10 *326:36 *326:95 33.74 
11 *326:95 *1837:A1 3.6 
12 *326:95 *1799:B1 8.08967 
13 *326:28 *1961:A1 1.6 
14 *326:18 *2041:B2 1.6 
15 *326:8 *2004:A1 3.6 
*END

*D_NET *327 0.000980694
*CONN
*I *1940:B I *D sky130_fd_sc_hd__xnor2_1
*I *1970:A2 I *D sky130_fd_sc_hd__a21o_1
*I *1939:Y O *D sky130_fd_sc_hd__nor2_1
*CAP
1 *1940:B 0.000105068
2 *1970:A2 5.62458e-05
3 *1939:Y 9.90949e-05
4 *327:6 0.000260409
5 *1940:B *388:8 0.000208491
6 *1940:B *431:12 0
7 *1938:B1 *1970:A2 9.53428e-06
8 *1939:A *1940:B 0
9 *1939:B *327:6 0.00012657
10 *1970:A1 *1970:A2 4.66108e-05
11 *290:8 *1970:A2 0
12 *325:10 *1970:A2 4.8156e-05
13 *325:10 *327:6 2.0514e-05
*RES
1 *1939:Y *327:6 3.43 
2 *327:6 *1970:A2 2.755 
3 *327:6 *1940:B 8 
*END

*D_NET *328 0.00148928
*CONN
*I *1941:B I *D sky130_fd_sc_hd__or2_1
*I *1943:B I *D sky130_fd_sc_hd__nand2_1
*I *1940:Y O *D sky130_fd_sc_hd__xnor2_1
*CAP
1 *1941:B 0
2 *1943:B 0.000100028
3 *1940:Y 0.00040063
4 *328:12 0.000500658
5 *328:12 *388:8 0
6 *328:12 *431:12 0.000382871
7 *1943:A *1943:B 4.78882e-05
8 *292:10 *328:12 5.72004e-05
*RES
1 *1940:Y *328:12 14.15 
2 *328:12 *1943:B 3.46 
3 *328:12 *1941:B 1.6 
*END

*D_NET *329 0.00153316
*CONN
*I *1942:A I *D sky130_fd_sc_hd__inv_2
*I *1997:A I *D sky130_fd_sc_hd__xnor2_1
*I *1944:A I *D sky130_fd_sc_hd__nand2_1
*I *1941:X O *D sky130_fd_sc_hd__or2_1
*CAP
1 *1942:A 9.45421e-05
2 *1997:A 3.37585e-05
3 *1944:A 3.15136e-05
4 *1941:X 0.000150099
5 *329:23 0.000184891
6 *329:10 0.000238203
7 *1942:A *2012:A1 2.11084e-05
8 *1944:A *332:10 5.83121e-06
9 *329:10 *1944:B 0.000321522
10 *329:10 *388:8 0.000150862
11 *329:10 *431:12 0
12 *329:23 *1944:B 8.53113e-06
13 *329:23 *332:10 0.000116853
14 *329:23 *388:8 6.5265e-05
15 *329:23 *431:12 0
16 *1909:A *329:10 2.75229e-05
17 *1909:B *329:10 5.39961e-05
18 *292:10 *329:10 2.86623e-05
*RES
1 *1941:X *329:10 8.745 
2 *329:10 *1944:A 4.05 
3 *329:10 *329:23 3.89 
4 *329:23 *1997:A 2.05 
5 *329:23 *1942:A 3.085 
*END

*D_NET *330 0.000462943
*CONN
*I *2012:A1 I *D sky130_fd_sc_hd__o21ai_1
*I *1942:Y O *D sky130_fd_sc_hd__inv_2
*CAP
1 *2012:A1 0.00012346
2 *1942:Y 0.00012346
3 *2012:A1 *334:19 5.4003e-05
4 *2012:A1 *389:12 0.000140912
5 *2012:A1 *431:12 0
6 *1942:A *2012:A1 2.11084e-05
*RES
1 *1942:Y *2012:A1 9.63 
*END

*D_NET *331 0.00107096
*CONN
*I *1944:B I *D sky130_fd_sc_hd__nand2_1
*I *1943:Y O *D sky130_fd_sc_hd__nand2_1
*CAP
1 *1944:B 0.000283154
2 *1943:Y 0.000283154
3 *1944:B *431:12 0
4 *1909:A *1944:B 2.75145e-05
5 *1943:A *1944:B 0.00012657
6 *292:19 *1944:B 2.0514e-05
7 *329:10 *1944:B 0.000321522
8 *329:23 *1944:B 8.53113e-06
*RES
1 *1943:Y *1944:B 12.705 
*END

*D_NET *332 0.00219101
*CONN
*I *1947:A2 I *D sky130_fd_sc_hd__o21a_1
*I *1945:B I *D sky130_fd_sc_hd__nand2_1
*I *1946:B I *D sky130_fd_sc_hd__nor2_1
*I *1944:Y O *D sky130_fd_sc_hd__nand2_1
*CAP
1 *1947:A2 0.000107595
2 *1945:B 0
3 *1946:B 9.99541e-05
4 *1944:Y 0.000225849
5 *332:25 0.000378763
6 *332:10 0.000596972
7 *1946:B *2012:B1 0.0001249
8 *1946:B *334:6 6.52181e-05
9 *332:10 *2012:B1 0
10 *332:10 *388:8 0
11 *332:10 *389:12 0.000139245
12 *332:10 *431:12 0
13 *332:25 *389:12 0.000163019
14 *332:25 *405:10 0.00011852
15 *1944:A *332:10 5.83121e-06
16 *1945:A *1947:A2 4.82919e-05
17 *329:23 *332:10 0.000116853
*RES
1 *1944:Y *332:10 7.725 
2 *332:10 *1946:B 5.775 
3 *332:10 *332:25 7.1 
4 *332:25 *1945:B 1.6 
5 *332:25 *1947:A2 3.445 
*END

*D_NET *333 0.00131173
*CONN
*I *1960:B1 I *D sky130_fd_sc_hd__a221o_1
*I *1945:Y O *D sky130_fd_sc_hd__nand2_1
*CAP
1 *1960:B1 0.000650233
2 *1945:Y 0.000650233
3 *1960:B1 *1960:B2 1.12643e-05
4 *1960:B1 *405:10 0
5 *196:75 *1960:B1 0
*RES
1 *1945:Y *1960:B1 16.095 
*END

*D_NET *334 0.00152984
*CONN
*I *1999:A I *D sky130_fd_sc_hd__nand2_1
*I *1998:A I *D sky130_fd_sc_hd__or2_1
*I *2012:A2 I *D sky130_fd_sc_hd__o21ai_1
*I *1946:Y O *D sky130_fd_sc_hd__nor2_1
*CAP
1 *1999:A 3.01225e-05
2 *1998:A 2.12116e-05
3 *2012:A2 0
4 *1946:Y 0.000149934
5 *334:19 0.00023769
6 *334:6 0.00033629
7 *1998:A *389:12 4.82863e-05
8 *1999:A *1999:B 3.83041e-05
9 *1999:A *389:12 4.82919e-05
10 *334:6 *2012:B1 0.0001249
11 *334:19 *389:12 0.000204367
12 *334:19 *431:12 0.00017122
13 *1946:B *334:6 6.52181e-05
14 *2012:A1 *334:19 5.4003e-05
*RES
1 *1946:Y *334:6 4.12 
2 *334:6 *2012:A2 1.6 
3 *334:6 *334:19 9.49 
4 *334:19 *1998:A 2.05 
5 *334:19 *1999:A 2.395 
*END

*D_NET *335 0.00108644
*CONN
*I *1960:B2 I *D sky130_fd_sc_hd__a221o_1
*I *1947:X O *D sky130_fd_sc_hd__o21a_1
*CAP
1 *1960:B2 0.000371307
2 *1947:X 0.000371307
3 *1960:B2 *1958:A2 2.36616e-05
4 *1960:B2 *1958:B2 8.08439e-05
5 *1960:B2 *1960:C1 0.000188219
6 *1960:B2 *1961:B1 3.98372e-05
7 *1960:B1 *1960:B2 1.12643e-05
*RES
1 *1947:X *1960:B2 12.8438 
*END

*D_NET *336 0.00574386
*CONN
*I *1954:A I *D sky130_fd_sc_hd__nand2_1
*I *1955:A I *D sky130_fd_sc_hd__or2_1
*I *1948:X O *D sky130_fd_sc_hd__a21o_1
*CAP
1 *1954:A 0
2 *1955:A 0.000136349
3 *1948:X 0.00177136
4 *336:16 0.00190771
5 *1955:A *1954:B 0.000363366
6 *1955:A *1955:B 2.30292e-05
7 *1955:A *343:8 0.000164874
8 *1955:A *343:21 0.000131166
9 *336:16 *1958:B2 8.65961e-05
10 *336:16 *1961:B1 2.3051e-05
11 *336:16 *2039:A2 3.63661e-05
12 *336:16 *2040:B2 0.00015007
13 *336:16 *2042:B1 0.000230429
14 *336:16 *2097:A 4.58166e-05
15 *336:16 *491:147 0.000121065
16 *336:16 *492:39 0.000120655
17 *336:16 *513:84 0.000128537
18 *336:16 *545:41 0
19 *1804:B *336:16 1.83756e-05
20 *1891:A *336:16 3.38858e-05
21 *1956:A_N *1955:A 4.82919e-05
22 *1956:A_N *336:16 0
23 *1957:B1 *336:16 0.000162156
24 *190:20 *336:16 4.07182e-05
*RES
1 *1948:X *336:16 29.885 
2 *336:16 *1955:A 6.565 
3 *336:16 *1954:A 1.6 
*END

*D_NET *337 0.00383238
*CONN
*I *2106:A I *D sky130_fd_sc_hd__dlygate4sd1_1
*I *2112:A I *D sky130_fd_sc_hd__dlygate4sd1_1
*I *2116:A I *D sky130_fd_sc_hd__dlymetal6s2s_1
*I *1592:A4 I *D sky130_fd_sc_hd__o41ai_4
*I *1594:B1 I *D sky130_fd_sc_hd__a211o_1
*I *1589:X O *D sky130_fd_sc_hd__or4_4
*CAP
1 *2106:A 4.44374e-05
2 *2112:A 0
3 *2116:A 1.36534e-05
4 *1592:A4 0.00035021
5 *1594:B1 0.000124398
6 *1589:X 0
7 *337:20 0.000512172
8 *337:18 0.000174428
9 *337:10 0.000197489
10 *337:6 0.000118715
11 *1592:A4 *1598:A2 0.000447414
12 *1592:A4 *369:19 5.16348e-05
13 *1592:A4 *510:133 5.16348e-05
14 *1594:B1 *1594:A1 2.49909e-05
15 *1594:B1 *1961:A3 0.000241171
16 *1594:B1 *391:21 4.82863e-05
17 *1594:B1 *493:45 8.53113e-06
18 *1594:B1 *562:34 8.82193e-05
19 *2106:A *518:120 0.000112679
20 *2106:A *561:143 0.000101945
21 *2106:A *561:160 7.9642e-06
22 *2116:A *1634:A2 4.66108e-05
23 *2116:A *493:45 4.66108e-05
24 *337:10 *1961:A3 1.23244e-05
25 *337:10 *412:14 9.50342e-06
26 *337:10 *518:120 0.000204668
27 *337:10 *561:143 9.63396e-05
28 *337:10 *562:34 0.000139966
29 *337:18 *1590:B 3.12176e-05
30 *337:18 *1961:A3 0.000158297
31 *337:18 *412:14 0.000140384
32 *337:18 *562:34 1.86688e-05
33 *337:20 *1961:A3 0.000114492
34 *337:20 *493:45 8.5242e-05
35 *337:20 *562:34 8.08153e-06
*RES
1 *1589:X *337:6 3.6 
2 *337:6 *337:10 4.91 
3 *337:10 *337:18 5.045 
4 *337:18 *337:20 1.38 
5 *337:20 *1594:B1 6.96 
6 *337:20 *1592:A4 12.46 
7 *337:18 *2116:A 4.05 
8 *337:10 *2112:A 1.6 
9 *337:6 *2106:A 4.98 
*END

*D_NET *338 0.00194017
*CONN
*I *1963:B1 I *D sky130_fd_sc_hd__a21o_1
*I *1950:B I *D sky130_fd_sc_hd__xnor2_1
*I *1949:X O *D sky130_fd_sc_hd__o21a_1
*CAP
1 *1963:B1 0.000329075
2 *1950:B 2.40194e-05
3 *1949:X 9.30841e-05
4 *338:10 0.000446178
5 *1950:B *1950:A 4.82863e-05
6 *1950:B *2005:B1 8.65905e-05
7 *1963:B1 *1950:A 0.000188069
8 *1963:B1 *1952:B 0
9 *1963:B1 *1963:A1 0.000272726
10 *1963:B1 *2005:B1 0.000197269
11 *338:10 *490:182 0.000140912
12 *338:10 *491:185 0
13 *338:10 *545:41 0
14 *191:89 *1963:B1 1.53032e-05
15 *191:89 *338:10 9.86611e-05
*RES
1 *1949:X *338:10 8 
2 *338:10 *1950:B 2.395 
3 *338:10 *1963:B1 13.655 
*END

*D_NET *339 0.00142087
*CONN
*I *1951:B I *D sky130_fd_sc_hd__or2_1
*I *1952:B I *D sky130_fd_sc_hd__nand2_1
*I *1950:Y O *D sky130_fd_sc_hd__xnor2_1
*CAP
1 *1951:B 0.000118901
2 *1952:B 0.000156962
3 *1950:Y 0.000179111
4 *339:6 0.000454973
5 *1951:B *1951:A 4.60584e-05
6 *1951:B *490:182 7.53266e-05
7 *1952:B *1952:A 0.000113988
8 *339:6 *490:182 0.000275548
9 *1963:B1 *1952:B 0
*RES
1 *1950:Y *339:6 4.12 
2 *339:6 *1952:B 8.51 
3 *339:6 *1951:B 3.445 
*END

*D_NET *340 6.92906e-05
*CONN
*I *1953:A I *D sky130_fd_sc_hd__and2_1
*I *1951:X O *D sky130_fd_sc_hd__or2_1
*CAP
1 *1953:A 1.96262e-05
2 *1951:X 1.96262e-05
3 *1953:A *2005:B1 3.00381e-05
*RES
1 *1951:X *1953:A 3.65 
*END

*D_NET *341 0.00249664
*CONN
*I *1967:A1 I *D sky130_fd_sc_hd__a21oi_1
*I *1968:A1 I *D sky130_fd_sc_hd__a31o_1
*I *1953:B I *D sky130_fd_sc_hd__and2_1
*I *1952:Y O *D sky130_fd_sc_hd__nand2_1
*CAP
1 *1967:A1 6.63691e-05
2 *1968:A1 0
3 *1953:B 0.000173324
4 *1952:Y 0.000395525
5 *341:23 0.000147494
6 *341:8 0.000649974
7 *1953:B *2005:B1 0.000115762
8 *1953:B *2043:C1 0.000100066
9 *1953:B *343:21 0.00025063
10 *1967:A1 *1967:A2 0.000180256
11 *1967:A1 *1967:B1 4.82863e-05
12 *1967:A1 *1968:A2 1.85674e-05
13 *1967:A1 *1968:A3 1.08758e-05
14 *1967:A1 *356:8 1.19928e-05
15 *341:8 *1969:A 6.97034e-05
16 *341:8 *2004:B1 0.000116448
17 *341:23 *1967:B1 4.43871e-06
18 *341:23 *2043:C1 3.90266e-05
19 *341:23 *343:21 6.21553e-05
20 *1956:A_N *341:23 0
21 *2011:A *1967:A1 2.10134e-05
22 *192:102 *1967:A1 1.47347e-05
23 *192:102 *341:23 0
*RES
1 *1952:Y *341:8 8.535 
2 *341:8 *1953:B 8.34 
3 *341:8 *341:23 3.38 
4 *341:23 *1968:A1 1.6 
5 *341:23 *1967:A1 3.895 
*END

*D_NET *342 0.00112441
*CONN
*I *1955:B I *D sky130_fd_sc_hd__or2_1
*I *1954:B I *D sky130_fd_sc_hd__nand2_1
*I *1953:X O *D sky130_fd_sc_hd__and2_1
*CAP
1 *1955:B 7.34622e-05
2 *1954:B 0.000101782
3 *1953:X 4.37972e-05
4 *342:10 0.000219041
5 *1954:B *1956:C 0.000200615
6 *1955:B *343:21 1.03323e-05
7 *342:10 *343:21 5.21046e-05
8 *1955:A *1954:B 0.000363366
9 *1955:A *1955:B 2.30292e-05
10 *1956:A_N *342:10 3.68769e-05
*RES
1 *1953:X *342:10 6.725 
2 *342:10 *1954:B 5.17 
3 *342:10 *1955:B 2.74 
*END

*D_NET *343 0.00271603
*CONN
*I *1967:A2 I *D sky130_fd_sc_hd__a21oi_1
*I *1968:A2 I *D sky130_fd_sc_hd__a31o_1
*I *1956:B I *D sky130_fd_sc_hd__and3b_1
*I *1954:Y O *D sky130_fd_sc_hd__nand2_1
*CAP
1 *1967:A2 0.000230909
2 *1968:A2 2.89361e-05
3 *1956:B 0
4 *1954:Y 9.13601e-05
5 *343:21 0.000772867
6 *343:8 0.000604382
7 *1967:A2 *1968:A3 1.19928e-05
8 *343:21 *1961:B1 0
9 *343:21 *1969:B 0
10 *343:21 *2043:A2 5.55344e-05
11 *343:21 *2043:C1 0
12 *1953:B *343:21 0.00025063
13 *1955:A *343:8 0.000164874
14 *1955:A *343:21 0.000131166
15 *1955:B *343:21 1.03323e-05
16 *1956:A_N *343:21 4.99619e-05
17 *1967:A1 *1967:A2 0.000180256
18 *1967:A1 *1968:A2 1.85674e-05
19 *341:23 *343:21 6.21553e-05
20 *342:10 *343:21 5.21046e-05
*RES
1 *1954:Y *343:8 3.445 
2 *343:8 *1956:B 1.6 
3 *343:8 *343:21 13.09 
4 *343:21 *1968:A2 2.215 
5 *343:21 *1967:A2 4.735 
*END

*D_NET *344 0.000390404
*CONN
*I *1956:C I *D sky130_fd_sc_hd__and3b_1
*I *1955:X O *D sky130_fd_sc_hd__or2_1
*CAP
1 *1956:C 9.48944e-05
2 *1955:X 9.48944e-05
3 *1954:B *1956:C 0.000200615
*RES
1 *1955:X *1956:C 5.03 
*END

*D_NET *345 0.00748123
*CONN
*I *1961:B1 I *D sky130_fd_sc_hd__a31o_1
*I *1956:X O *D sky130_fd_sc_hd__and3b_1
*CAP
1 *1961:B1 0.00231928
2 *1956:X 0.00231928
3 *1961:B1 *1803:C 7.23602e-05
4 *1961:B1 *1958:A1 4.47209e-05
5 *1961:B1 *1958:A2 0.000424525
6 *1961:B1 *1961:A2 8.40269e-05
7 *1961:B1 *533:59 0.000281621
8 *1961:B1 *545:23 0
9 *1961:B1 *545:41 0
10 *1961:B1 *561:185 7.23533e-05
11 *1828:A2 *1961:B1 0.00120582
12 *1960:B2 *1961:B1 3.98372e-05
13 *188:66 *1961:B1 7.67415e-06
14 *196:62 *1961:B1 5.4003e-05
15 *196:75 *1961:B1 0.00040365
16 *326:28 *1961:B1 0.000129028
17 *336:16 *1961:B1 2.3051e-05
18 *343:21 *1961:B1 0
*RES
1 *1956:X *1961:B1 45.55 
*END

*D_NET *346 0.00120093
*CONN
*I *1958:B2 I *D sky130_fd_sc_hd__o22a_1
*I *1957:Y O *D sky130_fd_sc_hd__a21oi_1
*CAP
1 *1958:B2 0.000257896
2 *1957:Y 0.000257896
3 *1958:B2 *1914:A 0.000113752
4 *1958:B2 *1958:A2 0.00011426
5 *1958:B2 *1960:A1 8.34204e-05
6 *1958:B2 *1960:C1 5.63766e-05
7 *1958:B2 *2097:A 3.00381e-05
8 *1958:B2 *490:161 4.36573e-06
9 *1958:B2 *490:182 5.33211e-05
10 *1958:B2 *545:23 0
11 *1958:B2 *545:41 0
12 *1957:B1 *1958:B2 1.34594e-05
13 *1958:B1 *1958:B2 4.87027e-05
14 *1960:B2 *1958:B2 8.08439e-05
15 *336:16 *1958:B2 8.65961e-05
*RES
1 *1957:Y *1958:B2 14.2837 
*END

*D_NET *347 0.000621202
*CONN
*I *1960:C1 I *D sky130_fd_sc_hd__a221o_1
*I *1958:X O *D sky130_fd_sc_hd__o22a_1
*CAP
1 *1960:C1 0.000119154
2 *1958:X 0.000119154
3 *1960:C1 *1958:A2 4.85494e-05
4 *1960:C1 *545:23 8.97486e-05
5 *1958:B2 *1960:C1 5.63766e-05
6 *1960:B2 *1960:C1 0.000188219
*RES
1 *1958:X *1960:C1 10.575 
*END

*D_NET *348 0.00334528
*CONN
*I *1800:C I *D sky130_fd_sc_hd__or3_1
*I *1591:D1 I *D sky130_fd_sc_hd__a2111oi_1
*I *1592:A3 I *D sky130_fd_sc_hd__o41ai_4
*I *1594:C1 I *D sky130_fd_sc_hd__a211o_1
*I *1590:X O *D sky130_fd_sc_hd__or2_4
*CAP
1 *1800:C 0.000144347
2 *1591:D1 0
3 *1592:A3 3.06541e-05
4 *1594:C1 0.00010523
5 *1590:X 3.2574e-05
6 *348:36 0.000239028
7 *348:10 0.000257845
8 *348:8 0.000249216
9 *1592:A3 *1598:A2 0.000119762
10 *1592:A3 *2054:A 0.000119762
11 *1594:C1 *1594:A1 6.20248e-05
12 *1594:C1 *1597:B1_N 0.000137571
13 *1594:C1 *1601:A1 0.000181376
14 *1594:C1 *391:21 7.83347e-05
15 *1594:C1 *520:65 1.07797e-05
16 *1594:C1 *520:76 7.49327e-05
17 *1800:C *2041:B1 0.00015639
18 *1800:C *490:89 6.47274e-05
19 *1800:C *510:133 0.000149062
20 *1800:C *520:126 9.80032e-06
21 *1800:C *543:14 1.7635e-05
22 *1800:C *561:143 0.00026617
23 *348:8 *1600:A2 5.83121e-06
24 *348:8 *412:14 2.49909e-05
25 *348:10 *1597:B1_N 0.000103592
26 *348:10 *1601:A1 0.000331128
27 *348:10 *490:89 2.42236e-05
28 *348:10 *520:117 0.000145326
29 *348:36 *1591:C1 4.92861e-05
30 *348:36 *1961:A3 0
31 *348:36 *490:89 2.32724e-05
32 *348:36 *520:117 5.73362e-05
33 *348:36 *523:60 1.53032e-05
34 *1591:A2 *1800:C 5.05521e-05
35 *219:136 *1594:C1 7.21296e-06
*RES
1 *1590:X *348:8 4.05 
2 *348:8 *348:10 4.44 
3 *348:10 *1594:C1 7.245 
4 *348:10 *1592:A3 4.74 
5 *348:8 *348:36 4.145 
6 *348:36 *1591:D1 1.6 
7 *348:36 *1800:C 10.01 
*END

*D_NET *349 0.000447473
*CONN
*I *1962:A I *D sky130_fd_sc_hd__or3_1
*I *1959:X O *D sky130_fd_sc_hd__a32o_1
*CAP
1 *1962:A 3.09853e-05
2 *1959:X 3.09853e-05
3 *1962:A *490:105 0.000184888
4 *197:95 *1962:A 0.000200615
*RES
1 *1959:X *1962:A 5.03 
*END

*D_NET *350 0.00116027
*CONN
*I *1962:B I *D sky130_fd_sc_hd__or3_1
*I *1960:X O *D sky130_fd_sc_hd__a221o_1
*CAP
1 *1962:B 0.000447923
2 *1960:X 0.000447923
3 *1962:B *490:142 2.21994e-05
4 *1959:B1 *1962:B 7.72438e-06
5 *1960:A2 *1962:B 4.9253e-06
6 *197:95 *1962:B 0.000164352
7 *197:108 *1962:B 6.52265e-05
*RES
1 *1960:X *1962:B 8.825 
*END

*D_NET *351 0.00346201
*CONN
*I *1962:C I *D sky130_fd_sc_hd__or3_1
*I *1961:X O *D sky130_fd_sc_hd__a31o_1
*CAP
1 *1962:C 0.00100916
2 *1961:X 0.00100916
3 *1962:C *492:53 3.09233e-05
4 *1962:C *510:165 7.06865e-05
5 *1823:B1 *1962:C 2.05056e-05
6 *188:36 *1962:C 5.38986e-05
7 *188:40 *1962:C 4.35432e-05
8 *188:66 *1962:C 8.65961e-05
9 *190:31 *1962:C 2.37321e-05
10 *326:28 *1962:C 0.0011138
*RES
1 *1961:X *1962:C 21.015 
*END

*D_NET *352 0.000666901
*CONN
*I *1964:B I *D sky130_fd_sc_hd__xor2_1
*I *2008:B1 I *D sky130_fd_sc_hd__a21o_1
*I *1963:X O *D sky130_fd_sc_hd__a21o_1
*CAP
1 *1964:B 0.000158475
2 *2008:B1 0
3 *1963:X 8.09201e-05
4 *352:10 0.000239395
5 *1964:B *1964:A 9.78429e-05
6 *1964:B *532:35 4.41021e-05
7 *352:10 *2009:B 0
8 *2008:A2 *352:10 4.61658e-05
*RES
1 *1963:X *352:10 6.98 
2 *352:10 *2008:B1 1.6 
3 *352:10 *1964:B 4.825 
*END

*D_NET *353 0.000626452
*CONN
*I *1966:B I *D sky130_fd_sc_hd__xor2_1
*I *1965:A I *D sky130_fd_sc_hd__inv_2
*I *1964:X O *D sky130_fd_sc_hd__xor2_1
*CAP
1 *1966:B 0
2 *1965:A 0.000162731
3 *1964:X 0.000109473
4 *353:6 0.000272205
5 *1965:A *2006:A2 8.20425e-05
*RES
1 *1964:X *353:6 3.085 
2 *353:6 *1965:A 8.54 
3 *353:6 *1966:B 1.6 
*END

*D_NET *354 0.000647653
*CONN
*I *2006:A2 I *D sky130_fd_sc_hd__a21oi_1
*I *1965:Y O *D sky130_fd_sc_hd__inv_2
*CAP
1 *2006:A2 0.000212546
2 *1965:Y 0.000212546
3 *2006:A2 *1966:A 0.000120186
4 *2006:A2 *2010:A 2.03321e-05
5 *2006:A2 *355:10 0
6 *1965:A *2006:A2 8.20425e-05
*RES
1 *1965:Y *2006:A2 11.07 
*END

*D_NET *355 0.00133042
*CONN
*I *1967:B1 I *D sky130_fd_sc_hd__a21oi_1
*I *1968:A3 I *D sky130_fd_sc_hd__a31o_1
*I *1966:X O *D sky130_fd_sc_hd__xor2_1
*CAP
1 *1967:B1 4.20142e-05
2 *1968:A3 0.000121197
3 *1966:X 0.000161067
4 *355:10 0.000324278
5 *1967:B1 *2043:C1 5.4003e-05
6 *1967:B1 *356:8 5.83121e-06
7 *355:10 *2006:B1 2.05583e-05
8 *355:10 *2010:A 0.000130087
9 *355:10 *2010:B 0.000204456
10 *355:10 *2043:C1 9.47454e-05
11 *1967:A1 *1967:B1 4.82863e-05
12 *1967:A1 *1968:A3 1.08758e-05
13 *1967:A2 *1968:A3 1.19928e-05
14 *1968:B1 *1968:A3 3.15313e-05
15 *2006:A2 *355:10 0
16 *2011:A *1967:B1 1.19928e-05
17 *192:102 *1967:B1 0
18 *192:102 *1968:A3 5.30673e-05
19 *192:102 *355:10 0
20 *341:23 *1967:B1 4.43871e-06
*RES
1 *1966:X *355:10 7.98 
2 *355:10 *1968:A3 5.55 
3 *355:10 *1967:B1 4.665 
*END

*D_NET *356 0.00167491
*CONN
*I *2006:B1 I *D sky130_fd_sc_hd__a21oi_1
*I *1969:A I *D sky130_fd_sc_hd__nor2_1
*I *1967:Y O *D sky130_fd_sc_hd__a21oi_1
*CAP
1 *2006:B1 0.000153728
2 *1969:A 0.000277126
3 *1967:Y 1.78829e-05
4 *356:8 0.000448736
5 *1969:A *2043:C1 0.000202095
6 *2006:B1 *2010:B 0.000188209
7 *2006:B1 *2043:C1 9.48666e-05
8 *1967:A1 *356:8 1.19928e-05
9 *1967:B1 *356:8 5.83121e-06
10 *2011:A *2006:B1 0.000137571
11 *2011:A *356:8 4.66108e-05
12 *341:8 *1969:A 6.97034e-05
13 *355:10 *2006:B1 2.05583e-05
*RES
1 *1967:Y *356:8 4.05 
2 *356:8 *1969:A 8.52 
3 *356:8 *2006:B1 7.32 
*END

*D_NET *357 0.000331576
*CONN
*I *1969:B I *D sky130_fd_sc_hd__nor2_1
*I *1968:X O *D sky130_fd_sc_hd__a31o_1
*CAP
1 *1969:B 0.000104194
2 *1968:X 0.000104194
3 *1956:A_N *1969:B 0.000117825
4 *192:102 *1969:B 5.36384e-06
5 *343:21 *1969:B 0
*RES
1 *1968:X *1969:B 9.03 
*END

*D_NET *358 0.00458858
*CONN
*I *2041:B1 I *D sky130_fd_sc_hd__a32o_1
*I *1591:Y O *D sky130_fd_sc_hd__a2111oi_1
*CAP
1 *2041:B1 0.000625504
2 *1591:Y 0.000625504
3 *2041:B1 *1802:C 3.83194e-05
4 *2041:B1 *1802:D 0.000105102
5 *2041:B1 *490:89 0.000978893
6 *2041:B1 *490:105 0.000679636
7 *2041:B1 *492:53 3.04056e-05
8 *2041:B1 *492:55 0.000258998
9 *2041:B1 *520:117 9.27495e-05
10 *2041:B1 *520:126 4.92062e-05
11 *2041:B1 *523:69 0.000151242
12 *2041:B1 *523:80 0.000732762
13 *2041:B1 *533:59 1.91597e-05
14 *2041:B1 *561:143 4.47125e-05
15 *1800:C *2041:B1 0.00015639
*RES
1 *1591:Y *2041:B1 27.7275 
*END

*D_NET *359 0.00255615
*CONN
*I *2004:B1 I *D sky130_fd_sc_hd__a211o_1
*I *1969:Y O *D sky130_fd_sc_hd__nor2_1
*CAP
1 *2004:B1 0.000930864
2 *1969:Y 0.000930864
3 *2004:B1 *2003:A1 0.0001249
4 *2004:B1 *2003:C1 2.49909e-05
5 *2004:B1 *2004:C1 0.000225612
6 *2004:B1 *2082:A 1.1561e-05
7 *1816:B *2004:B1 6.1357e-05
8 *199:55 *2004:B1 2.97373e-05
9 *326:8 *2004:B1 9.428e-05
10 *326:18 *2004:B1 5.53249e-06
11 *341:8 *2004:B1 0.000116448
*RES
1 *1969:Y *2004:B1 22.305 
*END

*D_NET *360 0.00183108
*CONN
*I *1996:A I *D sky130_fd_sc_hd__xnor2_1
*I *1995:A I *D sky130_fd_sc_hd__and3_1
*I *1970:X O *D sky130_fd_sc_hd__a21o_1
*CAP
1 *1996:A 0
2 *1995:A 0.000338807
3 *1970:X 0.000215231
4 *360:8 0.000554038
5 *1995:A *1994:A 9.78003e-05
6 *1995:A *1994:B 9.39182e-05
7 *1995:A *2013:B 3.00381e-05
8 *1995:A *385:31 0.000111577
9 *1995:A *431:12 0
10 *1995:A *544:14 0.000362972
11 *360:8 *388:8 0
12 *360:8 *431:12 0
13 *1939:A *360:8 2.67022e-05
*RES
1 *1970:X *360:8 7.275 
2 *360:8 *1995:A 11.76 
3 *360:8 *1996:A 3.6 
*END

*D_NET *361 0.000586149
*CONN
*I *2013:A I *D sky130_fd_sc_hd__xnor2_1
*I *1973:A I *D sky130_fd_sc_hd__or2_1
*I *1971:X O *D sky130_fd_sc_hd__o211a_1
*CAP
1 *2013:A 0.00016077
2 *1973:A 0
3 *1971:X 8.45814e-05
4 *361:12 0.000245351
5 *361:12 *544:14 0
6 *323:8 *361:12 9.54469e-05
*RES
1 *1971:X *361:12 7.175 
2 *361:12 *1973:A 1.6 
3 *361:12 *2013:A 3.79 
*END

*D_NET *362 0.000264442
*CONN
*I *1973:B I *D sky130_fd_sc_hd__or2_1
*I *1972:Y O *D sky130_fd_sc_hd__a211oi_1
*CAP
1 *1973:B 9.18945e-05
2 *1972:Y 9.18945e-05
3 *1924:A *1973:B 3.23663e-05
4 *309:19 *1973:B 4.82863e-05
*RES
1 *1972:Y *1973:B 4.685 
*END

*D_NET *363 0.00130811
*CONN
*I *1992:B1 I *D sky130_fd_sc_hd__o21ai_1
*I *1993:A I *D sky130_fd_sc_hd__or3_1
*I *1973:X O *D sky130_fd_sc_hd__or2_1
*CAP
1 *1992:B1 8.6747e-05
2 *1993:A 0
3 *1973:X 0.000276753
4 *363:10 0.0003635
5 *1992:B1 *1992:A1 9.2741e-05
6 *1992:B1 *1992:A2 0.000196381
7 *1992:B1 *384:12 3.00381e-05
8 *363:10 *385:31 0.000261947
9 *310:12 *363:10 0
10 *323:8 *363:10 0
*RES
1 *1973:X *363:10 11.06 
2 *363:10 *1993:A 1.6 
3 *363:10 *1992:B1 4.12 
*END

*D_NET *364 0.000751166
*CONN
*I *1978:A I *D sky130_fd_sc_hd__xnor2_1
*I *1974:Y O *D sky130_fd_sc_hd__nand2_1
*CAP
1 *1978:A 0.000202107
2 *1974:Y 0.000202107
3 *1978:A *1978:B 0.000163199
4 *1978:A *2033:A 0.000118527
5 *1978:A *368:12 6.52265e-05
*RES
1 *1974:Y *1978:A 11.445 
*END

*D_NET *365 0.00132358
*CONN
*I *1977:A I *D sky130_fd_sc_hd__nor2_1
*I *1975:Y O *D sky130_fd_sc_hd__a22oi_1
*CAP
1 *1977:A 0.000238742
2 *1975:Y 0.000238742
3 *1977:A *1975:B2 1.37328e-05
4 *1977:A *1976:D 0
5 *1977:A *1977:B 8.40269e-05
6 *1977:A *2023:A 0
7 *1977:A *2030:A 1.61831e-05
8 *1977:A *496:53 2.49764e-05
9 *1977:A *496:60 0.000219021
10 *1977:A *497:59 4.82863e-05
11 *1977:A *497:63 9.6578e-05
12 *1977:A *497:80 6.77417e-05
13 *1977:A *555:20 0.000275553
*RES
1 *1975:Y *1977:A 9.455 
*END

*D_NET *366 0.00074981
*CONN
*I *1977:B I *D sky130_fd_sc_hd__nor2_1
*I *2031:B1 I *D sky130_fd_sc_hd__a31o_1
*I *1976:X O *D sky130_fd_sc_hd__and4_1
*CAP
1 *1977:B 5.60049e-05
2 *2031:B1 5.19281e-05
3 *1976:X 3.98087e-05
4 *366:8 0.000147742
5 *1977:B *496:72 3.57768e-05
6 *1977:B *497:80 8.40269e-05
7 *1977:B *513:174 7.30547e-05
8 *2031:B1 *496:72 3.86607e-05
9 *2031:B1 *513:174 0.00011379
10 *2031:B1 *561:110 0
11 *366:8 *497:80 2.49909e-05
12 *1977:A *1977:B 8.40269e-05
*RES
1 *1976:X *366:8 4.05 
2 *366:8 *2031:B1 4.98 
3 *366:8 *1977:B 5.265 
*END

*D_NET *367 0.000973531
*CONN
*I *2031:A3 I *D sky130_fd_sc_hd__a31o_1
*I *1978:B I *D sky130_fd_sc_hd__xnor2_1
*I *1977:Y O *D sky130_fd_sc_hd__nor2_1
*CAP
1 *2031:A3 0
2 *1978:B 0.000181184
3 *1977:Y 0.000116978
4 *367:10 0.000298161
5 *1978:B *1974:B 0
6 *1978:B *2030:A 0
7 *1978:B *2033:A 7.63204e-05
8 *1978:B *368:12 4.99619e-05
9 *1978:B *513:174 5.53249e-06
10 *1978:B *561:110 0
11 *367:10 *1974:B 0
12 *367:10 *497:80 2.75145e-05
13 *367:10 *513:174 5.46798e-05
14 *1978:A *1978:B 0.000163199
*RES
1 *1977:Y *367:10 5.43 
2 *367:10 *1978:B 7.485 
3 *367:10 *2031:A3 3.6 
*END

*D_NET *368 0.001684
*CONN
*I *2032:A1 I *D sky130_fd_sc_hd__a21oi_1
*I *1989:A I *D sky130_fd_sc_hd__xor2_1
*I *1978:Y O *D sky130_fd_sc_hd__xnor2_1
*CAP
1 *2032:A1 7.95932e-05
2 *1989:A 0
3 *1978:Y 0.000384586
4 *368:12 0.000464179
5 *2032:A1 *2032:B1 0.000203178
6 *2032:A1 *2033:B 2.45311e-05
7 *2032:A1 *381:16 0.00012657
8 *368:12 *2032:A2 0
9 *368:12 *2033:A 0.00028617
10 *1978:A *368:12 6.52265e-05
11 *1978:B *368:12 4.99619e-05
*RES
1 *1978:Y *368:12 13.4 
2 *368:12 *1989:A 1.6 
3 *368:12 *2032:A1 4.12 
*END

*D_NET *369 0.00229029
*CONN
*I *2105:A I *D sky130_fd_sc_hd__buf_1
*I *2095:A I *D sky130_fd_sc_hd__dlygate4sd1_1
*I *1601:A2 I *D sky130_fd_sc_hd__a211o_1
*I *1592:Y O *D sky130_fd_sc_hd__o41ai_4
*CAP
1 *2105:A 7.09591e-05
2 *2095:A 8.40652e-05
3 *1601:A2 0.000227936
4 *1592:Y 0
5 *369:19 0.000225545
6 *369:6 0.000298457
7 *1601:A2 *1873:B 0.000206817
8 *1601:A2 *497:47 4.49872e-05
9 *1601:A2 *510:133 6.88195e-05
10 *1601:A2 *512:41 0.00044149
11 *2095:A *1600:A1 4.9253e-06
12 *2095:A *493:45 0.00019637
13 *2105:A *1598:A2 4.43871e-06
14 *2105:A *497:47 2.66852e-05
15 *2105:A *510:133 0.000109533
16 *2105:A *554:10 7.26551e-05
17 *369:19 *1598:A2 7.44453e-05
18 *369:19 *497:47 1.74306e-05
19 *369:19 *510:133 6.30964e-05
20 *1592:A4 *369:19 5.16348e-05
*RES
1 *1592:Y *369:6 3.6 
2 *369:6 *1601:A2 9.705 
3 *369:6 *369:19 2.145 
4 *369:19 *2095:A 5.43 
5 *369:19 *2105:A 6 
*END

*D_NET *370 0.00136061
*CONN
*I *1984:A I *D sky130_fd_sc_hd__xor2_1
*I *2024:A1 I *D sky130_fd_sc_hd__o21bai_1
*I *1979:Y O *D sky130_fd_sc_hd__nand2_1
*CAP
1 *1984:A 0.00019118
2 *2024:A1 4.95057e-05
3 *1979:Y 0.000211662
4 *370:8 0.000452348
5 *1984:A *1983:B 0.000100528
6 *1984:A *1984:B 4.82919e-05
7 *1984:A *2024:A2 3.84331e-05
8 *1984:A *2029:A 5.4003e-05
9 *1984:A *2030:B 0
10 *2024:A1 *1979:B 0
11 *2024:A1 *2024:A2 6.47516e-05
12 *2024:A1 *2029:A 7.06865e-05
13 *370:8 *1979:A 7.65575e-05
14 *370:8 *2029:B 2.65814e-06
*RES
1 *1979:Y *370:8 6.12 
2 *370:8 *2024:A1 4.98 
3 *370:8 *1984:A 7.305 
*END

*D_NET *371 0.000449256
*CONN
*I *2027:A I *D sky130_fd_sc_hd__xor2_1
*I *1980:Y O *D sky130_fd_sc_hd__nand2_1
*CAP
1 *2027:A 0.000131388
2 *1980:Y 0.000131388
3 *2027:A *1980:A 2.75145e-05
4 *2027:A *1982:A1 0.000158965
*RES
1 *1980:Y *2027:A 5.735 
*END

*D_NET *372 0.00133731
*CONN
*I *1983:A I *D sky130_fd_sc_hd__or2_1
*I *2024:B1_N I *D sky130_fd_sc_hd__o21bai_1
*I *1981:X O *D sky130_fd_sc_hd__and3_1
*CAP
1 *1983:A 5.89982e-05
2 *2024:B1_N 0.00025749
3 *1981:X 0.000212021
4 *372:12 0.000528509
5 *1983:A *1983:B 8.65961e-05
6 *2024:B1_N *1979:A 0.000141599
7 *2024:B1_N *1982:B1 5.20968e-05
8 *2024:B1_N *1983:B 0
9 *2024:B1_N *2024:A2 0
10 *2024:B1_N *491:82 0
11 *372:12 *1979:A 0
12 *372:12 *491:82 0
*RES
1 *1981:X *372:12 8.81 
2 *372:12 *2024:B1_N 10.235 
3 *372:12 *1983:A 2.74 
*END

*D_NET *373 0.00126185
*CONN
*I *1983:B I *D sky130_fd_sc_hd__or2_1
*I *2024:A2 I *D sky130_fd_sc_hd__o21bai_1
*I *1982:Y O *D sky130_fd_sc_hd__a22oi_1
*CAP
1 *1983:B 0.000162302
2 *2024:A2 9.954e-05
3 *1982:Y 6.81816e-05
4 *373:8 0.000330024
5 *1983:B *1979:A 6.23288e-05
6 *373:8 *1982:A2 5.02285e-05
7 *373:8 *2029:B 0.000198939
8 *1983:A *1983:B 8.65961e-05
9 *1984:A *1983:B 0.000100528
10 *1984:A *2024:A2 3.84331e-05
11 *2024:A1 *2024:A2 6.47516e-05
12 *2024:B1_N *1983:B 0
13 *2024:B1_N *2024:A2 0
*RES
1 *1982:Y *373:8 5.43 
2 *373:8 *2024:A2 5.745 
3 *373:8 *1983:B 7.14 
*END

*D_NET *374 0.000142764
*CONN
*I *1984:B I *D sky130_fd_sc_hd__xor2_1
*I *1983:X O *D sky130_fd_sc_hd__or2_1
*CAP
1 *1984:B 4.72362e-05
2 *1983:X 4.72362e-05
3 *1984:A *1984:B 4.82919e-05
*RES
1 *1983:X *1984:B 3.995 
*END

*D_NET *375 0.00144093
*CONN
*I *1985:C I *D sky130_fd_sc_hd__nor3_1
*I *1986:B1 I *D sky130_fd_sc_hd__o21a_1
*I *1984:X O *D sky130_fd_sc_hd__xor2_1
*CAP
1 *1985:C 2.57061e-05
2 *1986:B1 0
3 *1984:X 0.000365692
4 *375:12 0.000391398
5 *1985:C *377:12 4.82919e-05
6 *375:12 *2030:A 0.000294116
7 *375:12 *2030:B 0.000124895
8 *1985:A *1985:C 6.29663e-05
9 *1985:B *1985:C 0.000122337
10 *317:18 *375:12 5.53249e-06
*RES
1 *1984:X *375:12 13.22 
2 *375:12 *1986:B1 1.6 
3 *375:12 *1985:C 2.74 
*END

*D_NET *376 0.000547289
*CONN
*I *1987:A I *D sky130_fd_sc_hd__or2_1
*I *1985:Y O *D sky130_fd_sc_hd__nor3_1
*CAP
1 *1987:A 0.000168398
2 *1985:Y 0.000168398
3 *1987:A *2032:B1 5.55927e-05
4 *1987:A *377:12 0.000104939
5 *1985:B *1987:A 4.99619e-05
*RES
1 *1985:Y *1987:A 5.735 
*END

*D_NET *377 0.00141464
*CONN
*I *2032:B1 I *D sky130_fd_sc_hd__a21oi_1
*I *1987:B I *D sky130_fd_sc_hd__or2_1
*I *1986:X O *D sky130_fd_sc_hd__o21a_1
*CAP
1 *2032:B1 0.000181157
2 *1987:B 0
3 *1986:X 6.09713e-05
4 *377:12 0.000242129
5 *2032:B1 *1989:B 4.21973e-05
6 *2032:B1 *2033:B 0.000239813
7 *2032:B1 *378:6 3.00381e-05
8 *1985:A *377:12 0.000150618
9 *1985:B *377:12 5.57182e-05
10 *1985:C *377:12 4.82919e-05
11 *1987:A *2032:B1 5.55927e-05
12 *1987:A *377:12 0.000104939
13 *2032:A1 *2032:B1 0.000203178
*RES
1 *1986:X *377:12 4.51 
2 *377:12 *1987:B 1.6 
3 *377:12 *2032:B1 6.655 
*END

*D_NET *378 0.000646686
*CONN
*I *1989:B I *D sky130_fd_sc_hd__xor2_1
*I *1988:A I *D sky130_fd_sc_hd__inv_2
*I *1987:X O *D sky130_fd_sc_hd__or2_1
*CAP
1 *1989:B 4.27526e-05
2 *1988:A 0.000117417
3 *1987:X 2.15109e-05
4 *378:6 0.00018168
5 *1988:A *2030:A 0
6 *1988:A *2033:A 0.000186099
7 *2032:B1 *1989:B 4.21973e-05
8 *2032:B1 *378:6 3.00381e-05
9 *319:6 *1988:A 2.49909e-05
*RES
1 *1987:X *378:6 2.05 
2 *378:6 *1988:A 8.195 
3 *378:6 *1989:B 2.395 
*END

*D_NET *379 0.00081895
*CONN
*I *2032:A2 I *D sky130_fd_sc_hd__a21oi_1
*I *1988:Y O *D sky130_fd_sc_hd__inv_2
*CAP
1 *2032:A2 0.000381364
2 *1988:Y 0.000381364
3 *2032:A2 *2035:B 1.22676e-05
4 *319:6 *2032:A2 4.3954e-05
5 *368:12 *2032:A2 0
*RES
1 *1988:Y *2032:A2 12.045 
*END

*D_NET *380 0.00206902
*CONN
*I *1596:B I *D sky130_fd_sc_hd__or2_1
*I *1594:A2 I *D sky130_fd_sc_hd__a211o_1
*I *1595:B I *D sky130_fd_sc_hd__nor2_1
*I *1593:X O *D sky130_fd_sc_hd__and2b_1
*CAP
1 *1596:B 0.000148664
2 *1594:A2 0.000175267
3 *1595:B 1.31277e-05
4 *1593:X 0
5 *380:8 0.000363118
6 *380:4 0.000323387
7 *1594:A2 *1594:A1 3.17194e-05
8 *1594:A2 *1597:A1 0.000246783
9 *1594:A2 *1597:A2 9.80032e-06
10 *1594:A2 *1597:B1_N 0.000101325
11 *1594:A2 *391:21 9.07812e-05
12 *1595:B *1597:A1 3.26889e-05
13 *1596:B *474:22 0
14 *1596:B *491:16 0.000267591
15 *380:8 *1597:A2 2.75229e-05
16 *380:8 *520:51 0.000237243
*RES
1 *1593:X *380:4 1.6 
2 *380:4 *380:8 3.48 
3 *380:8 *1595:B 1.96 
4 *380:8 *1594:A2 5.89 
5 *380:4 *1596:B 8.765 
*END

*D_NET *381 0.00168547
*CONN
*I *1990:C I *D sky130_fd_sc_hd__and3_1
*I *1991:B1 I *D sky130_fd_sc_hd__a21oi_1
*I *1989:X O *D sky130_fd_sc_hd__xor2_1
*CAP
1 *1990:C 4.85638e-05
2 *1991:B1 0
3 *1989:X 0.000448628
4 *381:16 0.000497192
5 *1990:C *382:14 1.83847e-05
6 *1990:C *383:8 5.83121e-06
7 *381:16 *2035:A 0
8 *381:16 *2035:B 0.000353049
9 *381:16 *382:14 3.05373e-05
10 *1990:A *1990:C 0
11 *1990:B *1990:C 1.63672e-05
12 *1990:B *381:16 2.9664e-05
13 *1991:A1 *1990:C 0.000110683
14 *2032:A1 *381:16 0.00012657
*RES
1 *1989:X *381:16 14.09 
2 *381:16 *1991:B1 1.6 
3 *381:16 *1990:C 2.98 
*END

*D_NET *382 0.00164814
*CONN
*I *1993:B I *D sky130_fd_sc_hd__or3_1
*I *1992:A1 I *D sky130_fd_sc_hd__o21ai_1
*I *1990:X O *D sky130_fd_sc_hd__and3_1
*CAP
1 *1993:B 4.88228e-05
2 *1992:A1 0.000157731
3 *1990:X 0.000311514
4 *382:14 0.000518068
5 *1992:A1 *1992:A2 6.9303e-05
6 *1992:A1 *385:8 4.82919e-05
7 *1993:B *1992:A2 2.11921e-05
8 *1990:B *382:14 4.99619e-05
9 *1990:C *382:14 1.83847e-05
10 *1992:B1 *1992:A1 9.2741e-05
11 *310:12 *382:14 4.9968e-05
12 *322:8 *1992:A1 3.26889e-05
13 *322:8 *382:14 0.000198939
14 *322:12 *382:14 0
15 *381:16 *382:14 3.05373e-05
*RES
1 *1990:X *382:14 11.135 
2 *382:14 *1992:A1 5.005 
3 *382:14 *1993:B 2.41 
*END

*D_NET *383 0.00154617
*CONN
*I *2014:A_N I *D sky130_fd_sc_hd__and2b_1
*I *1992:A2 I *D sky130_fd_sc_hd__o21ai_1
*I *1993:C I *D sky130_fd_sc_hd__or3_1
*I *1991:Y O *D sky130_fd_sc_hd__a21oi_1
*CAP
1 *2014:A_N 0.000154631
2 *1992:A2 0.000145671
3 *1993:C 0
4 *1991:Y 0.000110238
5 *383:14 0.000217883
6 *383:8 0.000337082
7 *383:14 *2014:B 5.72091e-05
8 *383:14 *385:31 1.73877e-05
9 *1990:B *383:8 7.10578e-05
10 *1990:B *383:14 1.71013e-05
11 *1990:C *383:8 5.83121e-06
12 *1991:A1 *383:8 3.09179e-05
13 *1992:A1 *1992:A2 6.9303e-05
14 *1992:B1 *1992:A2 0.000196381
15 *1993:B *1992:A2 2.11921e-05
16 *322:12 *383:14 9.428e-05
*RES
1 *1991:Y *383:8 3.79 
2 *383:8 *383:14 6.145 
3 *383:14 *1993:C 1.6 
4 *383:14 *1992:A2 4.39 
5 *383:8 *2014:A_N 3.775 
*END

*D_NET *384 0.00126695
*CONN
*I *1994:A I *D sky130_fd_sc_hd__nand2_1
*I *1995:B I *D sky130_fd_sc_hd__and3_1
*I *1992:Y O *D sky130_fd_sc_hd__o21ai_1
*CAP
1 *1994:A 0.000102742
2 *1995:B 0
3 *1992:Y 0.000386792
4 *384:12 0.000489535
5 *1994:A *1994:B 1.88658e-05
6 *1994:A *2013:B 0
7 *384:12 *2036:A 0
8 *384:12 *2036:B 0
9 *384:12 *431:12 3.39151e-05
10 *384:12 *561:12 0.000107262
11 *1992:B1 *384:12 3.00381e-05
12 *1995:A *1994:A 9.78003e-05
13 *2073:A *384:12 0
*RES
1 *1992:Y *384:12 12.035 
2 *384:12 *1995:B 1.6 
3 *384:12 *1994:A 3.715 
*END

*D_NET *385 0.00249158
*CONN
*I *1994:B I *D sky130_fd_sc_hd__nand2_1
*I *1995:C I *D sky130_fd_sc_hd__and3_1
*I *2014:B I *D sky130_fd_sc_hd__and2b_1
*I *1993:X O *D sky130_fd_sc_hd__or3_1
*CAP
1 *1994:B 0.000192853
2 *1995:C 0
3 *2014:B 6.23602e-05
4 *1993:X 3.38648e-05
5 *385:31 0.00062255
6 *385:8 0.000525922
7 *2014:B *2036:B 8.97486e-05
8 *385:31 *2013:B 4.43682e-05
9 *385:31 *2036:A 4.49328e-05
10 *385:31 *2036:B 0.000235074
11 *385:31 *544:14 3.07076e-05
12 *1990:B *2014:B 0
13 *1992:A1 *385:8 4.82919e-05
14 *1994:A *1994:B 1.88658e-05
15 *1995:A *1994:B 9.39182e-05
16 *1995:A *385:31 0.000111577
17 *323:8 *385:31 0
18 *363:10 *385:31 0.000261947
19 *383:14 *2014:B 5.72091e-05
20 *383:14 *385:31 1.73877e-05
*RES
1 *1993:X *385:8 4.05 
2 *385:8 *2014:B 5.49 
3 *385:8 *385:31 12.41 
4 *385:31 *1995:C 1.6 
5 *385:31 *1994:B 4.63 
*END

*D_NET *386 0.00137007
*CONN
*I *1996:B I *D sky130_fd_sc_hd__xnor2_1
*I *1994:Y O *D sky130_fd_sc_hd__nand2_1
*CAP
1 *1996:B 0.00036622
2 *1994:Y 0.00036622
3 *1996:B *431:12 0.000519808
4 *2072:A *1996:B 0.000117825
*RES
1 *1994:Y *1996:B 15.345 
*END

*D_NET *387 0.000308502
*CONN
*I *2013:B I *D sky130_fd_sc_hd__xnor2_1
*I *1995:X O *D sky130_fd_sc_hd__and3_1
*CAP
1 *2013:B 9.37427e-05
2 *1995:X 9.37427e-05
3 *2013:B *2036:A 4.66108e-05
4 *1994:A *2013:B 0
5 *1995:A *2013:B 3.00381e-05
6 *385:31 *2013:B 4.43682e-05
*RES
1 *1995:X *2013:B 5.045 
*END

*D_NET *388 0.00359021
*CONN
*I *2012:B1 I *D sky130_fd_sc_hd__o21ai_1
*I *1997:B I *D sky130_fd_sc_hd__xnor2_1
*I *1996:Y O *D sky130_fd_sc_hd__xnor2_1
*CAP
1 *2012:B1 0.00013448
2 *1997:B 3.37454e-05
3 *1996:Y 0.000928238
4 *388:8 0.00109646
5 *388:8 *431:12 0
6 *1905:A_N *388:8 0
7 *1906:A *388:8 0
8 *1906:B *388:8 0
9 *1909:B *388:8 8.08439e-05
10 *1917:C1 *388:8 0
11 *1937:B *388:8 0
12 *1940:B *388:8 0.000208491
13 *1946:B *2012:B1 0.0001249
14 *1970:A1 *388:8 0.000250623
15 *260:12 *388:8 0.000186099
16 *291:12 *388:8 7.26629e-05
17 *295:12 *388:8 0.000132631
18 *297:10 *388:8 0
19 *297:19 *2012:B1 0
20 *297:19 *388:8 0
21 *323:8 *388:8 0
22 *328:12 *388:8 0
23 *329:10 *388:8 0.000150862
24 *329:23 *388:8 6.5265e-05
25 *332:10 *2012:B1 0
26 *332:10 *388:8 0
27 *334:6 *2012:B1 0.0001249
28 *360:8 *388:8 0
*RES
1 *1996:Y *388:8 23.85 
2 *388:8 *1997:B 4.05 
3 *388:8 *2012:B1 6.63 
*END

*D_NET *389 0.00155451
*CONN
*I *1999:B I *D sky130_fd_sc_hd__nand2_1
*I *1998:B I *D sky130_fd_sc_hd__or2_1
*I *1997:Y O *D sky130_fd_sc_hd__xnor2_1
*CAP
1 *1999:B 9.76454e-05
2 *1998:B 0
3 *1997:Y 0.00020011
4 *389:12 0.000297755
5 *389:12 *2005:A2 4.82919e-05
6 *389:12 *405:10 0.000128282
7 *389:12 *431:12 0
8 *1998:A *389:12 4.82863e-05
9 *1999:A *1999:B 3.83041e-05
10 *1999:A *389:12 4.82919e-05
11 *2012:A1 *389:12 0.000140912
12 *332:10 *389:12 0.000139245
13 *332:25 *389:12 0.000163019
14 *334:19 *389:12 0.000204367
*RES
1 *1997:Y *389:12 12.71 
2 *389:12 *1998:B 1.6 
3 *389:12 *1999:B 3.1 
*END

*D_NET *390 0.000386522
*CONN
*I *2005:A2 I *D sky130_fd_sc_hd__a31o_1
*I *1998:X O *D sky130_fd_sc_hd__or2_1
*CAP
1 *2005:A2 0.000127992
2 *1998:X 0.000127992
3 *2005:A2 *2005:A3 4.11281e-05
4 *2005:A2 *405:10 4.11194e-05
5 *389:12 *2005:A2 4.82919e-05
*RES
1 *1998:X *2005:A2 9.375 
*END

*D_NET *391 0.0015083
*CONN
*I *2104:A I *D sky130_fd_sc_hd__dlygate4sd1_1
*I *1601:B1 I *D sky130_fd_sc_hd__a211o_1
*I *1597:A1 I *D sky130_fd_sc_hd__o21bai_1
*I *1594:X O *D sky130_fd_sc_hd__a211o_1
*CAP
1 *2104:A 0
2 *1601:B1 6.92379e-05
3 *1597:A1 6.44065e-05
4 *1594:X 0
5 *391:21 0.000243067
6 *391:4 0.000238235
7 *1597:A1 *1597:A2 5.59676e-05
8 *1597:A1 *423:12 4.58257e-05
9 *1601:B1 *1601:A1 8.97564e-05
10 *391:21 *1594:A1 2.4526e-05
11 *391:21 *1597:A2 0
12 *391:21 *1597:B1_N 9.27255e-06
13 *391:21 *423:12 8.40213e-05
14 *1594:A2 *1597:A1 0.000246783
15 *1594:A2 *391:21 9.07812e-05
16 *1594:B1 *391:21 4.82863e-05
17 *1594:C1 *391:21 7.83347e-05
18 *1595:B *1597:A1 3.26889e-05
19 *219:136 *1601:B1 8.71079e-05
*RES
1 *1594:X *391:4 1.6 
2 *391:4 *1597:A1 4.135 
3 *391:4 *391:21 3.945 
4 *391:21 *1601:B1 7.49 
5 *391:21 *2104:A 1.6 
*END

*D_NET *392 0.00043402
*CONN
*I *2005:A3 I *D sky130_fd_sc_hd__a31o_1
*I *1999:Y O *D sky130_fd_sc_hd__nand2_1
*CAP
1 *2005:A3 9.28308e-05
2 *1999:Y 9.28308e-05
3 *2005:A3 *2038:A 8.65905e-05
4 *2005:A3 *2043:A3 4.82863e-05
5 *2005:A3 *431:12 7.23533e-05
6 *2005:A2 *2005:A3 4.11281e-05
*RES
1 *1999:Y *2005:A3 9.375 
*END

*D_NET *393 0.000409608
*CONN
*I *2001:B2 I *D sky130_fd_sc_hd__o22a_1
*I *2000:Y O *D sky130_fd_sc_hd__a21oi_1
*CAP
1 *2001:B2 8.73967e-05
2 *2000:Y 8.73967e-05
3 *2001:B2 *2000:A1 1.91597e-05
4 *2001:B2 *491:185 9.50342e-06
5 *2001:B2 *491:198 0.000129735
6 *2001:B2 *491:217 1.08758e-05
7 *2001:B2 *492:27 0
8 *2001:B2 *534:16 6.55406e-05
*RES
1 *2000:Y *2001:B2 9.285 
*END

*D_NET *394 0.000332728
*CONN
*I *2003:B1 I *D sky130_fd_sc_hd__a211o_1
*I *2001:X O *D sky130_fd_sc_hd__o22a_1
*CAP
1 *2003:B1 0.000104403
2 *2001:X 0.000104403
3 *2003:B1 *491:185 2.16389e-05
4 *2003:B1 *492:27 0
5 *192:85 *2003:B1 4.82863e-05
6 *199:55 *2003:B1 5.39961e-05
*RES
1 *2001:X *2003:B1 9.03 
*END

*D_NET *395 0.00043919
*CONN
*I *2003:C1 I *D sky130_fd_sc_hd__a211o_1
*I *2002:X O *D sky130_fd_sc_hd__a32o_1
*CAP
1 *2003:C1 6.49389e-05
2 *2002:X 6.49389e-05
3 *2003:C1 *491:185 0.000139245
4 *2004:B1 *2003:C1 2.49909e-05
5 *199:55 *2003:C1 0.000145076
*RES
1 *2002:X *2003:C1 9.285 
*END

*D_NET *396 0.000562199
*CONN
*I *2004:C1 I *D sky130_fd_sc_hd__a211o_1
*I *2003:X O *D sky130_fd_sc_hd__a211o_1
*CAP
1 *2004:C1 9.74974e-05
2 *2003:X 9.74974e-05
3 *2004:C1 *2082:A 0.000141592
4 *2004:B1 *2004:C1 0.000225612
*RES
1 *2003:X *2004:C1 9.63 
*END

*D_NET *397 0.00420802
*CONN
*I *2005:B1 I *D sky130_fd_sc_hd__a31o_1
*I *2004:X O *D sky130_fd_sc_hd__a211o_1
*CAP
1 *2005:B1 0.00134733
2 *2004:X 0.00134733
3 *2005:B1 *1950:A 2.05056e-05
4 *2005:B1 *1951:A 9.66106e-05
5 *2005:B1 *1963:A1 8.65905e-05
6 *2005:B1 *2002:A2 0.000224814
7 *2005:B1 *2002:B2 0.000107845
8 *2005:B1 *2004:A2 8.8266e-05
9 *2005:B1 *2043:A3 0
10 *2005:B1 *2043:B1 0.00012755
11 *2005:B1 *2043:C1 0.000111096
12 *2005:B1 *2084:A 0
13 *2005:B1 *2098:A 9.4087e-05
14 *2005:B1 *490:182 3.73239e-05
15 op_out[6] *2005:B1 0
16 *1950:B *2005:B1 8.65905e-05
17 *1953:A *2005:B1 3.00381e-05
18 *1953:B *2005:B1 0.000115762
19 *1963:B1 *2005:B1 0.000197269
20 *2002:A3 *2005:B1 0
21 *2002:B1 *2005:B1 7.81413e-05
22 *2043:A1 *2005:B1 1.08766e-05
*RES
1 *2004:X *2005:B1 31.215 
*END

*D_NET *398 0.000657336
*CONN
*I *2010:A I *D sky130_fd_sc_hd__xnor2_1
*I *2006:Y O *D sky130_fd_sc_hd__a21oi_1
*CAP
1 *2010:A 0.000219754
2 *2006:Y 0.000219754
3 *2010:A *1966:A 6.74079e-05
4 *2006:A2 *2010:A 2.03321e-05
5 *355:10 *2010:A 0.000130087
*RES
1 *2006:Y *2010:A 11.43 
*END

*D_NET *399 0.000823227
*CONN
*I *2009:A I *D sky130_fd_sc_hd__xnor2_1
*I *2007:Y O *D sky130_fd_sc_hd__xnor2_1
*CAP
1 *2009:A 0.000292576
2 *2007:Y 0.000292576
3 *2009:A *2009:B 0.000118513
4 *2009:A *492:14 7.00889e-06
5 *2009:A *532:35 5.05437e-05
6 *2009:A *534:10 6.20088e-05
7 *2009:A *534:16 0
*RES
1 *2007:Y *2009:A 11.445 
*END

*D_NET *400 0.000798986
*CONN
*I *2009:B I *D sky130_fd_sc_hd__xnor2_1
*I *2008:X O *D sky130_fd_sc_hd__a21o_1
*CAP
1 *2009:B 0.000257388
2 *2008:X 0.000257388
3 *2009:B *532:35 0.000165698
4 *2009:B *534:16 0
5 *2009:A *2009:B 0.000118513
6 *191:89 *2009:B 0
7 *352:10 *2009:B 0
*RES
1 *2008:X *2009:B 11.355 
*END

*D_NET *401 0.000307514
*CONN
*I *1597:A2 I *D sky130_fd_sc_hd__o21bai_1
*I *1595:Y O *D sky130_fd_sc_hd__nor2_1
*CAP
1 *1597:A2 0.000107111
2 *1595:Y 0.000107111
3 *1594:A2 *1597:A2 9.80032e-06
4 *1597:A1 *1597:A2 5.59676e-05
5 *380:8 *1597:A2 2.75229e-05
6 *391:21 *1597:A2 0
*RES
1 *1595:Y *1597:A2 5.045 
*END

*D_NET *402 0.00291278
*CONN
*I *2010:B I *D sky130_fd_sc_hd__xnor2_1
*I *2009:Y O *D sky130_fd_sc_hd__xnor2_1
*CAP
1 *2010:B 0.000810957
2 *2009:Y 0.000810957
3 *2010:B *2011:B 0
4 *2010:B *2043:C1 5.83121e-06
5 *2010:B *491:217 0.000892368
6 *2006:B1 *2010:B 0.000188209
7 *355:10 *2010:B 0.000204456
*RES
1 *2009:Y *2010:B 20.43 
*END

*D_NET *403 0.000239492
*CONN
*I *2011:B I *D sky130_fd_sc_hd__nor2_1
*I *2010:Y O *D sky130_fd_sc_hd__xnor2_1
*CAP
1 *2011:B 0.000115191
2 *2010:Y 0.000115191
3 *2011:B *2043:C1 4.9253e-06
4 *2010:B *2011:B 0
5 *2011:A *2011:B 4.18603e-06
*RES
1 *2010:Y *2011:B 9.03 
*END

*D_NET *404 0.00156893
*CONN
*I *2043:C1 I *D sky130_fd_sc_hd__a311o_1
*I *2011:Y O *D sky130_fd_sc_hd__nor2_1
*CAP
1 *2043:C1 0.000417838
2 *2011:Y 0.000417838
3 *2043:C1 *2043:A2 1.70935e-05
4 *2043:C1 *2043:B1 9.50342e-06
5 *1953:B *2043:C1 0.000100066
6 *1967:B1 *2043:C1 5.4003e-05
7 *1969:A *2043:C1 0.000202095
8 *2005:B1 *2043:C1 0.000111096
9 *2006:B1 *2043:C1 9.48666e-05
10 *2010:B *2043:C1 5.83121e-06
11 *2011:B *2043:C1 4.9253e-06
12 *341:23 *2043:C1 3.90266e-05
13 *343:21 *2043:C1 0
14 *355:10 *2043:C1 9.47454e-05
*RES
1 *2011:Y *2043:C1 16.185 
*END

*D_NET *405 0.00167404
*CONN
*I *2038:A I *D sky130_fd_sc_hd__nand2_1
*I *2037:A I *D sky130_fd_sc_hd__or2_1
*I *2012:Y O *D sky130_fd_sc_hd__o21ai_1
*CAP
1 *2038:A 9.16736e-05
2 *2037:A 4.24068e-05
3 *2012:Y 0.000279545
4 *405:10 0.000413625
5 *2037:A *2037:B 2.16833e-05
6 *2038:A *2037:B 0.000280843
7 *2038:A *2038:B 4.35648e-05
8 *2038:A *2043:A3 2.16917e-05
9 *405:10 *431:12 0
10 *1960:B1 *405:10 0
11 *2005:A1 *2037:A 4.35348e-05
12 *2005:A1 *2038:A 3.09179e-05
13 *2005:A2 *405:10 4.11194e-05
14 *2005:A3 *2038:A 8.65905e-05
15 *196:75 *2037:A 3.00381e-05
16 *332:25 *405:10 0.00011852
17 *389:12 *405:10 0.000128282
*RES
1 *2012:Y *405:10 11.06 
2 *405:10 *2037:A 2.74 
3 *405:10 *2038:A 4.84 
*END

*D_NET *406 0.000381607
*CONN
*I *2036:A I *D sky130_fd_sc_hd__xnor2_1
*I *2013:Y O *D sky130_fd_sc_hd__xnor2_1
*CAP
1 *2036:A 9.25637e-05
2 *2013:Y 9.25637e-05
3 *2036:A *2036:B 3.25831e-05
4 *2036:A *544:14 7.23533e-05
5 *2013:B *2036:A 4.66108e-05
6 *384:12 *2036:A 0
7 *385:31 *2036:A 4.49328e-05
*RES
1 *2013:Y *2036:A 9.285 
*END

*D_NET *407 0.000209765
*CONN
*I *2035:A I *D sky130_fd_sc_hd__xnor2_1
*I *2014:X O *D sky130_fd_sc_hd__and2b_1
*CAP
1 *2035:A 0.000103398
2 *2014:X 0.000103398
3 *2035:A *2036:B 0
4 *1990:B *2035:A 2.97004e-06
5 *381:16 *2035:A 0
*RES
1 *2014:X *2035:A 8.835 
*END

*D_NET *408 0.000349767
*CONN
*I *2023:A I *D sky130_fd_sc_hd__xnor2_1
*I *2015:Y O *D sky130_fd_sc_hd__nand2_1
*CAP
1 *2023:A 6.67399e-05
2 *2015:Y 6.67399e-05
3 *2023:A *1975:B2 4.00541e-06
4 *2023:A *2015:A 4.00541e-06
5 *2023:A *2022:B 3.64998e-06
6 *2023:A *497:59 0.000158066
7 *2023:A *555:32 4.65607e-05
8 *1977:A *2023:A 0
*RES
1 *2015:Y *2023:A 5.045 
*END

*D_NET *409 0.00119823
*CONN
*I *2020:A I *D sky130_fd_sc_hd__and4_1
*I *2021:A1 I *D sky130_fd_sc_hd__a22o_1
*I *2016:X O *D sky130_fd_sc_hd__a22o_1
*CAP
1 *2020:A 4.50562e-05
2 *2021:A1 8.26706e-05
3 *2016:X 3.0694e-05
4 *409:8 0.000158421
5 *2020:A *2020:D 0.000153816
6 *2020:A *538:38 0.000153816
7 *2021:A1 *521:133 0.000199045
8 *409:8 *521:133 9.21178e-05
9 *1902:B *2021:A1 0.000197914
10 *1902:B *409:8 8.46846e-05
*RES
1 *2016:X *409:8 4.725 
2 *409:8 *2021:A1 6 
3 *409:8 *2020:A 5.085 
*END

*D_NET *410 0.00126608
*CONN
*I *2020:B I *D sky130_fd_sc_hd__and4_1
*I *2021:A2 I *D sky130_fd_sc_hd__a22o_1
*I *2017:Y O *D sky130_fd_sc_hd__nand4_1
*CAP
1 *2020:B 0
2 *2021:A2 0.000105305
3 *2017:Y 0.000154043
4 *410:10 0.000259348
5 *2021:A2 *2020:C 0.000224257
6 *2021:A2 *2021:B1 8.40269e-05
7 *2021:A2 *2022:B 1.4409e-05
8 *2021:A2 *2031:A2 4.43871e-06
9 *2021:A2 *510:121 0.000112123
10 *2021:A2 *519:186 2.34423e-05
11 *2021:A2 *559:40 0.000177231
12 *410:10 *2016:A1 1.03423e-05
13 *410:10 *2022:B 1.73596e-05
14 *410:10 *2046:A 0
15 *410:10 *514:80 1.83756e-05
16 *410:10 *519:186 6.13769e-05
*RES
1 *2017:Y *410:10 6.03 
2 *410:10 *2021:A2 7.32 
3 *410:10 *2020:B 3.6 
*END

*D_NET *411 0.00123354
*CONN
*I *2020:C I *D sky130_fd_sc_hd__and4_1
*I *2021:B1 I *D sky130_fd_sc_hd__a22o_1
*I *2018:X O *D sky130_fd_sc_hd__a22o_1
*CAP
1 *2020:C 8.12817e-05
2 *2021:B1 4.52222e-05
3 *2018:X 3.30228e-05
4 *411:10 0.000159527
5 *2020:C *2022:B 6.28765e-05
6 *2020:C *497:59 0.000153816
7 *2020:C *559:40 2.30292e-05
8 *2021:B1 *497:59 0.000153816
9 *2021:B1 *559:40 2.8185e-05
10 *411:10 *519:186 9.30787e-05
11 *1900:C *411:10 9.14049e-05
12 *2021:A2 *2020:C 0.000224257
13 *2021:A2 *2021:B1 8.40269e-05
*RES
1 *2018:X *411:10 6.725 
2 *411:10 *2021:B1 3.085 
3 *411:10 *2020:C 8.465 
*END

*D_NET *412 0.00381866
*CONN
*I *1600:A2 I *D sky130_fd_sc_hd__a21oi_1
*I *1601:A1 I *D sky130_fd_sc_hd__a211o_1
*I *1596:X O *D sky130_fd_sc_hd__or2_1
*CAP
1 *1600:A2 5.19436e-05
2 *1601:A1 0.000204201
3 *1596:X 0.000577817
4 *412:14 0.000833962
5 *1600:A2 *1590:A 0
6 *1601:A1 *490:89 0.000679866
7 *412:14 *1590:A 3.96653e-05
8 *412:14 *1590:B 4.82919e-05
9 *412:14 *1961:A3 1.07797e-05
10 *412:14 *523:56 0.000529948
11 *412:14 *562:34 5.92191e-05
12 *1594:C1 *1601:A1 0.000181376
13 *1601:B1 *1601:A1 8.97564e-05
14 *219:136 *1601:A1 0
15 *337:10 *412:14 9.50342e-06
16 *337:18 *412:14 0.000140384
17 *348:8 *1600:A2 5.83121e-06
18 *348:8 *412:14 2.49909e-05
19 *348:10 *1601:A1 0.000331128
*RES
1 *1596:X *412:14 14.435 
2 *412:14 *1601:A1 13.61 
3 *412:14 *1600:A2 2.41 
*END

*D_NET *413 0.00490686
*CONN
*I *2021:B2 I *D sky130_fd_sc_hd__a22o_1
*I *2020:D I *D sky130_fd_sc_hd__and4_1
*I *2019:X O *D sky130_fd_sc_hd__or4b_1
*CAP
1 *2021:B2 9.16148e-05
2 *2020:D 0.000206224
3 *2019:X 0.000730554
4 *413:6 0.00102839
5 *2020:D *2018:A2 8.23457e-05
6 *2020:D *2018:B1 3.83194e-05
7 *2020:D *2018:B2 1.08758e-05
8 *2020:D *510:121 4.44912e-05
9 *2020:D *510:133 1.19928e-05
10 *2020:D *538:38 0.000138566
11 *2021:B2 *2018:B2 1.15688e-05
12 *2021:B2 *491:78 0.000196683
13 *2021:B2 *497:47 7.01063e-05
14 *2021:B2 *497:59 9.14049e-05
15 *2021:B2 *561:63 1.70935e-05
16 *413:6 *1610:A 0.00041851
17 *413:6 *1610:C 5.63701e-05
18 *413:6 *1617:C1 3.73366e-05
19 *413:6 *1631:A2 2.0514e-05
20 *413:6 *2018:B2 3.83194e-05
21 *413:6 *2090:A 0.000134938
22 *413:6 *496:30 0.000975104
23 *413:6 *510:133 4.87317e-05
24 *413:6 *538:38 8.40213e-05
25 *413:6 *539:10 0.000119756
26 *2020:A *2020:D 0.000153816
27 *241:6 *413:6 4.92062e-05
*RES
1 *2019:X *413:6 18.61 
2 *413:6 *2020:D 6.22 
3 *413:6 *2021:B2 8 
*END

*D_NET *414 8.29392e-05
*CONN
*I *2022:A_N I *D sky130_fd_sc_hd__and2b_1
*I *2020:X O *D sky130_fd_sc_hd__and4_1
*CAP
1 *2022:A_N 3.36482e-05
2 *2020:X 3.36482e-05
3 *2022:A_N *2022:B 1.56428e-05
*RES
1 *2020:X *2022:A_N 3.65 
*END

*D_NET *415 0.00142485
*CONN
*I *2022:B I *D sky130_fd_sc_hd__and2b_1
*I *2021:X O *D sky130_fd_sc_hd__a22o_1
*CAP
1 *2022:B 0.000305063
2 *2021:X 0.000305063
3 *2022:B *1925:A1 8.53113e-06
4 *2022:B *2023:B 2.65814e-06
5 *2022:B *2031:A2 5.16418e-05
6 *2022:B *2046:A 0.000239136
7 *2022:B *497:59 6.07575e-06
8 *2022:B *538:38 0.00019637
9 *2022:B *559:40 0.00019637
10 *2020:C *2022:B 6.28765e-05
11 *2021:A2 *2022:B 1.4409e-05
12 *2022:A_N *2022:B 1.56428e-05
13 *2023:A *2022:B 3.64998e-06
14 *410:10 *2022:B 1.73596e-05
*RES
1 *2021:X *2022:B 14.115 
*END

*D_NET *416 0.000406078
*CONN
*I *2023:B I *D sky130_fd_sc_hd__xnor2_1
*I *2022:X O *D sky130_fd_sc_hd__and2b_1
*CAP
1 *2023:B 0.000170288
2 *2022:X 0.000170288
3 *2023:B *1975:A1 0
4 *2023:B *495:29 5.33787e-05
5 *2023:B *497:59 0
6 *2023:B *538:38 9.46525e-06
7 *2022:B *2023:B 2.65814e-06
*RES
1 *2022:X *2023:B 9.63 
*END

*D_NET *417 0.00321103
*CONN
*I *2030:A I *D sky130_fd_sc_hd__xnor2_1
*I *2023:Y O *D sky130_fd_sc_hd__xnor2_1
*CAP
1 *2030:A 0.000987042
2 *2023:Y 0.000987042
3 *2030:A *1975:A1 6.65973e-05
4 *2030:A *1975:B2 3.00381e-05
5 *2030:A *2030:B 0.000203178
6 *2030:A *497:59 9.27255e-06
7 *2030:A *497:63 0.000160635
8 *2030:A *555:30 0.000275548
9 *2030:A *561:110 0.000181376
10 *1977:A *2030:A 1.61831e-05
11 *1978:B *2030:A 0
12 *1988:A *2030:A 0
13 *317:18 *2030:A 0
14 *320:12 *2030:A 0
15 *375:12 *2030:A 0.000294116
*RES
1 *2023:Y *2030:A 27.81 
*END

*D_NET *418 0.000534715
*CONN
*I *2029:A I *D sky130_fd_sc_hd__xnor2_1
*I *2024:Y O *D sky130_fd_sc_hd__o21bai_1
*CAP
1 *2029:A 0.000205013
2 *2024:Y 0.000205013
3 *2029:A *1979:B 0
4 *1984:A *2029:A 5.4003e-05
5 *2024:A1 *2029:A 7.06865e-05
*RES
1 *2024:Y *2029:A 10.065 
*END

*D_NET *419 0.000224753
*CONN
*I *2028:A I *D sky130_fd_sc_hd__xnor2_1
*I *2025:Y O *D sky130_fd_sc_hd__nand2_1
*CAP
1 *2028:A 7.32786e-05
2 *2025:Y 7.32786e-05
3 *2028:A *490:25 7.81954e-05
4 *2028:A *519:202 0
*RES
1 *2025:Y *2028:A 8.835 
*END

*D_NET *420 0.000336151
*CONN
*I *2027:B I *D sky130_fd_sc_hd__xor2_1
*I *2026:Y O *D sky130_fd_sc_hd__nand2_1
*CAP
1 *2027:B 0.000100998
2 *2026:Y 0.000100998
3 *2027:B *1982:A1 0.000118513
4 *2027:B *2026:A 1.56428e-05
*RES
1 *2026:Y *2027:B 9.03 
*END

*D_NET *421 0.000517741
*CONN
*I *2028:B I *D sky130_fd_sc_hd__xnor2_1
*I *2027:X O *D sky130_fd_sc_hd__xor2_1
*CAP
1 *2028:B 0.000181226
2 *2027:X 0.000181226
3 *2028:B *1982:A1 4.13171e-05
4 *2028:B *490:25 9.38181e-05
5 *2028:B *490:27 2.01541e-05
*RES
1 *2027:X *2028:B 10.74 
*END

*D_NET *422 0.00185481
*CONN
*I *2029:B I *D sky130_fd_sc_hd__xnor2_1
*I *2028:Y O *D sky130_fd_sc_hd__xnor2_1
*CAP
1 *2029:B 0.000309411
2 *2028:Y 0.000309411
3 *2029:B *1979:A 0.000212672
4 *2029:B *1980:A 0.00015639
5 *2029:B *1980:B 4.9968e-05
6 *2029:B *1982:A2 0.000173364
7 *2029:B *1982:B1 0.000386221
8 *2029:B *490:25 0
9 *2029:B *490:27 0
10 *2029:B *519:202 5.57736e-05
11 *370:8 *2029:B 2.65814e-06
12 *373:8 *2029:B 0.000198939
*RES
1 *2028:Y *2029:B 16.11 
*END

*D_NET *423 0.0035151
*CONN
*I *1611:B I *D sky130_fd_sc_hd__nor2_1
*I *1630:B1 I *D sky130_fd_sc_hd__a21o_1
*I *1612:B I *D sky130_fd_sc_hd__or2_1
*I *1597:Y O *D sky130_fd_sc_hd__o21bai_1
*CAP
1 *1611:B 4.00292e-05
2 *1630:B1 0
3 *1612:B 7.0561e-05
4 *1597:Y 0.000291767
5 *423:20 0.000305051
6 *423:12 0.000566286
7 *1611:B *1599:A 1.46744e-05
8 *1611:B *519:159 0.000201508
9 *1612:B *491:24 0.000136884
10 *1612:B *519:142 4.66108e-05
11 *1612:B *538:28 1.83847e-05
12 *423:12 *1961:A3 2.66935e-05
13 *423:12 *490:89 0
14 *423:12 *562:34 0.000312778
15 *423:20 *1599:A 7.47649e-05
16 *423:20 *1630:A1 0.000349587
17 *423:20 *1630:A2 0.00027073
18 *423:20 *2113:A 4.66108e-05
19 *423:20 *434:19 0.000194694
20 *423:20 *528:6 7.49327e-05
21 *1597:A1 *423:12 4.58257e-05
22 *1609:A *423:12 0
23 *1889:A2 *1612:B 0.000139238
24 *38:27 *1611:B 0.000142669
25 *38:27 *423:20 6.0795e-05
26 *219:136 *423:12 0
27 *391:21 *423:12 8.40213e-05
*RES
1 *1597:Y *423:12 11.105 
2 *423:12 *423:20 7.485 
3 *423:20 *1612:B 7.685 
4 *423:20 *1630:B1 1.6 
5 *423:12 *1611:B 3.775 
*END

*D_NET *424 0.000939719
*CONN
*I *2030:B I *D sky130_fd_sc_hd__xnor2_1
*I *2029:Y O *D sky130_fd_sc_hd__xnor2_1
*CAP
1 *2030:B 0.000305823
2 *2029:Y 0.000305823
3 *1984:A *2030:B 0
4 *2030:A *2030:B 0.000203178
5 *375:12 *2030:B 0.000124895
*RES
1 *2029:Y *2030:B 12.825 
*END

*D_NET *425 0.000887794
*CONN
*I *2034:A I *D sky130_fd_sc_hd__xnor2_1
*I *2030:Y O *D sky130_fd_sc_hd__xnor2_1
*CAP
1 *2034:A 0.000443897
2 *2030:Y 0.000443897
*RES
1 *2030:Y *2034:A 12.48 
*END

*D_NET *426 0.0015364
*CONN
*I *2033:A I *D sky130_fd_sc_hd__xnor2_1
*I *2031:X O *D sky130_fd_sc_hd__a31o_1
*CAP
1 *2033:A 0.000374549
2 *2031:X 0.000374549
3 *2033:A *2033:B 0.000120186
4 *1978:A *2033:A 0.000118527
5 *1978:B *2033:A 7.63204e-05
6 *1988:A *2033:A 0.000186099
7 *368:12 *2033:A 0.00028617
*RES
1 *2031:X *2033:A 16.74 
*END

*D_NET *427 0.000884281
*CONN
*I *2033:B I *D sky130_fd_sc_hd__xnor2_1
*I *2032:Y O *D sky130_fd_sc_hd__a21oi_1
*CAP
1 *2033:B 0.000249876
2 *2032:Y 0.000249876
3 *2032:A1 *2033:B 2.45311e-05
4 *2032:B1 *2033:B 0.000239813
5 *2033:A *2033:B 0.000120186
*RES
1 *2032:Y *2033:B 11.3775 
*END

*D_NET *428 0.000476035
*CONN
*I *2034:B I *D sky130_fd_sc_hd__xnor2_1
*I *2033:Y O *D sky130_fd_sc_hd__xnor2_1
*CAP
1 *2034:B 0.000238018
2 *2033:Y 0.000238018
3 *2034:B *2035:B 0
*RES
1 *2033:Y *2034:B 10.665 
*END

*D_NET *429 0.00134625
*CONN
*I *2035:B I *D sky130_fd_sc_hd__xnor2_1
*I *2034:Y O *D sky130_fd_sc_hd__xnor2_1
*CAP
1 *2035:B 0.000490468
2 *2034:Y 0.000490468
3 *2032:A2 *2035:B 1.22676e-05
4 *2034:B *2035:B 0
5 *381:16 *2035:B 0.000353049
*RES
1 *2034:Y *2035:B 15.81 
*END

*D_NET *430 0.00125901
*CONN
*I *2036:B I *D sky130_fd_sc_hd__xnor2_1
*I *2035:Y O *D sky130_fd_sc_hd__xnor2_1
*CAP
1 *2036:B 0.000450804
2 *2035:Y 0.000450804
3 *2036:B *561:12 0
4 *1990:B *2036:B 0
5 *2014:B *2036:B 8.97486e-05
6 *2035:A *2036:B 0
7 *2036:A *2036:B 3.25831e-05
8 *384:12 *2036:B 0
9 *385:31 *2036:B 0.000235074
*RES
1 *2035:Y *2036:B 16.23 
*END

*D_NET *431 0.006258
*CONN
*I *2038:B I *D sky130_fd_sc_hd__nand2_1
*I *2037:B I *D sky130_fd_sc_hd__or2_1
*I *2036:Y O *D sky130_fd_sc_hd__xnor2_1
*CAP
1 *2038:B 8.03329e-05
2 *2037:B 0.000233212
3 *2036:Y 0.00190303
4 *431:12 0.00221657
5 *2038:B *2043:A3 2.14672e-05
6 *431:12 *544:14 0.000160635
7 *431:12 *561:12 6.27438e-05
8 *1939:A *431:12 4.70343e-05
9 *1940:B *431:12 0
10 *1944:B *431:12 0
11 *1995:A *431:12 0
12 *1996:B *431:12 0.000519808
13 *2005:A3 *431:12 7.23533e-05
14 *2012:A1 *431:12 0
15 *2037:A *2037:B 2.16833e-05
16 *2038:A *2037:B 0.000280843
17 *2038:A *2038:B 4.35648e-05
18 *2072:A *431:12 6.71803e-06
19 *328:12 *431:12 0.000382871
20 *329:10 *431:12 0
21 *329:23 *431:12 0
22 *332:10 *431:12 0
23 *334:19 *431:12 0.00017122
24 *360:8 *431:12 0
25 *384:12 *431:12 3.39151e-05
26 *388:8 *431:12 0
27 *389:12 *431:12 0
28 *405:10 *431:12 0
*RES
1 *2036:Y *431:12 42.89 
2 *431:12 *2037:B 4.825 
3 *431:12 *2038:B 3.115 
*END

*D_NET *432 0.000915149
*CONN
*I *2043:A2 I *D sky130_fd_sc_hd__a311o_1
*I *2037:X O *D sky130_fd_sc_hd__or2_1
*CAP
1 *2043:A2 0.000271607
2 *2037:X 0.000271607
3 *2043:A2 *2043:B1 5.98004e-06
4 *2043:A1 *2043:A2 0.000205062
5 *2043:C1 *2043:A2 1.70935e-05
6 *196:75 *2043:A2 8.8266e-05
7 *343:21 *2043:A2 5.55344e-05
*RES
1 *2037:X *2043:A2 12.06 
*END

*D_NET *433 0.000561198
*CONN
*I *2043:A3 I *D sky130_fd_sc_hd__a311o_1
*I *2038:Y O *D sky130_fd_sc_hd__nand2_1
*CAP
1 *2043:A3 0.000179743
2 *2038:Y 0.000179743
3 *2043:A3 *2083:A 0.000110268
4 *2005:A3 *2043:A3 4.82863e-05
5 *2005:B1 *2043:A3 0
6 *2038:A *2043:A3 2.16917e-05
7 *2038:B *2043:A3 2.14672e-05
*RES
1 *2038:Y *2043:A3 10.935 
*END

*D_NET *434 0.00780247
*CONN
*I *1961:A2 I *D sky130_fd_sc_hd__a31o_1
*I *1599:A I *D sky130_fd_sc_hd__inv_2
*I *1616:B2 I *D sky130_fd_sc_hd__a22o_1
*I *1630:A1 I *D sky130_fd_sc_hd__a21o_1
*I *1598:Y O *D sky130_fd_sc_hd__a211oi_2
*CAP
1 *1961:A2 0.000667934
2 *1599:A 0.000312358
3 *1616:B2 4.59746e-05
4 *1630:A1 0.000231049
5 *1598:Y 0
6 *434:19 0.000491539
7 *434:10 0.000648638
8 *434:6 0.000952317
9 *1599:A *451:10 9.14049e-05
10 *1599:A *491:54 0.000195859
11 *1599:A *519:159 0.000147834
12 *1599:A *538:28 0.000150395
13 *1616:B2 *501:160 0.00011379
14 *1616:B2 *557:12 9.50342e-06
15 *1616:B2 *562:34 5.46798e-05
16 *1961:A2 *1589:B 0.000391829
17 *1961:A2 *1598:B1 2.34423e-05
18 *1961:A2 *1598:C1 8.35683e-05
19 *1961:A2 *1634:B1 1.26548e-05
20 *1961:A2 *1862:A3 0.000175183
21 *1961:A2 *2094:A 9.28058e-05
22 *1961:A2 *474:22 0
23 *1961:A2 *493:45 7.23533e-05
24 *1961:A2 *495:100 2.10011e-05
25 *1961:A2 *501:160 5.13424e-05
26 *1961:A2 *516:55 0.000246663
27 *1961:A2 *517:110 0.000496194
28 *1961:A2 *562:34 0
29 *434:10 *1598:B1 2.50049e-05
30 *434:10 *1598:C1 7.63883e-05
31 *434:10 *2113:A 1.94892e-05
32 *434:10 *493:45 9.50342e-06
33 *434:10 *501:160 0.000199097
34 *1611:B *1599:A 1.46744e-05
35 *1918:B1 *1961:A2 4.84393e-05
36 *1961:B1 *1961:A2 8.40269e-05
37 *205:18 *1961:A2 0.000156098
38 *294:35 *434:10 0.000365035
39 *326:28 *1961:A2 1.47347e-05
40 *326:36 *1961:A2 0.000390622
41 *423:20 *1599:A 7.47649e-05
42 *423:20 *1630:A1 0.000349587
43 *423:20 *434:19 0.000194694
*RES
1 *1598:Y *434:6 3.6 
2 *434:6 *434:10 9.5 
3 *434:10 *1630:A1 4.81 
4 *434:10 *434:19 1.83 
5 *434:19 *1616:B2 6.98 
6 *434:19 *1599:A 11.435 
7 *434:6 *1961:A2 21.78 
*END

*D_NET *435 0.000431395
*CONN
*I *2040:B2 I *D sky130_fd_sc_hd__o22a_1
*I *2039:Y O *D sky130_fd_sc_hd__a21oi_1
*CAP
1 *2040:B2 6.91565e-05
2 *2039:Y 6.91565e-05
3 *2040:B2 *2039:A2 8.49205e-05
4 *190:20 *2040:B2 5.80923e-05
5 *336:16 *2040:B2 0.00015007
*RES
1 *2039:Y *2040:B2 5.405 
*END

*D_NET *436 0.000551033
*CONN
*I *2042:B1 I *D sky130_fd_sc_hd__a211o_1
*I *2040:X O *D sky130_fd_sc_hd__o22a_1
*CAP
1 *2042:B1 8.94849e-05
2 *2040:X 8.94849e-05
3 *2042:B1 *2042:A1 2.98656e-05
4 *2042:B1 *491:147 2.49909e-05
5 *2042:B1 *501:240 3.43354e-05
6 *2042:A2 *2042:B1 4.66108e-05
7 *190:20 *2042:B1 5.83121e-06
8 *336:16 *2042:B1 0.000230429
*RES
1 *2040:X *2042:B1 5.735 
*END

*D_NET *437 0.000423758
*CONN
*I *2042:C1 I *D sky130_fd_sc_hd__a211o_1
*I *2041:X O *D sky130_fd_sc_hd__a32o_1
*CAP
1 *2042:C1 5.8812e-05
2 *2041:X 5.8812e-05
3 *2042:C1 *514:149 0.000153067
4 *196:20 *2042:C1 0.000153067
*RES
1 *2041:X *2042:C1 9.09 
*END

*D_NET *438 0.00449584
*CONN
*I *2043:B1 I *D sky130_fd_sc_hd__a311o_1
*I *2042:X O *D sky130_fd_sc_hd__a211o_1
*CAP
1 *2043:B1 0.00184726
2 *2042:X 0.00184726
3 *2043:B1 *1960:A1 4.20336e-05
4 *2043:B1 *2004:A2 1.17036e-05
5 *2005:B1 *2043:B1 0.00012755
6 *2043:A1 *2043:B1 5.62609e-05
7 *2043:A2 *2043:B1 5.98004e-06
8 *2043:C1 *2043:B1 9.50342e-06
9 *190:20 *2043:B1 1.88602e-05
10 *205:93 *2043:B1 0.000529423
*RES
1 *2042:X *2043:B1 13.2992 
*END

*D_NET *439 0.00585665
*CONN
*I *1631:C1 I *D sky130_fd_sc_hd__a211o_2
*I *1617:C1 I *D sky130_fd_sc_hd__a211o_1
*I *1622:A1 I *D sky130_fd_sc_hd__o21ai_1
*I *1623:A I *D sky130_fd_sc_hd__or4_4
*I *1599:Y O *D sky130_fd_sc_hd__inv_2
*CAP
1 *1631:C1 0.00012054
2 *1617:C1 0.000160805
3 *1622:A1 0
4 *1623:A 8.37175e-05
5 *1599:Y 0.000413643
6 *439:18 0.000551173
7 *439:16 0.000832982
8 *439:10 0.000738905
9 *1617:C1 *1610:A 3.35123e-05
10 *1617:C1 *1610:C 4.82863e-05
11 *1617:C1 *1617:A1 2.74323e-05
12 *1623:A *1623:D 0.00016493
13 *1623:A *1637:A1 1.82563e-05
14 *1623:A *562:28 0.0001032
15 *1631:C1 *1602:C 0.000297183
16 *1631:C1 *442:8 0.000235568
17 *1631:C1 *443:22 9.86803e-05
18 *439:10 *501:160 0.000123249
19 *439:10 *538:28 0.000323776
20 *439:10 *557:12 0.000130106
21 *439:16 *1610:B 6.54981e-05
22 *439:16 *450:18 0
23 *439:16 *496:30 3.82728e-05
24 *439:16 *501:160 0.000176273
25 *439:16 *557:12 0.000155952
26 *439:16 *562:28 9.64341e-05
27 *439:18 *1637:A0 0
28 *439:18 *1637:A1 0.000214945
29 *439:18 *450:18 0
30 *439:18 *453:25 0
31 *439:18 *562:28 0.000565995
32 *413:6 *1617:C1 3.73366e-05
*RES
1 *1599:Y *439:10 9.825 
2 *439:10 *439:16 5.25 
3 *439:16 *439:18 11.835 
4 *439:18 *1623:A 6.195 
5 *439:18 *1622:A1 3.6 
6 *439:16 *1617:C1 6.255 
7 *439:10 *1631:C1 7.5 
*END

*D_NET *440 0.00564969
*CONN
*I *2004:A2 I *D sky130_fd_sc_hd__a211o_1
*I *1600:Y O *D sky130_fd_sc_hd__a21oi_1
*CAP
1 *2004:A2 0.00130547
2 *1600:Y 0.00130547
3 *2004:A2 *1825:B2 7.89269e-05
4 *2004:A2 *2041:A2 0.000111448
5 *2004:A2 *495:83 0.000268846
6 *2004:A2 *495:100 8.78301e-05
7 *2004:A2 *501:221 0.000388289
8 *2004:A2 *554:10 0.000158965
9 *1811:B1 *2004:A2 8.49205e-05
10 *1828:B1 *2004:A2 9.766e-05
11 *1856:B *2004:A2 0.000571403
12 *1857:B2 *2004:A2 3.10714e-05
13 *2005:B1 *2004:A2 8.8266e-05
14 *2041:A3 *2004:A2 2.23485e-05
15 *2042:A2 *2004:A2 9.67081e-06
16 *2043:B1 *2004:A2 1.17036e-05
17 *190:20 *2004:A2 0.000155995
18 *196:20 *2004:A2 9.37603e-05
19 *205:52 *2004:A2 0.000777641
*RES
1 *1600:Y *2004:A2 36.135 
*END

*D_NET *441 0.00178883
*CONN
*I *1604:A1 I *D sky130_fd_sc_hd__a21o_1
*I *1603:C I *D sky130_fd_sc_hd__nand3_1
*I *2091:A I *D sky130_fd_sc_hd__buf_1
*I *1601:X O *D sky130_fd_sc_hd__a211o_1
*CAP
1 *1604:A1 0
2 *1603:C 4.40456e-05
3 *2091:A 6.51485e-05
4 *1601:X 0.000145563
5 *441:19 4.40456e-05
6 *441:8 0.000210711
7 *1603:C *491:65 6.20192e-05
8 *2091:A *490:60 7.9642e-06
9 *2091:A *490:89 0.000157619
10 *2091:A *491:54 9.50342e-06
11 *2091:A *510:133 2.82601e-05
12 *441:8 *490:89 0.000449004
13 *441:8 *491:54 0.000249928
14 *441:8 *510:133 0.000131109
15 *1603:B *1603:C 2.59295e-05
16 *1609:A *1603:C 4.66108e-05
17 *1609:A *2091:A 9.28053e-05
18 *273:66 *1603:C 1.85674e-05
*RES
1 *1601:X *441:8 9.315 
2 *441:8 *2091:A 5.49 
3 *441:8 *441:19 2 
4 *441:19 *1603:C 2.755 
5 *441:19 *1604:A1 1.6 
*END

*D_NET *442 0.00194793
*CONN
*I *1614:C1 I *D sky130_fd_sc_hd__a211o_1
*I *1613:C1 I *D sky130_fd_sc_hd__a211oi_2
*I *1602:X O *D sky130_fd_sc_hd__and3_1
*CAP
1 *1614:C1 4.66087e-05
2 *1613:C1 0.000116305
3 *1602:X 0.000128405
4 *442:8 0.000291319
5 *1613:C1 *1614:A1 0.000177326
6 *1613:C1 *1614:A2 0.00017734
7 *1613:C1 *443:22 9.53428e-06
8 *1613:C1 *451:10 2.34423e-05
9 *1614:C1 *1614:A1 3.57349e-05
10 *1614:C1 *2092:A 0
11 *1614:C1 *443:22 6.97202e-05
12 *442:8 *1602:C 3.83194e-05
13 *442:8 *1614:A1 1.08758e-05
14 *442:8 *443:22 0.000441262
15 *442:8 *540:18 3.87808e-05
16 *1603:B *1614:C1 9.72742e-06
17 *1631:C1 *442:8 0.000235568
18 *273:66 *1613:C1 1.44809e-05
19 *273:66 *1614:C1 4.48568e-05
20 *273:66 *442:8 3.83194e-05
*RES
1 *1602:X *442:8 6.205 
2 *442:8 *1613:C1 8.615 
3 *442:8 *1614:C1 3.1 
*END

*D_NET *443 0.00459279
*CONN
*I *1631:A1 I *D sky130_fd_sc_hd__a211o_2
*I *1615:A1 I *D sky130_fd_sc_hd__a21o_1
*I *1610:A I *D sky130_fd_sc_hd__nand3_1
*I *1603:Y O *D sky130_fd_sc_hd__nand3_1
*CAP
1 *1631:A1 0
2 *1615:A1 5.74715e-05
3 *1610:A 0.000225809
4 *1603:Y 0.00069976
5 *443:24 0.000319907
6 *443:22 0.000736387
7 *1610:A *1617:A1 4.12851e-05
8 *1610:A *1617:A2 6.46196e-05
9 *1610:A *1631:A2 0.000389138
10 *1610:A *457:10 1.89017e-05
11 *1610:A *474:22 8.69208e-05
12 *1615:A1 *2017:D 8.65961e-05
13 *443:22 *1616:A2 4.99619e-05
14 *443:22 *1631:B1 3.05295e-05
15 *443:22 *1633:A2 0
16 *443:22 *454:10 0.000192584
17 *443:24 *1631:A2 0.000110683
18 *443:24 *1631:B1 5.53249e-06
19 *443:24 *474:22 4.28483e-05
20 *1602:B *443:22 3.66286e-05
21 *1603:B *443:22 0.000106017
22 *1613:C1 *443:22 9.53428e-06
23 *1614:C1 *443:22 6.97202e-05
24 *1617:C1 *1610:A 3.35123e-05
25 *1631:C1 *443:22 9.86803e-05
26 *273:44 *443:22 0.000193806
27 *273:66 *443:22 2.61785e-05
28 *413:6 *1610:A 0.00041851
29 *442:8 *443:22 0.000441262
*RES
1 *1603:Y *443:22 16.41 
2 *443:22 *443:24 1.38 
3 *443:24 *1610:A 10.515 
4 *443:24 *1615:A1 4.395 
5 *443:22 *1631:A1 3.6 
*END

*D_NET *444 0.00162706
*CONN
*I *2108:A I *D sky130_fd_sc_hd__buf_6
*I *2090:A I *D sky130_fd_sc_hd__clkbuf_1
*I *1604:X O *D sky130_fd_sc_hd__a21o_1
*CAP
1 *2108:A 9.51607e-05
2 *2090:A 0.000222749
3 *1604:X 0
4 *444:6 0.00031791
5 *2090:A *1610:C 4.82863e-05
6 *2090:A *449:12 0.000129943
7 *2090:A *490:60 7.17589e-05
8 *2090:A *490:89 3.47876e-05
9 *2090:A *540:18 0.000178027
10 *2108:A *1613:B1 2.34423e-05
11 *2108:A *451:10 0.000111316
12 *1609:A *2090:A 9.50342e-06
13 *1609:A *2108:A 0.000249234
14 *413:6 *2090:A 0.000134938
*RES
1 *1604:X *444:6 3.6 
2 *444:6 *2090:A 9.45 
3 *444:6 *2108:A 6.51 
*END

*D_NET *445 0.000626853
*CONN
*I *1648:A I *D sky130_fd_sc_hd__nand2_1
*I *1647:A I *D sky130_fd_sc_hd__and2_1
*I *1605:X O *D sky130_fd_sc_hd__or2_1
*CAP
1 *1648:A 6.97223e-05
2 *1647:A 0
3 *1605:X 1.28612e-05
4 *445:6 8.25835e-05
5 *1648:A *1648:B 0.00012657
6 *1648:A *1649:C1 4.60584e-05
7 *1648:A *486:14 6.16472e-05
8 *1648:A *523:137 0.000166515
9 *445:6 *486:14 4.77719e-05
10 *445:6 *523:137 1.31227e-05
*RES
1 *1605:X *445:6 2.05 
2 *445:6 *1647:A 1.6 
3 *445:6 *1648:A 4.84 
*END

*D_NET *446 0.0026735
*CONN
*I *1627:B1 I *D sky130_fd_sc_hd__a31o_1
*I *1641:A I *D sky130_fd_sc_hd__xnor2_1
*I *1642:A I *D sky130_fd_sc_hd__xor2_1
*I *1606:Y O *D sky130_fd_sc_hd__nor2_1
*CAP
1 *1627:B1 0.000285758
2 *1641:A 0
3 *1642:A 9.47965e-05
4 *1606:Y 0
5 *446:10 0.000482956
6 *446:4 0.000673917
7 *1627:B1 *1606:B 1.83847e-05
8 *1627:B1 *1626:A2 0.00016063
9 *1627:B1 *1627:A1 3.26889e-05
10 *1627:B1 *463:17 6.78944e-05
11 *1627:B1 *510:6 3.23663e-05
12 *1627:B1 *521:18 0.000158072
13 *1642:A *1644:A1 6.14689e-05
14 *1642:A *493:8 0.000159964
15 *446:10 *1606:B 3.64998e-06
16 *446:10 *1643:A0 8.82557e-05
17 *446:10 *1643:S 8.8266e-05
18 *446:10 *1644:A1 6.73665e-05
19 *446:10 *483:12 1.4399e-05
20 *446:10 *493:8 0.000154488
21 *1606:A *446:10 2.8185e-05
*RES
1 *1606:Y *446:4 1.6 
2 *446:4 *446:10 9.17 
3 *446:10 *1642:A 5.94 
4 *446:10 *1641:A 3.6 
5 *446:4 *1627:B1 7.24 
*END

*D_NET *447 0.000151538
*CONN
*I *1623:B I *D sky130_fd_sc_hd__or4_4
*I *1607:Y O *D sky130_fd_sc_hd__nor2_1
*CAP
1 *1623:B 3.87554e-05
2 *1607:Y 3.87554e-05
3 *1623:B *523:149 0
4 *1623:B *562:28 7.4027e-05
*RES
1 *1607:Y *1623:B 8.07 
*END

*D_NET *448 0.00208012
*CONN
*I *1928:B1 I *D sky130_fd_sc_hd__a21oi_1
*I *1981:C I *D sky130_fd_sc_hd__and3_1
*I *1927:C I *D sky130_fd_sc_hd__and3_1
*I *1623:C I *D sky130_fd_sc_hd__or4_4
*I *1608:X O *D sky130_fd_sc_hd__and2_1
*CAP
1 *1928:B1 2.51076e-05
2 *1981:C 0.000127291
3 *1927:C 3.09181e-05
4 *1623:C 0.000327667
5 *1608:X 0
6 *448:26 0.000168439
7 *448:15 0.000245073
8 *448:4 0.000525781
9 *1623:C *1623:D 2.40507e-05
10 *1623:C *523:143 6.48713e-05
11 *1623:C *523:149 7.18832e-05
12 *1927:C *510:44 3.20404e-05
13 *1928:B1 *1928:A2 5.84537e-05
14 *1928:B1 *510:44 4.80285e-05
15 *1981:C *1979:A 0
16 *1981:C *1981:B 2.65814e-06
17 *1981:C *491:78 5.10957e-05
18 *1981:C *491:82 5.53249e-06
19 *1981:C *521:85 7.06865e-05
20 *1981:C *521:107 5.23362e-05
21 *448:15 *1928:A2 5.83121e-06
22 *448:15 *510:31 7.22354e-05
23 *448:15 *510:44 2.17931e-05
24 *448:26 *1928:A2 1.91597e-05
25 *448:26 *510:44 1.20883e-05
26 *314:10 *1981:C 1.70935e-05
*RES
1 *1608:X *448:4 1.6 
2 *448:4 *1623:C 5.6725 
3 *448:4 *448:15 3.48 
4 *448:15 *1927:C 2.38 
5 *448:15 *448:26 0.45 
6 *448:26 *1981:C 8.165 
7 *448:26 *1928:B1 2.755 
*END

*D_NET *449 0.00308355
*CONN
*I *1614:A1 I *D sky130_fd_sc_hd__a211o_1
*I *1613:A2 I *D sky130_fd_sc_hd__a211oi_2
*I *1615:B1 I *D sky130_fd_sc_hd__a21o_1
*I *1610:C I *D sky130_fd_sc_hd__nand3_1
*I *1609:X O *D sky130_fd_sc_hd__or2_1
*CAP
1 *1614:A1 0.00010511
2 *1613:A2 0
3 *1615:B1 8.31473e-05
4 *1610:C 9.67061e-05
5 *1609:X 0
6 *449:33 0.000250075
7 *449:12 0.000378395
8 *449:6 0.000219871
9 *1614:A1 *1613:B1 0.000175666
10 *1614:A1 *1614:A2 1.71207e-05
11 *1614:A1 *540:18 2.34345e-05
12 *1615:B1 *1615:A2 0.000246972
13 *1615:B1 *2017:D 0.000114433
14 *1615:B1 *453:10 2.75229e-05
15 *449:12 *1614:A2 4.43871e-06
16 *449:12 *539:10 3.67779e-05
17 *449:12 *540:18 5.53249e-06
18 *449:33 *1610:B 2.0514e-05
19 *449:33 *1614:A2 2.07184e-05
20 *449:33 *1615:A2 0.00027583
21 *449:33 *453:10 9.80032e-06
22 *449:33 *501:160 0.00019637
23 *449:33 *539:10 7.06865e-05
24 *449:33 *562:28 0.000150991
25 *1613:C1 *1614:A1 0.000177326
26 *1614:C1 *1614:A1 3.57349e-05
27 *1617:C1 *1610:C 4.82863e-05
28 *2090:A *1610:C 4.82863e-05
29 *2090:A *449:12 0.000129943
30 *273:66 *1614:A1 4.66108e-05
31 *413:6 *1610:C 5.63701e-05
32 *442:8 *1614:A1 1.08758e-05
*RES
1 *1609:X *449:6 3.6 
2 *449:6 *449:12 4.685 
3 *449:12 *1610:C 3.43 
4 *449:12 *449:33 9.58 
5 *449:33 *1615:B1 4.48 
6 *449:33 *1613:A2 1.6 
7 *449:6 *1614:A1 6.705 
*END

*D_NET *450 0.0021202
*CONN
*I *1617:A2 I *D sky130_fd_sc_hd__a211o_1
*I *1631:A2 I *D sky130_fd_sc_hd__a211o_2
*I *1610:Y O *D sky130_fd_sc_hd__nand3_1
*CAP
1 *1617:A2 3.16296e-05
2 *1631:A2 0.000266723
3 *1610:Y 0.000312652
4 *450:18 0.000611004
5 *1617:A2 *457:10 4.68667e-05
6 *1631:A2 *1633:A2 0
7 *1631:A2 *474:22 0
8 *450:18 *1617:A1 0.000188119
9 *450:18 *2017:D 1.89387e-05
10 *450:18 *453:25 3.99339e-05
11 *450:18 *474:22 1.93765e-05
12 *1610:A *1617:A2 6.46196e-05
13 *1610:A *1631:A2 0.000389138
14 *273:66 *450:18 0
15 *413:6 *1631:A2 2.0514e-05
16 *439:16 *450:18 0
17 *439:18 *450:18 0
18 *443:24 *1631:A2 0.000110683
*RES
1 *1610:Y *450:18 7.76587 
2 *450:18 *1631:A2 11.615 
3 *450:18 *1617:A2 2.4925 
*END

*D_NET *451 0.00162077
*CONN
*I *1614:B1 I *D sky130_fd_sc_hd__a211o_1
*I *1613:B1 I *D sky130_fd_sc_hd__a211oi_2
*I *1611:Y O *D sky130_fd_sc_hd__nor2_1
*CAP
1 *1614:B1 0
2 *1613:B1 0.000161995
3 *1611:Y 0.000237188
4 *451:10 0.000399183
5 *1613:B1 *501:160 0.00013836
6 *1613:B1 *540:18 0.00013611
7 *451:10 *519:159 8.65961e-05
8 *451:10 *562:34 0
9 *1599:A *451:10 9.14049e-05
10 *1609:A *451:10 3.60648e-05
11 *1613:C1 *451:10 2.34423e-05
12 *1614:A1 *1613:B1 0.000175666
13 *2108:A *1613:B1 2.34423e-05
14 *2108:A *451:10 0.000111316
*RES
1 *1611:Y *451:10 8.07 
2 *451:10 *1613:B1 7.695 
3 *451:10 *1614:B1 3.6 
*END

*D_NET *452 0.000420051
*CONN
*I *1631:B1 I *D sky130_fd_sc_hd__a211o_2
*I *1612:X O *D sky130_fd_sc_hd__or2_1
*CAP
1 *1631:B1 9.94165e-05
2 *1612:X 9.94165e-05
3 *1631:B1 *474:22 0.00013687
4 *1631:B1 *538:28 4.82863e-05
5 *1889:A2 *1631:B1 0
6 *443:22 *1631:B1 3.05295e-05
7 *443:24 *1631:B1 5.53249e-06
*RES
1 *1612:X *1631:B1 9.285 
*END

*D_NET *453 0.00404227
*CONN
*I *1622:A2 I *D sky130_fd_sc_hd__o21ai_1
*I *1623:D I *D sky130_fd_sc_hd__or4_4
*I *1617:B1 I *D sky130_fd_sc_hd__a211o_1
*I *1613:Y O *D sky130_fd_sc_hd__a211oi_2
*CAP
1 *1622:A2 0
2 *1623:D 0.000197574
3 *1617:B1 3.98206e-05
4 *1613:Y 0.000248246
5 *453:25 0.000720725
6 *453:10 0.000811218
7 *1623:D *1637:A1 7.63125e-05
8 *453:10 *1610:B 0.000222627
9 *453:10 *2017:D 1.79483e-05
10 *453:10 *501:160 2.87217e-05
11 *453:25 *1610:B 4.55864e-06
12 *453:25 *1617:A1 1.88656e-05
13 *453:25 *1619:C 6.36578e-05
14 *453:25 *1621:A 4.43871e-06
15 *453:25 *1622:B1 8.49205e-05
16 *453:25 *1635:A2 0.000183043
17 *453:25 *1637:A0 0.000120186
18 *453:25 *1637:A1 0.000299541
19 *453:25 *457:10 0.000157213
20 *453:25 *459:23 0.000120008
21 *453:25 *462:10 5.05437e-05
22 *453:25 *469:10 0.000114492
23 *453:25 *510:25 4.21973e-05
24 *1615:B1 *453:10 2.75229e-05
25 *1623:A *1623:D 0.00016493
26 *1623:C *1623:D 2.40507e-05
27 *294:35 *453:10 0.000102161
28 *294:35 *453:25 1.52119e-05
29 *294:37 *453:25 3.17967e-05
30 *439:18 *453:25 0
31 *449:33 *453:10 9.80032e-06
32 *450:18 *453:25 3.99339e-05
*RES
1 *1613:Y *453:10 8.43 
2 *453:10 *1617:B1 4.05 
3 *453:10 *453:25 15.83 
4 *453:25 *1623:D 9.41 
5 *453:25 *1622:A2 1.6 
*END

*D_NET *454 0.00125466
*CONN
*I *2113:A I *D sky130_fd_sc_hd__dlymetal6s2s_1
*I *1616:B1 I *D sky130_fd_sc_hd__a22o_1
*I *1614:X O *D sky130_fd_sc_hd__a211o_1
*CAP
1 *2113:A 9.55428e-05
2 *1616:B1 0
3 *1614:X 0.000196651
4 *454:10 0.000292194
5 *2113:A *1630:A2 4.66108e-05
6 *2113:A *501:160 0.000155227
7 *454:10 *1616:A2 7.28401e-05
8 *454:10 *501:160 0.000136907
9 *294:35 *2113:A 0
10 *423:20 *2113:A 4.66108e-05
11 *434:10 *2113:A 1.94892e-05
12 *443:22 *454:10 0.000192584
*RES
1 *1614:X *454:10 7.065 
2 *454:10 *1616:B1 3.6 
3 *454:10 *2113:A 5.94 
*END

*D_NET *455 0.00122599
*CONN
*I *1617:A1 I *D sky130_fd_sc_hd__a211o_1
*I *1615:X O *D sky130_fd_sc_hd__a21o_1
*CAP
1 *1617:A1 0.000298188
2 *1615:X 0.000298188
3 *1617:A1 *1615:A2 4.66108e-05
4 *1617:A1 *456:10 0.00018194
5 *1617:A1 *457:10 3.24678e-05
6 *1617:A1 *474:22 9.28942e-05
7 *1610:A *1617:A1 4.12851e-05
8 *1617:C1 *1617:A1 2.74323e-05
9 *450:18 *1617:A1 0.000188119
10 *453:25 *1617:A1 1.88656e-05
*RES
1 *1615:X *1617:A1 12.7723 
*END

*D_NET *456 0.00274132
*CONN
*I *1618:A I *D sky130_fd_sc_hd__nand2_1
*I *1620:A1 I *D sky130_fd_sc_hd__a21oi_1
*I *1619:A I *D sky130_fd_sc_hd__and3_1
*I *1616:X O *D sky130_fd_sc_hd__a22o_1
*CAP
1 *1618:A 0.000122809
2 *1620:A1 0
3 *1619:A 3.66508e-05
4 *1616:X 0.000411458
5 *456:23 0.000149657
6 *456:10 0.000474957
7 *1618:A *1618:B 4.82919e-05
8 *1619:A *460:8 0.000140905
9 *456:10 *1602:A 7.64902e-05
10 *456:10 *460:8 4.38051e-05
11 *456:10 *474:22 0.0001682
12 *456:10 *538:28 8.49205e-05
13 *1617:A1 *456:10 0.00018194
14 *1620:B1 *1618:A 3.35621e-05
15 *1620:B1 *456:23 2.42043e-05
16 *273:66 *456:10 1.7635e-05
17 *294:35 *456:10 0.000536632
18 *294:37 *1619:A 0.000139238
19 *294:37 *456:10 4.9968e-05
*RES
1 *1616:X *456:10 14.19 
2 *456:10 *1619:A 5.235 
3 *456:10 *456:23 2.45 
4 *456:23 *1620:A1 1.6 
5 *456:23 *1618:A 3.805 
*END

*D_NET *457 0.00172356
*CONN
*I *1618:B I *D sky130_fd_sc_hd__nand2_1
*I *1620:A2 I *D sky130_fd_sc_hd__a21oi_1
*I *1619:C I *D sky130_fd_sc_hd__and3_1
*I *1617:X O *D sky130_fd_sc_hd__a211o_1
*CAP
1 *1618:B 2.2266e-05
2 *1620:A2 0
3 *1619:C 0.00017401
4 *1617:X 0.000240195
5 *457:23 2.2266e-05
6 *457:10 0.000414206
7 *1619:C *1637:S 6.06483e-05
8 *1610:A *457:10 1.89017e-05
9 *1617:A1 *457:10 3.24678e-05
10 *1617:A2 *457:10 4.68667e-05
11 *1618:A *1618:B 4.82919e-05
12 *294:35 *457:10 0.000264277
13 *294:37 *1619:C 0.000116853
14 *294:37 *457:10 4.14369e-05
15 *453:25 *1619:C 6.36578e-05
16 *453:25 *457:10 0.000157213
*RES
1 *1617:X *457:10 8.76 
2 *457:10 *1619:C 6.525 
3 *457:10 *457:23 2 
4 *457:23 *1620:A2 1.6 
5 *457:23 *1618:B 2.05 
*END

*D_NET *458 0.000237682
*CONN
*I *1637:A0 I *D sky130_fd_sc_hd__mux2_4
*I *1618:Y O *D sky130_fd_sc_hd__nand2_1
*CAP
1 *1637:A0 5.39963e-05
2 *1618:Y 5.39963e-05
3 *1637:A0 *1637:A1 9.50342e-06
4 *439:18 *1637:A0 0
5 *453:25 *1637:A0 0.000120186
*RES
1 *1618:Y *1637:A0 8.58 
*END

*D_NET *459 0.00279759
*CONN
*I *1629:C1 I *D sky130_fd_sc_hd__a211o_4
*I *1621:A I *D sky130_fd_sc_hd__nor2_1
*I *1633:B1_N I *D sky130_fd_sc_hd__o21ba_4
*I *1619:X O *D sky130_fd_sc_hd__and3_1
*CAP
1 *1629:C1 4.12315e-05
2 *1621:A 9.70658e-05
3 *1633:B1_N 5.90337e-05
4 *1619:X 2.74662e-05
5 *459:23 0.000370016
6 *459:6 0.000318219
7 *1621:A *1621:B 7.21296e-06
8 *1621:A *1628:B 2.97561e-05
9 *1621:A *1629:A2 4.94326e-05
10 *1621:A *1637:A1 0
11 *1629:C1 *1629:A2 8.40213e-05
12 *1629:C1 *462:10 4.21973e-05
13 *1629:C1 *510:25 9.2741e-05
14 *1633:B1_N *1633:A2 0
15 *1633:B1_N *473:8 0.000162325
16 *1633:B1_N *474:22 0.000208484
17 *459:6 *1637:S 4.66108e-05
18 *459:23 *1621:B 9.3062e-06
19 *459:23 *1635:A2 0.000174512
20 *459:23 *1637:S 0.000192125
21 *459:23 *460:8 4.11112e-05
22 *459:23 *469:10 0.000116158
23 *1619:B *459:23 0.000120655
24 *294:37 *459:23 2.92496e-05
25 *294:45 *459:23 0.000354208
26 *453:25 *1621:A 4.43871e-06
27 *453:25 *459:23 0.000120008
*RES
1 *1619:X *459:6 2.05 
2 *459:6 *1633:B1_N 8 
3 *459:6 *459:23 9.8 
4 *459:23 *1621:A 5.49 
5 *459:23 *1629:C1 5.085 
*END

*D_NET *460 0.0022106
*CONN
*I *1629:B1 I *D sky130_fd_sc_hd__a211o_4
*I *1621:B I *D sky130_fd_sc_hd__nor2_1
*I *1620:Y O *D sky130_fd_sc_hd__a21oi_1
*CAP
1 *1629:B1 0
2 *1621:B 0.000200405
3 *1620:Y 0.000311485
4 *460:8 0.00051189
5 *1621:B *1628:B 3.09233e-05
6 *1621:B *1629:A1 0
7 *1621:B *1629:A2 8.35683e-05
8 *1621:B *1653:C1 0
9 *1621:B *462:10 5.02217e-05
10 *1621:B *462:12 4.43871e-06
11 *1621:B *463:6 0.000118294
12 *1621:B *463:17 0
13 *460:8 *1650:C1 4.70256e-05
14 *460:8 *1653:C1 0
15 *460:8 *473:8 1.73877e-05
16 *460:8 *473:20 6.57653e-06
17 *460:8 *474:22 0.000351053
18 *1619:A *460:8 0.000140905
19 *1621:A *1621:B 7.21296e-06
20 *294:37 *460:8 4.21256e-05
21 *294:45 *460:8 0.000192868
22 *456:10 *460:8 4.38051e-05
23 *459:23 *1621:B 9.3062e-06
24 *459:23 *460:8 4.11112e-05
*RES
1 *1620:Y *460:8 12.12 
2 *460:8 *1621:B 7.68 
3 *460:8 *1629:B1 3.6 
*END

*D_NET *461 0.000226426
*CONN
*I *1636:A I *D sky130_fd_sc_hd__xnor2_1
*I *1621:Y O *D sky130_fd_sc_hd__nor2_1
*CAP
1 *1636:A 9.29453e-05
2 *1621:Y 9.29453e-05
3 *1636:A *1628:B 0
4 *1636:A *1637:A1 4.05358e-05
5 *1636:A *562:28 0
*RES
1 *1621:Y *1636:A 8.835 
*END

*D_NET *462 0.00250421
*CONN
*I *1626:A1 I *D sky130_fd_sc_hd__a21o_1
*I *1627:A2 I *D sky130_fd_sc_hd__a31o_1
*I *1624:A I *D sky130_fd_sc_hd__nand2_1
*I *1622:Y O *D sky130_fd_sc_hd__o21ai_1
*CAP
1 *1626:A1 0.0001441
2 *1627:A2 0
3 *1624:A 0.000293545
4 *1622:Y 0.000295362
5 *462:12 0.00032316
6 *462:10 0.000469077
7 *1624:A *1628:A 3.12448e-05
8 *1624:A *1628:B 4.70343e-05
9 *1624:A *1636:B 5.72761e-05
10 *1624:A *464:6 4.99619e-05
11 *1624:A *521:12 0.000118978
12 *1624:A *562:28 8.58339e-06
13 *1626:A1 *1626:A2 6.38722e-05
14 *1626:A1 *463:17 0.000198939
15 *1626:A1 *466:8 4.82863e-05
16 *462:10 *1628:A 7.21296e-06
17 *462:10 *1629:A1 2.67022e-05
18 *462:10 *1629:A2 0.000120655
19 *462:10 *510:25 2.10134e-05
20 *462:12 *1628:A 1.52945e-05
21 *462:12 *1628:B 1.65105e-05
22 *1621:B *462:10 5.02217e-05
23 *1621:B *462:12 4.43871e-06
24 *1629:C1 *462:10 4.21973e-05
25 *453:25 *462:10 5.05437e-05
*RES
1 *1622:Y *462:10 7.935 
2 *462:10 *462:12 0.615 
3 *462:12 *1624:A 8.475 
4 *462:12 *1627:A2 3.6 
5 *462:10 *1626:A1 6.465 
*END

*D_NET *463 0.00166275
*CONN
*I *1624:B I *D sky130_fd_sc_hd__nand2_1
*I *1626:A2 I *D sky130_fd_sc_hd__a21o_1
*I *1627:A3 I *D sky130_fd_sc_hd__a31o_1
*I *1623:X O *D sky130_fd_sc_hd__or4_4
*CAP
1 *1624:B 0.000125419
2 *1626:A2 6.23334e-05
3 *1627:A3 0
4 *1623:X 0.000159751
5 *463:17 0.00028346
6 *463:6 0.000255458
7 *1624:B *1628:A 9.78642e-05
8 *1624:B *2045:A 0
9 *1624:B *521:18 4.9968e-05
10 *463:17 *1627:A1 5.4155e-06
11 *463:17 *521:18 1.34503e-05
12 *1621:B *463:6 0.000118294
13 *1621:B *463:17 0
14 *1626:A1 *1626:A2 6.38722e-05
15 *1626:A1 *463:17 0.000198939
16 *1627:B1 *1626:A2 0.00016063
17 *1627:B1 *463:17 6.78944e-05
*RES
1 *1623:X *463:6 4.465 
2 *463:6 *1627:A3 1.6 
3 *463:6 *463:17 2.895 
4 *463:17 *1626:A2 3.445 
5 *463:17 *1624:B 7.745 
*END

*D_NET *464 0.00335708
*CONN
*I *1644:A0 I *D sky130_fd_sc_hd__mux2_4
*I *1625:A I *D sky130_fd_sc_hd__inv_2
*I *1640:B I *D sky130_fd_sc_hd__xnor2_1
*I *1624:Y O *D sky130_fd_sc_hd__nand2_1
*CAP
1 *1644:A0 0.000220017
2 *1625:A 0
3 *1640:B 0.000252985
4 *1624:Y 0.000251286
5 *464:19 0.000345905
6 *464:6 0.000630158
7 *1640:B *1641:B 1.19928e-05
8 *1640:B *1643:A1 4.10576e-05
9 *1640:B *480:6 1.83756e-05
10 *1644:A0 *1643:S 7.00066e-05
11 *1644:A0 *1644:S 0.000237243
12 *1644:A0 *475:35 1.52184e-05
13 *464:6 *562:28 0.000201508
14 *464:19 *1643:A1 0
15 *464:19 *1643:S 1.52184e-05
16 *464:19 *1644:A1 0
17 *1624:A *464:6 4.99619e-05
18 *1640:A *1640:B 0.000723555
19 *1640:A *1644:A0 6.4422e-05
20 *1640:A *464:6 0.000113237
21 *1640:A *464:19 9.49289e-05
*RES
1 *1624:Y *464:6 6.535 
2 *464:6 *1640:B 8.53 
3 *464:6 *464:19 4.655 
4 *464:19 *1625:A 3.6 
5 *464:19 *1644:A0 8.355 
*END

*D_NET *465 0.000457807
*CONN
*I *1643:A0 I *D sky130_fd_sc_hd__mux2_1
*I *1625:Y O *D sky130_fd_sc_hd__inv_2
*CAP
1 *1643:A0 6.03253e-05
2 *1625:Y 6.03253e-05
3 *1643:A0 *1643:S 8.65905e-05
4 *1606:A *1643:A0 0.000162311
5 *446:10 *1643:A0 8.82557e-05
*RES
1 *1625:Y *1643:A0 5.375 
*END

*D_NET *466 0.000888325
*CONN
*I *1629:A1 I *D sky130_fd_sc_hd__a211o_4
*I *1628:A I *D sky130_fd_sc_hd__nand2_1
*I *1626:X O *D sky130_fd_sc_hd__a21o_1
*CAP
1 *1629:A1 6.78228e-05
2 *1628:A 0.000146082
3 *1626:X 3.38751e-05
4 *466:8 0.00024778
5 *1628:A *1628:B 0
6 *1628:A *1636:B 1.08758e-05
7 *1628:A *1653:C1 2.15738e-05
8 *1628:A *521:12 4.94326e-05
9 *1628:A *521:18 9.3062e-06
10 *1628:A *562:28 3.00381e-05
11 *1629:A1 *1653:C1 4.49328e-05
12 *1621:B *1629:A1 0
13 *1624:A *1628:A 3.12448e-05
14 *1624:B *1628:A 9.78642e-05
15 *1626:A1 *466:8 4.82863e-05
16 *462:10 *1628:A 7.21296e-06
17 *462:10 *1629:A1 2.67022e-05
18 *462:12 *1628:A 1.52945e-05
*RES
1 *1626:X *466:8 4.05 
2 *466:8 *1628:A 6.96 
3 *466:8 *1629:A1 4.98 
*END

*D_NET *467 0.0015618
*CONN
*I *1629:A2 I *D sky130_fd_sc_hd__a211o_4
*I *1628:B I *D sky130_fd_sc_hd__nand2_1
*I *1627:X O *D sky130_fd_sc_hd__a31o_1
*CAP
1 *1629:A2 0.000167305
2 *1628:B 0.00018438
3 *1627:X 0
4 *467:6 0.000351685
5 *1628:B *1636:B 0.000201503
6 *1628:B *1637:A1 0
7 *1628:B *562:28 0.000118294
8 *1629:A2 *510:25 7.67345e-05
9 *1621:A *1628:B 2.97561e-05
10 *1621:A *1629:A2 4.94326e-05
11 *1621:B *1628:B 3.09233e-05
12 *1621:B *1629:A2 8.35683e-05
13 *1624:A *1628:B 4.70343e-05
14 *1628:A *1628:B 0
15 *1629:C1 *1629:A2 8.40213e-05
16 *1636:A *1628:B 0
17 *462:10 *1629:A2 0.000120655
18 *462:12 *1628:B 1.65105e-05
*RES
1 *1627:X *467:6 3.6 
2 *467:6 *1628:B 8.34 
3 *467:6 *1629:A2 7.605 
*END

*D_NET *468 0.000752156
*CONN
*I *1636:B I *D sky130_fd_sc_hd__xnor2_1
*I *1628:Y O *D sky130_fd_sc_hd__nand2_1
*CAP
1 *1636:B 7.27353e-05
2 *1628:Y 7.27353e-05
3 *1636:B *521:12 0.00012657
4 *1636:B *521:47 0.000150653
5 *1636:B *562:28 5.98073e-05
6 *1624:A *1636:B 5.72761e-05
7 *1628:A *1636:B 1.08758e-05
8 *1628:B *1636:B 0.000201503
*RES
1 *1628:Y *1636:B 6.77 
*END

*D_NET *469 0.00240846
*CONN
*I *1635:A2 I *D sky130_fd_sc_hd__a21oi_4
*I *1650:A1 I *D sky130_fd_sc_hd__a211o_1
*I *1649:A1 I *D sky130_fd_sc_hd__a211o_1
*I *1629:X O *D sky130_fd_sc_hd__a211o_4
*CAP
1 *1635:A2 4.7827e-05
2 *1650:A1 1.85694e-05
3 *1649:A1 0.000130387
4 *1629:X 7.14035e-05
5 *469:14 0.000287419
6 *469:10 0.000257693
7 *1649:A1 *1649:A2 0.000229626
8 *1649:A1 *1653:C1 4.92096e-05
9 *1649:A1 *473:20 2.30292e-05
10 *1649:A1 *475:10 0
11 *1649:A1 *495:27 0.000200615
12 *1650:A1 *1650:A2 9.53428e-06
13 *469:10 *510:25 4.82863e-05
14 *469:14 *1650:B1 4.99619e-05
15 *469:14 *473:20 2.30292e-05
16 *469:14 *495:27 0.000373664
17 *1640:A *1649:A1 0
18 *273:16 *1649:A1 0
19 *453:25 *1635:A2 0.000183043
20 *453:25 *469:10 0.000114492
21 *459:23 *1635:A2 0.000174512
22 *459:23 *469:10 0.000116158
*RES
1 *1629:X *469:10 5.43 
2 *469:10 *469:14 5.555 
3 *469:14 *1649:A1 9.575 
4 *469:14 *1650:A1 1.96 
5 *469:10 *1635:A2 5.745 
*END

*D_NET *470 0.00113101
*CONN
*I *1661:A I *D sky130_fd_sc_hd__or2_1
*I *1632:A I *D sky130_fd_sc_hd__and2_1
*I *1630:X O *D sky130_fd_sc_hd__a21o_1
*CAP
1 *1661:A 8.05526e-05
2 *1632:A 0
3 *1630:X 0.000198144
4 *470:12 0.000278696
5 *1661:A *1612:A 0
6 *1661:A *1655:A 8.49205e-05
7 *1661:A *1655:B 4.21973e-05
8 *1661:A *1661:B 0.000123225
9 *1661:A *519:142 0.000122325
10 *1661:A *538:28 1.47347e-05
11 *470:12 *1632:B 9.50342e-06
12 *470:12 *1917:A2 0.000113797
13 *470:12 *475:73 8.53113e-06
14 *1889:A2 *470:12 0
15 *38:27 *470:12 5.43869e-05
*RES
1 *1630:X *470:12 8.465 
2 *470:12 *1632:A 1.6 
3 *470:12 *1661:A 4.135 
*END

*D_NET *471 0.0161167
*CONN
*I *1632:B I *D sky130_fd_sc_hd__and2_1
*I *1662:A1 I *D sky130_fd_sc_hd__a21oi_1
*I *1687:A1 I *D sky130_fd_sc_hd__a21o_1
*I *1686:B I *D sky130_fd_sc_hd__and3_1
*I *1756:B I *D sky130_fd_sc_hd__and3_1
*I *1755:A1 I *D sky130_fd_sc_hd__a21oi_1
*I *1731:B1 I *D sky130_fd_sc_hd__o21ai_1
*I *1665:B I *D sky130_fd_sc_hd__and3_1
*I *1631:X O *D sky130_fd_sc_hd__a211o_2
*CAP
1 *1632:B 9.60902e-05
2 *1662:A1 0
3 *1687:A1 0
4 *1686:B 0.000339858
5 *1756:B 0.000105408
6 *1755:A1 0.000154325
7 *1731:B1 0.000301352
8 *1665:B 0.000274909
9 *1631:X 8.55913e-05
10 *471:78 0.00289433
11 *471:47 0.0039598
12 *471:39 0.00138964
13 *471:35 6.14819e-05
14 *471:18 0.00120444
15 *471:8 0.00125716
16 *471:6 0.000544862
17 *1632:B *1633:A2 8.71001e-05
18 *1632:B *475:73 0.000118446
19 *1665:B *517:48 4.57464e-06
20 *1665:B *537:37 0.00024856
21 *1686:B *537:37 8.53592e-05
22 *1686:B *549:16 1.68017e-05
23 *1731:B1 *1586:A 4.77757e-05
24 *1731:B1 *515:42 1.14169e-05
25 *1756:B *1756:A 5.93673e-05
26 *471:8 *2019:D_N 0.000291923
27 *471:18 *1674:B1 1.56428e-05
28 *471:18 *2019:D_N 4.99619e-05
29 *471:18 *518:60 0.000328797
30 *471:39 *537:37 1.41634e-05
31 *471:39 *549:16 1.49369e-05
32 *471:39 *549:22 5.53249e-06
33 *471:78 *519:84 0.000107433
34 *1668:B *471:8 4.82919e-05
35 *1686:C *1686:B 7.79931e-05
36 *1688:B *471:18 1.0124e-05
37 *1709:A2 *1686:B 7.23533e-05
38 *1709:B1 *1686:B 0.00027209
39 *1755:A2 *1755:A1 2.76877e-05
40 *1756:C *1755:A1 1.85482e-05
41 *1756:C *1756:B 4.66474e-05
42 *1758:A *1755:A1 4.39337e-05
43 *1758:A *471:78 4.54664e-05
44 *1758:B *1756:B 4.77719e-05
45 *1758:C *1756:B 1.4088e-05
46 *1791:A2 *471:78 0
47 *1794:B1 *1756:B 0
48 *1798:C *471:78 0
49 *1799:A2 *471:78 7.06865e-05
50 *1889:A2 *1632:B 0
51 *1889:A2 *471:8 2.10034e-05
52 *43:14 *471:8 0.000201261
53 *43:24 *471:8 4.82863e-05
54 *43:24 *471:18 4.82919e-05
55 *51:10 *471:18 7.23533e-05
56 *52:10 *471:18 0.000143451
57 *61:22 *1665:B 1.47347e-05
58 *61:22 *471:18 0.000178199
59 *67:12 *471:39 8.53113e-06
60 *67:18 *1665:B 4.41506e-05
61 *92:67 *1731:B1 1.87328e-05
62 *136:10 *471:78 0
63 *140:12 *471:78 2.75538e-05
64 *163:8 *471:78 0
65 *273:44 *471:6 6.27529e-05
66 *273:44 *471:8 0.000100198
67 *283:22 *471:18 0.000145024
68 *470:12 *1632:B 9.50342e-06
*RES
1 *1631:X *471:6 3.085 
2 *471:6 *471:8 7.35 
3 *471:8 *471:18 18.145 
4 *471:18 *1665:B 10.1 
5 *471:18 *471:35 0.615 
6 *471:35 *471:39 2.4875 
7 *471:39 *471:47 2.54153 
8 *471:47 *1731:B1 5.64097 
9 *471:47 *471:78 18.4539 
10 *471:78 *1755:A1 3.43 
11 *471:78 *1756:B 7.43 
12 *471:39 *1686:B 8.7525 
13 *471:35 *1687:A1 1.6 
14 *471:8 *1662:A1 1.6 
15 *471:6 *1632:B 8.255 
*END

*D_NET *472 0.00129589
*CONN
*I *1633:A2 I *D sky130_fd_sc_hd__o21ba_4
*I *1632:X O *D sky130_fd_sc_hd__and2_1
*CAP
1 *1633:A2 0.000585065
2 *1632:X 0.000585065
3 *1633:A2 *474:22 0
4 *1633:A2 *475:73 0
5 *1631:A2 *1633:A2 0
6 *1632:B *1633:A2 8.71001e-05
7 *1633:B1_N *1633:A2 0
8 *1889:A2 *1633:A2 3.86607e-05
9 *443:22 *1633:A2 0
*RES
1 *1632:X *1633:A2 16.995 
*END

*D_NET *473 0.00205337
*CONN
*I *1635:A1 I *D sky130_fd_sc_hd__a21oi_4
*I *1650:A2 I *D sky130_fd_sc_hd__a211o_1
*I *1649:A2 I *D sky130_fd_sc_hd__a211o_1
*I *1633:X O *D sky130_fd_sc_hd__o21ba_4
*CAP
1 *1635:A1 1.51524e-05
2 *1650:A2 1.68577e-05
3 *1649:A2 0.000143182
4 *1633:X 0.0001382
5 *473:20 0.000319246
6 *473:8 0.000312559
7 *1635:A1 *1649:C1 8.8266e-05
8 *1635:A1 *474:22 5.05521e-05
9 *1649:A2 *495:27 1.61831e-05
10 *473:8 *474:22 5.65627e-05
11 *473:8 *475:10 6.74403e-05
12 *473:20 *1650:B1 0.000161302
13 *473:20 *1650:C1 7.4027e-05
14 *1633:B1_N *473:8 0.000162325
15 *1649:A1 *1649:A2 0.000229626
16 *1649:A1 *473:20 2.30292e-05
17 *1650:A1 *1650:A2 9.53428e-06
18 *1653:B1 *1649:A2 0.000122331
19 *273:16 *1649:A2 0
20 *460:8 *473:8 1.73877e-05
21 *460:8 *473:20 6.57653e-06
22 *469:14 *473:20 2.30292e-05
*RES
1 *1633:X *473:8 7.275 
2 *473:8 *473:20 5.435 
3 *473:20 *1649:A2 9.065 
4 *473:20 *1650:A2 1.96 
5 *473:8 *1635:A1 4.395 
*END

*D_NET *474 0.00520836
*CONN
*I *1635:B1 I *D sky130_fd_sc_hd__a21oi_4
*I *1650:B1 I *D sky130_fd_sc_hd__a211o_1
*I *1649:B1 I *D sky130_fd_sc_hd__a211o_1
*I *1634:X O *D sky130_fd_sc_hd__a21o_1
*CAP
1 *1635:B1 0
2 *1650:B1 6.87514e-05
3 *1649:B1 7.29285e-05
4 *1634:X 0.00118393
5 *474:33 8.78498e-05
6 *474:22 0.00127596
7 *1649:B1 *1649:C1 5.60858e-05
8 *1649:B1 *1653:C1 1.17309e-05
9 *1649:B1 *523:137 0.000162311
10 *1650:B1 *1650:C1 2.23485e-05
11 *1650:B1 *1653:C1 4.11112e-05
12 *1650:B1 *475:10 5.33085e-05
13 *474:22 *1589:B 4.82919e-05
14 *474:22 *1598:C1 0
15 *474:22 *1602:A 0.000247567
16 *474:22 *1634:B1 2.97004e-06
17 *474:22 *1649:C1 2.18022e-05
18 *474:22 *491:16 0
19 *474:22 *491:24 0
20 *474:22 *493:45 2.75229e-05
21 *474:22 *520:61 7.63204e-05
22 *474:22 *523:137 0.000160635
23 *474:33 *1649:C1 4.00541e-06
24 *1596:B *474:22 0
25 *1610:A *474:22 8.69208e-05
26 *1617:A1 *474:22 9.28942e-05
27 *1631:A2 *474:22 0
28 *1631:B1 *474:22 0.00013687
29 *1633:A2 *474:22 0
30 *1633:B1_N *474:22 0.000208484
31 *1635:A1 *474:22 5.05521e-05
32 *1889:A2 *474:22 0
33 *1961:A2 *474:22 0
34 *294:35 *474:22 0.000157904
35 *443:24 *474:22 4.28483e-05
36 *450:18 *474:22 1.93765e-05
37 *456:10 *474:22 0.0001682
38 *460:8 *474:22 0.000351053
39 *469:14 *1650:B1 4.99619e-05
40 *473:8 *474:22 5.65627e-05
41 *473:20 *1650:B1 0.000161302
*RES
1 *1634:X *474:22 32.72 
2 *474:22 *1649:B1 3.7 
3 *474:22 *474:33 0.615 
4 *474:33 *1650:B1 7.94 
5 *474:33 *1635:B1 1.6 
*END

*D_NET *475 0.0098361
*CONN
*I *1637:S I *D sky130_fd_sc_hd__mux2_4
*I *1917:A2 I *D sky130_fd_sc_hd__a211oi_1
*I *1661:B I *D sky130_fd_sc_hd__or2_1
*I *1653:A2 I *D sky130_fd_sc_hd__o211ai_2
*I *1652:A2 I *D sky130_fd_sc_hd__o211a_1
*I *1644:S I *D sky130_fd_sc_hd__mux2_4
*I *1643:S I *D sky130_fd_sc_hd__mux2_1
*I *1651:A2 I *D sky130_fd_sc_hd__o21ai_1
*I *1635:Y O *D sky130_fd_sc_hd__a21oi_4
*CAP
1 *1637:S 0.00032965
2 *1917:A2 0.000852761
3 *1661:B 2.77411e-05
4 *1653:A2 0
5 *1652:A2 0
6 *1644:S 0.000183182
7 *1643:S 8.58142e-05
8 *1651:A2 6.4512e-05
9 *1635:Y 0.000152268
10 *475:73 0.00140693
11 *475:35 0.000466363
12 *475:29 0.000235124
13 *475:27 0.000122318
14 *475:14 0.000350484
15 *475:12 0.000920198
16 *475:10 0.000674278
17 *1643:S *1643:A1 0
18 *1643:S *1644:A1 0
19 *1661:B *1655:B 8.49205e-05
20 *1661:B *538:28 1.91597e-05
21 *1917:A2 *1585:A 0
22 *1917:A2 *501:129 0.000349598
23 *1917:A2 *512:54 0
24 *1917:A2 *517:98 0.000349598
25 *1917:A2 *519:142 5.59628e-05
26 *1917:A2 *523:14 1.14559e-05
27 *1917:A2 *523:31 3.18437e-05
28 *1917:A2 *523:35 0
29 *1917:A2 *523:56 0
30 *475:10 *1653:C1 4.43871e-06
31 *475:27 *510:213 0.00012904
32 *475:29 *510:213 0.000154488
33 *475:35 *510:213 9.50342e-06
34 *475:73 *1655:B 0.000531088
35 *475:73 *523:14 0.000177655
36 *475:73 *561:75 0.00011852
37 *1606:A *1643:S 4.49585e-05
38 *1606:A *475:35 2.16022e-05
39 *1619:C *1637:S 6.06483e-05
40 *1632:B *475:73 0.000118446
41 *1633:A2 *475:73 0
42 *1640:A *475:35 6.14887e-05
43 *1643:A0 *1643:S 8.65905e-05
44 *1644:A0 *1643:S 7.00066e-05
45 *1644:A0 *1644:S 0.000237243
46 *1644:A0 *475:35 1.52184e-05
47 *1649:A1 *475:10 0
48 *1650:B1 *475:10 5.33085e-05
49 *1652:B1 *475:27 7.47145e-05
50 *1652:B1 *475:29 0.000163992
51 *1652:B1 *475:35 9.50342e-06
52 *1661:A *1661:B 0.000123225
53 *1774:C1 *1917:A2 0.000240541
54 *1889:A2 *1917:A2 0
55 *273:16 *475:27 2.37321e-05
56 *446:10 *1643:S 8.8266e-05
57 *459:6 *1637:S 4.66108e-05
58 *459:23 *1637:S 0.000192125
59 *464:19 *1643:S 1.52184e-05
60 *470:12 *1917:A2 0.000113797
61 *470:12 *475:73 8.53113e-06
62 *473:8 *475:10 6.74403e-05
*RES
1 *1635:Y *475:10 8.255 
2 *475:10 *475:12 2.865 
3 *475:12 *475:14 2.865 
4 *475:14 *1651:A2 2.395 
5 *475:14 *475:27 4.25 
6 *475:27 *475:29 1.89 
7 *475:29 *475:35 3.555 
8 *475:35 *1643:S 6.285 
9 *475:35 *1644:S 6.6375 
10 *475:29 *1652:A2 3.6 
11 *475:27 *1653:A2 3.6 
12 *475:12 *475:73 14.6 
13 *475:73 *1661:B 4.74 
14 *475:73 *1917:A2 21.24 
15 *475:10 *1637:S 7.24 
*END

*D_NET *476 0.00155104
*CONN
*I *1637:A1 I *D sky130_fd_sc_hd__mux2_4
*I *1636:Y O *D sky130_fd_sc_hd__xnor2_1
*CAP
1 *1637:A1 0.000420992
2 *1636:Y 0.000420992
3 *1637:A1 *521:47 4.99619e-05
4 *1637:A1 *562:28 0
5 *1621:A *1637:A1 0
6 *1623:A *1637:A1 1.82563e-05
7 *1623:D *1637:A1 7.63125e-05
8 *1628:B *1637:A1 0
9 *1636:A *1637:A1 4.05358e-05
10 *1637:A0 *1637:A1 9.50342e-06
11 *439:18 *1637:A1 0.000214945
12 *453:25 *1637:A1 0.000299541
*RES
1 *1636:Y *1637:A1 17.445 
*END

*D_NET *477 0.00546401
*CONN
*I *1639:B I *D sky130_fd_sc_hd__xnor2_2
*I *1681:B1 I *D sky130_fd_sc_hd__a21oi_1
*I *1638:B I *D sky130_fd_sc_hd__nor2_1
*I *1637:X O *D sky130_fd_sc_hd__mux2_4
*CAP
1 *1639:B 0
2 *1681:B1 0.000194342
3 *1638:B 0.000122769
4 *1637:X 0.000520521
5 *477:20 0.000458706
6 *477:12 0.000662115
7 *1638:B *1664:C1 2.97004e-06
8 *1638:B *518:60 0.000178314
9 *1681:B1 *2017:D 1.34503e-05
10 *1681:B1 *518:60 0.000358944
11 *477:12 *1581:A 0.0001249
12 *477:12 *490:60 0
13 *477:12 *559:40 0.00142221
14 *477:12 *561:75 0.000446464
15 *477:12 *562:28 0.000178496
16 *477:20 *479:10 8.40269e-05
17 *477:20 *559:40 4.66108e-05
18 *1657:B *1638:B 0
19 *1682:B1 *1681:B1 7.00889e-06
20 *1699:B1 *477:20 0.000283866
21 *44:10 *1638:B 0
22 *44:10 *1681:B1 0
23 *52:10 *1681:B1 2.75145e-05
24 *283:30 *477:12 1.91597e-05
25 *283:30 *477:20 2.05056e-05
26 *283:38 *477:20 0.000291112
*RES
1 *1637:X *477:12 22.49 
2 *477:12 *477:20 6.71 
3 *477:20 *1638:B 6 
4 *477:20 *1681:B1 8.235 
5 *477:12 *1639:B 1.6 
*END

*D_NET *478 0.000811586
*CONN
*I *1663:C1 I *D sky130_fd_sc_hd__a311oi_2
*I *1664:C1 I *D sky130_fd_sc_hd__a311o_1
*I *1638:Y O *D sky130_fd_sc_hd__nor2_1
*CAP
1 *1663:C1 0
2 *1664:C1 0.000151875
3 *1638:Y 7.91637e-05
4 *478:8 0.000231038
5 *1664:C1 *1660:A 2.7919e-05
6 *478:8 *518:60 1.56632e-05
7 *1638:B *1664:C1 2.97004e-06
8 *1657:B *1664:C1 0
9 *1664:B1 *1664:C1 0.000198198
10 *1680:B *1664:C1 1.33293e-05
11 *1682:A2 *1664:C1 1.07797e-05
12 *44:10 *1664:C1 9.50342e-06
13 *45:10 *1664:C1 2.75229e-05
14 *45:32 *478:8 4.36241e-05
*RES
1 *1638:Y *478:8 3.1 
2 *478:8 *1664:C1 8.84 
3 *478:8 *1663:C1 1.6 
*END

*D_NET *479 0.00204044
*CONN
*I *1663:A1 I *D sky130_fd_sc_hd__a311oi_2
*I *1664:A1 I *D sky130_fd_sc_hd__a311o_1
*I *1680:A I *D sky130_fd_sc_hd__xnor2_1
*I *1639:Y O *D sky130_fd_sc_hd__xnor2_2
*CAP
1 *1663:A1 0
2 *1664:A1 2.88696e-05
3 *1680:A 0.000103187
4 *1639:Y 0.000173372
5 *479:14 0.000215066
6 *479:10 0.000256382
7 *1664:A1 *1660:A 1.83756e-05
8 *1680:A *493:25 0
9 *1680:A *519:27 1.01661e-05
10 *479:10 *519:27 0
11 *479:14 *519:27 0
12 *1660:B *1680:A 2.96334e-05
13 *1663:A3 *1680:A 1.89685e-05
14 *1663:A3 *479:14 4.28483e-05
15 *1680:B *1680:A 0.000116151
16 *1682:A2 *1680:A 9.34333e-05
17 *1682:A2 *479:10 0.000180675
18 *1682:A2 *479:14 0.000140905
19 *1691:A2 *479:10 0
20 *1699:B1 *479:10 0.00030615
21 *39:6 *1680:A 5.30673e-05
22 *41:6 *1680:A 4.9253e-06
23 *41:10 *1680:A 3.76596e-05
24 *283:38 *479:10 0.000126575
25 *477:20 *479:10 8.40269e-05
*RES
1 *1639:Y *479:10 8.61 
2 *479:10 *479:14 2.085 
3 *479:14 *1680:A 7.05 
4 *479:14 *1664:A1 4.05 
5 *479:10 *1663:A1 3.6 
*END

*D_NET *480 0.000644845
*CONN
*I *1641:B I *D sky130_fd_sc_hd__xnor2_1
*I *1642:B I *D sky130_fd_sc_hd__xor2_1
*I *1640:Y O *D sky130_fd_sc_hd__xnor2_1
*CAP
1 *1641:B 5.17806e-05
2 *1642:B 0.00011199
3 *1640:Y 2.88696e-05
4 *480:6 0.00019264
5 *1642:B *493:8 0.000229196
6 *1640:B *1641:B 1.19928e-05
7 *1640:B *480:6 1.83756e-05
*RES
1 *1640:Y *480:6 2.05 
2 *480:6 *1642:B 8.255 
3 *480:6 *1641:B 2.41 
*END

*D_NET *481 0.000414017
*CONN
*I *1643:A1 I *D sky130_fd_sc_hd__mux2_1
*I *1641:Y O *D sky130_fd_sc_hd__xnor2_1
*CAP
1 *1643:A1 0.000164435
2 *1641:Y 0.000164435
3 *1643:A1 *1644:A1 4.40899e-05
4 *1640:B *1643:A1 4.10576e-05
5 *1643:S *1643:A1 0
6 *464:19 *1643:A1 0
*RES
1 *1641:Y *1643:A1 9.72 
*END

*D_NET *482 0.000814019
*CONN
*I *1644:A1 I *D sky130_fd_sc_hd__mux2_4
*I *1642:X O *D sky130_fd_sc_hd__xor2_1
*CAP
1 *1644:A1 0.000320547
2 *1642:X 0.000320547
3 *1644:A1 *493:8 0
4 *1606:A *1644:A1 0
5 *1642:A *1644:A1 6.14689e-05
6 *1643:A1 *1644:A1 4.40899e-05
7 *1643:S *1644:A1 0
8 *446:10 *1644:A1 6.73665e-05
9 *464:19 *1644:A1 0
*RES
1 *1642:X *1644:A1 13.425 
*END

*D_NET *483 0.00182405
*CONN
*I *1645:B I *D sky130_fd_sc_hd__nand2_1
*I *1689:B I *D sky130_fd_sc_hd__xnor2_1
*I *1643:X O *D sky130_fd_sc_hd__mux2_1
*CAP
1 *1645:B 0
2 *1689:B 0.000121399
3 *1643:X 0.000617741
4 *483:12 0.00073914
5 *1689:B *484:10 4.66108e-05
6 *483:12 *484:10 2.92496e-05
7 *483:12 *495:12 6.10014e-05
8 *1689:A *1689:B 0.000194509
9 *446:10 *483:12 1.4399e-05
*RES
1 *1643:X *483:12 12.95 
2 *483:12 *1689:B 4.48 
3 *483:12 *1645:B 1.6 
*END

*D_NET *484 0.00259764
*CONN
*I *1691:B1 I *D sky130_fd_sc_hd__a21o_1
*I *1659:A1 I *D sky130_fd_sc_hd__a221o_1
*I *1644:X O *D sky130_fd_sc_hd__mux2_4
*CAP
1 *1691:B1 0.000333027
2 *1659:A1 0
3 *1644:X 0.000481962
4 *484:10 0.00081499
5 *1691:B1 *1663:A2 2.13396e-05
6 *1691:B1 *485:8 0.00011562
7 *484:10 *1645:A 8.65961e-05
8 *484:10 *485:8 1.26548e-05
9 *484:10 *495:12 5.12017e-06
10 *1654:B *484:10 0
11 *1659:A2 *1691:B1 3.25831e-05
12 *1659:A2 *484:10 0.000195918
13 *1659:B1 *484:10 9.30787e-05
14 *1659:C1 *1691:B1 0
15 *1689:A *484:10 9.54469e-05
16 *1689:B *484:10 4.66108e-05
17 *1691:A1 *1691:B1 0.000124895
18 *39:14 *484:10 0
19 *45:10 *1691:B1 3.61929e-05
20 *46:10 *1691:B1 7.23533e-05
21 *483:12 *484:10 2.92496e-05
*RES
1 *1644:X *484:10 12.375 
2 *484:10 *1659:A1 3.6 
3 *484:10 *1691:B1 9.975 
*END

*D_NET *485 0.00251001
*CONN
*I *1663:A2 I *D sky130_fd_sc_hd__a311oi_2
*I *1664:A3 I *D sky130_fd_sc_hd__a311o_1
*I *1660:A I *D sky130_fd_sc_hd__nand2_1
*I *1645:Y O *D sky130_fd_sc_hd__nand2_1
*CAP
1 *1663:A2 0.00011891
2 *1664:A3 0
3 *1660:A 0.000159658
4 *1645:Y 0.000180857
5 *485:12 0.000229398
6 *485:8 0.000369508
7 *1663:A2 *519:27 5.93674e-05
8 *485:8 *1645:A 1.01661e-05
9 *485:8 *495:12 0.000140905
10 *485:8 *519:27 0.000150084
11 *1659:A2 *485:8 0.000225175
12 *1663:A3 *1663:A2 3.70488e-05
13 *1664:A1 *1660:A 1.83756e-05
14 *1664:B1 *1660:A 1.17309e-05
15 *1664:C1 *1660:A 2.7919e-05
16 *1680:B *1660:A 0.000158072
17 *1689:A *485:8 9.37731e-05
18 *1691:A2 *1663:A2 7.58604e-05
19 *1691:B1 *1663:A2 2.13396e-05
20 *1691:B1 *485:8 0.00011562
21 *45:10 *1663:A2 0.000120655
22 *46:10 *1663:A2 9.37731e-05
23 *46:10 *485:12 2.75229e-05
24 *46:25 *1663:A2 5.16418e-05
25 *484:10 *485:8 1.26548e-05
*RES
1 *1645:Y *485:8 9.825 
2 *485:8 *485:12 3.14 
3 *485:12 *1660:A 5.005 
4 *485:12 *1664:A3 1.6 
5 *485:8 *1663:A2 7.245 
*END

*D_NET *486 0.00131179
*CONN
*I *1901:A1 I *D sky130_fd_sc_hd__a21oi_1
*I *1647:B I *D sky130_fd_sc_hd__and2_1
*I *1648:B I *D sky130_fd_sc_hd__nand2_1
*I *1646:Y O *D sky130_fd_sc_hd__nand2_1
*CAP
1 *1901:A1 8.30985e-05
2 *1647:B 0
3 *1648:B 3.04517e-05
4 *1646:Y 0
5 *486:14 0.000273054
6 *486:4 0.000325701
7 *1648:B *1649:C1 4.99619e-05
8 *1901:A1 *490:60 0
9 *1901:A1 *510:98 0.000140912
10 *486:14 *1605:B 4.99619e-05
11 *486:14 *1646:A 3.91768e-05
12 *486:14 *510:76 4.82863e-05
13 *486:14 *523:137 3.51986e-05
14 *1648:A *1648:B 0.00012657
15 *1648:A *486:14 6.16472e-05
16 *445:6 *486:14 4.77719e-05
*RES
1 *1646:Y *486:4 1.6 
2 *486:4 *486:14 4.905 
3 *486:14 *1648:B 2.74 
4 *486:14 *1647:B 1.6 
5 *486:4 *1901:A1 7.235 
*END

*D_NET *487 0.00179078
*CONN
*I *1649:C1 I *D sky130_fd_sc_hd__a211o_1
*I *1647:X O *D sky130_fd_sc_hd__and2_1
*CAP
1 *1649:C1 0.000356961
2 *1647:X 0.000356961
3 *1649:C1 *1650:C1 0.000640632
4 *1649:C1 *1653:C1 1.08758e-05
5 *1649:C1 *523:137 0.000159169
6 *1635:A1 *1649:C1 8.8266e-05
7 *1648:A *1649:C1 4.60584e-05
8 *1648:B *1649:C1 4.99619e-05
9 *1649:B1 *1649:C1 5.60858e-05
10 *474:22 *1649:C1 2.18022e-05
11 *474:33 *1649:C1 4.00541e-06
*RES
1 *1647:X *1649:C1 12.29 
*END

*D_NET *488 0.00178463
*CONN
*I *1650:C1 I *D sky130_fd_sc_hd__a211o_1
*I *1648:Y O *D sky130_fd_sc_hd__nand2_1
*CAP
1 *1650:C1 0.000500298
2 *1648:Y 0.000500298
3 *1649:C1 *1650:C1 0.000640632
4 *1650:B1 *1650:C1 2.23485e-05
5 *460:8 *1650:C1 4.70256e-05
6 *473:20 *1650:C1 7.4027e-05
*RES
1 *1648:Y *1650:C1 14.55 
*END

*D_NET *489 0.00561939
*CONN
*I *1587:A I *D sky130_fd_sc_hd__nor2_1
*I *1809:A I *D sky130_fd_sc_hd__or4b_4
*I *1807:A I *D sky130_fd_sc_hd__nand2_2
*I *1815:D I *D sky130_fd_sc_hd__and4b_2
*I *1817:D I *D sky130_fd_sc_hd__and4bb_2
*I *1824:A_N I *D sky130_fd_sc_hd__and4bb_2
*I *1806:A_N I *D sky130_fd_sc_hd__and4b_2
*I *2057:X O *D sky130_fd_sc_hd__dlymetal6s2s_1
*CAP
1 *1587:A 9.71884e-06
2 *1809:A 0.000205224
3 *1807:A 0
4 *1815:D 0
5 *1817:D 9.59779e-05
6 *1824:A_N 0.000117607
7 *1806:A_N 8.34731e-05
8 *2057:X 0.000191676
9 *489:79 0.000530103
10 *489:35 0.000310498
11 *489:20 0.000192681
12 *489:18 0.000273941
13 *489:12 0.000371928
14 *489:10 0.000617118
15 *1587:A *2077:A 4.82919e-05
16 *1587:A *500:12 4.82919e-05
17 *1806:A_N *1806:D 6.69172e-05
18 *1806:A_N *1817:B_N 7.21296e-06
19 *1806:A_N *500:31 5.23362e-05
20 *1806:A_N *500:35 0.000109388
21 *1806:A_N *522:101 2.42236e-05
22 *1809:A *1809:C 0.00011584
23 *1809:A *2077:A 0
24 *1809:A *511:62 0.000142773
25 *1809:A *511:72 2.91399e-05
26 *1817:D *1817:A_N 4.99619e-05
27 *1817:D *1817:C 5.87938e-05
28 *1817:D *511:72 3.76633e-05
29 *1824:A_N *1824:C 4.80285e-05
30 *1824:A_N *491:128 8.37707e-05
31 *489:12 *2078:A 0
32 *489:18 *1815:C 2.05056e-05
33 *489:18 *2078:A 0
34 *489:18 *491:128 2.59926e-05
35 *489:18 *500:31 0
36 *489:18 *522:101 4.92096e-05
37 *489:20 *1815:C 2.75229e-05
38 *489:35 *1824:B_N 0.000124895
39 *489:35 *1824:D 1.34594e-05
40 *489:35 *491:128 1.21515e-05
41 *489:35 *500:55 8.34281e-06
42 *489:79 *2077:A 4.60584e-05
43 *489:79 *500:29 7.06865e-05
44 op_out[0] *489:79 0.000119762
45 *1805:A2 *489:18 0.000114492
46 *1805:D1 *1809:A 5.4003e-05
47 *1815:B *489:35 4.66108e-05
48 *1820:C *1824:A_N 8.40213e-05
49 *1820:C *489:18 9.2741e-05
50 *1820:C *489:20 2.16917e-05
51 *1820:C *489:35 0.00030615
52 *2057:A *489:10 0.000164874
53 *189:12 *489:18 0
54 *191:63 *1809:A 1.91597e-05
55 *191:63 *1817:D 0.000155554
56 *197:10 *489:18 4.99619e-05
57 *315:10 *1809:A 6.45236e-05
58 *315:10 *489:79 4.43871e-06
*RES
1 *2057:X *489:10 7.08 
2 *489:10 *489:12 1.635 
3 *489:12 *489:18 7.415 
4 *489:18 *489:20 0.45 
5 *489:20 *1806:A_N 7.745 
6 *489:20 *489:35 3.225 
7 *489:35 *1824:A_N 4.135 
8 *489:35 *1817:D 7.94 
9 *489:18 *1815:D 1.6 
10 *489:12 *1807:A 3.6 
11 *489:10 *489:79 8.185 
12 *489:79 *1809:A 8.025 
13 *489:79 *1587:A 4.05 
*END

*D_NET *490 0.0275489
*CONN
*I *1982:B2 I *D sky130_fd_sc_hd__a22oi_1
*I *1802:A I *D sky130_fd_sc_hd__or4_1
*I *1951:A I *D sky130_fd_sc_hd__or2_1
*I *1952:A I *D sky130_fd_sc_hd__nand2_1
*I *1957:A1 I *D sky130_fd_sc_hd__a21oi_1
*I *1914:A I *D sky130_fd_sc_hd__and2_1
*I *1959:A1 I *D sky130_fd_sc_hd__a32o_1
*I *2002:B2 I *D sky130_fd_sc_hd__a32o_1
*I *1958:A1 I *D sky130_fd_sc_hd__o22a_1
*I *1609:B I *D sky130_fd_sc_hd__or2_1
*I *1622:B1 I *D sky130_fd_sc_hd__o21ai_1
*I *1608:B I *D sky130_fd_sc_hd__and2_1
*I *1607:B I *D sky130_fd_sc_hd__nor2_1
*I *2025:A I *D sky130_fd_sc_hd__nand2_1
*I *2058:X O *D sky130_fd_sc_hd__clkbuf_4
*CAP
1 *1982:B2 0.000145887
2 *1802:A 0
3 *1951:A 4.63971e-05
4 *1952:A 0.000114346
5 *1957:A1 0.000163184
6 *1914:A 0.000511481
7 *1959:A1 0
8 *2002:B2 0.000415322
9 *1958:A1 0.000171418
10 *1609:B 1.8765e-05
11 *1622:B1 0.000206047
12 *1608:B 2.2266e-05
13 *1607:B 0.000109954
14 *2025:A 0
15 *2058:X 0.00114844
16 *490:182 0.000503017
17 *490:161 0.000541958
18 *490:142 0.00083004
19 *490:109 0.00058674
20 *490:107 1.04051e-05
21 *490:105 0.00123636
22 *490:89 0.00211356
23 *490:60 0.00197623
24 *490:49 0.001088
25 *490:38 0.000276394
26 *490:27 0.000523238
27 *490:25 0.000659128
28 *490:12 0.00140838
29 *1607:B *1607:A 0.000239807
30 *1607:B *521:47 0.000228863
31 *1608:B *523:143 4.82919e-05
32 *1609:B *501:160 4.88478e-05
33 *1622:B1 *510:25 0.000576166
34 *1914:A *1949:A1 0
35 *1914:A *1960:A1 3.09164e-05
36 *1914:A *510:176 0.000219545
37 *1914:A *545:10 1.22505e-05
38 *1914:A *545:23 0
39 *1914:A *560:27 9.54399e-05
40 *1914:A *560:40 1.61831e-05
41 *1957:A1 *2097:A 4.60584e-05
42 *1958:A1 *1959:A2 9.50342e-06
43 *1982:B2 *1980:A 5.82176e-05
44 *1982:B2 *1980:B 0.000198945
45 *1982:B2 *1982:A1 0.000504484
46 *1982:B2 *1982:A2 0.000203178
47 *2002:B2 *1959:A2 8.12265e-05
48 *2002:B2 *2002:A1 0.00018305
49 *2002:B2 *2082:A 0
50 *2002:B2 *492:39 0
51 *490:12 *2055:A 0.00026033
52 *490:12 *519:202 0
53 *490:12 *562:14 8.8266e-05
54 *490:25 *2025:B 5.59592e-05
55 *490:25 *519:202 0
56 *490:27 *1980:B 0
57 *490:27 *1982:A1 0
58 *490:27 *2026:B 4.12764e-05
59 *490:27 *521:51 0
60 *490:27 *523:151 0
61 *490:38 *519:202 0
62 *490:38 *521:51 0
63 *490:38 *523:143 1.52184e-05
64 *490:38 *523:149 0
65 *490:38 *562:28 0
66 *490:49 *523:143 0.000103974
67 *490:49 *562:28 0
68 *490:60 *2018:B2 0
69 *490:60 *510:98 0
70 *490:60 *510:133 9.34835e-05
71 *490:60 *523:137 4.84393e-05
72 *490:60 *523:143 0.000173973
73 *490:60 *561:33 0
74 *490:60 *561:63 0
75 *490:60 *562:28 0
76 *490:89 *1600:A1 0.000139245
77 *490:89 *1600:B1 0.000127227
78 *490:89 *1802:D 6.68079e-05
79 *490:89 *1893:A 1.46828e-05
80 *490:89 *2026:B 0.000113115
81 *490:89 *510:133 0.000225171
82 *490:89 *523:60 2.7881e-05
83 *490:89 *523:69 1.20524e-05
84 *490:89 *533:59 0.000224918
85 *490:89 *543:14 1.88904e-05
86 *490:105 *1802:D 5.16418e-05
87 *490:105 *1803:B 4.9968e-05
88 *490:105 *2082:A 4.99619e-05
89 *490:105 *492:53 2.11458e-05
90 *490:161 *1960:A1 5.86739e-05
91 *490:182 *1950:A 0.000272984
92 *490:182 *2098:A 0.000150653
93 *490:182 *545:41 0
94 *1601:A1 *490:89 0.000679866
95 *1609:A *1609:B 8.52845e-05
96 *1609:A *490:89 0.000344141
97 *1800:C *490:89 6.47274e-05
98 *1816:B *2002:B2 8.59296e-05
99 *1828:A2 *1958:A1 8.65905e-05
100 *1901:A1 *490:60 0
101 *1913:B1 *1914:A 9.53428e-06
102 *1913:B2 *1914:A 1.27894e-05
103 *1914:B *1914:A 9.52646e-05
104 *1916:B1 *1914:A 0.000124007
105 *1951:B *1951:A 4.60584e-05
106 *1951:B *490:182 7.53266e-05
107 *1952:B *1952:A 0.000113988
108 *1956:A_N *1952:A 0
109 *1957:B1 *1957:A1 0.000158066
110 *1958:B1 *1914:A 5.16348e-05
111 *1958:B2 *1914:A 0.000113752
112 *1958:B2 *490:161 4.36573e-06
113 *1958:B2 *490:182 5.33211e-05
114 *1959:B1 *490:142 2.87433e-05
115 *1960:A2 *1914:A 2.86623e-05
116 *1960:A2 *490:142 3.84487e-05
117 *1960:A2 *490:161 2.88529e-05
118 *1960:A2 *490:182 1.35532e-05
119 *1961:B1 *1958:A1 4.47209e-05
120 *1962:A *490:105 0.000184888
121 *1962:B *490:142 2.21994e-05
122 *2002:B1 *490:182 0.000175123
123 *2005:B1 *1951:A 9.66106e-05
124 *2005:B1 *2002:B2 0.000107845
125 *2005:B1 *490:182 3.73239e-05
126 *2028:A *490:25 7.81954e-05
127 *2028:B *490:25 9.38181e-05
128 *2028:B *490:27 2.01541e-05
129 *2029:B *490:25 0
130 *2029:B *490:27 0
131 *2041:B1 *490:89 0.000978893
132 *2041:B1 *490:105 0.000679636
133 *2062:A *490:12 8.65961e-05
134 *2076:A *490:12 0.00012657
135 *2090:A *490:60 7.17589e-05
136 *2090:A *490:89 3.47876e-05
137 *2091:A *490:60 7.9642e-06
138 *2091:A *490:89 0.000157619
139 *188:66 *1958:A1 9.27495e-05
140 *188:72 *1914:A 3.3972e-05
141 *190:31 *1958:A1 0
142 *197:95 *490:105 5.73163e-05
143 *197:108 *1958:A1 5.4003e-05
144 *197:108 *2002:B2 0.000452309
145 *197:108 *490:105 3.66423e-05
146 *197:108 *490:142 1.19928e-05
147 *199:57 *1958:A1 9.42302e-05
148 *326:18 *490:105 0.00023635
149 *338:10 *490:182 0.000140912
150 *339:6 *490:182 0.000275548
151 *348:10 *490:89 2.42236e-05
152 *348:36 *490:89 2.32724e-05
153 *423:12 *490:89 0
154 *441:8 *490:89 0.000449004
155 *453:25 *1622:B1 8.49205e-05
156 *477:12 *490:60 0
*RES
1 *2058:X *490:12 25.505 
2 *490:12 *2025:A 1.6 
3 *490:12 *490:25 7.3025 
4 *490:25 *490:27 4.3125 
5 *490:27 *1607:B 7.155 
6 *490:27 *490:38 2.4 
7 *490:38 *1608:B 4.05 
8 *490:38 *490:49 2.145 
9 *490:49 *1622:B1 8.88 
10 *490:49 *490:60 14.385 
11 *490:60 *1609:B 4.395 
12 *490:60 *490:89 33.965 
13 *490:89 *490:105 18.07 
14 *490:105 *490:107 0.36 
15 *490:107 *490:109 2 
16 *490:109 *1958:A1 7.74 
17 *490:109 *2002:B2 12.18 
18 *490:107 *1959:A1 1.6 
19 *490:105 *490:142 5.21 
20 *490:142 *1914:A 14.115 
21 *490:142 *490:161 0.87 
22 *490:161 *1957:A1 5.775 
23 *490:161 *490:182 11.6 
24 *490:182 *1952:A 8 
25 *490:182 *1951:A 3.085 
26 *490:89 *1802:A 1.6 
27 *490:25 *1982:B2 9.2175 
*END

*D_NET *491 0.0319516
*CONN
*I *2042:A1 I *D sky130_fd_sc_hd__a211o_1
*I *1966:A I *D sky130_fd_sc_hd__xor2_1
*I *2006:A1 I *D sky130_fd_sc_hd__a21oi_1
*I *2000:A1 I *D sky130_fd_sc_hd__a21oi_1
*I *2001:A1 I *D sky130_fd_sc_hd__o22a_1
*I *1959:B2 I *D sky130_fd_sc_hd__a32o_1
*I *2002:A1 I *D sky130_fd_sc_hd__a32o_1
*I *1802:D I *D sky130_fd_sc_hd__or4_1
*I *1593:A_N I *D sky130_fd_sc_hd__and2b_1
*I *1981:A I *D sky130_fd_sc_hd__and3_1
*I *1982:A2 I *D sky130_fd_sc_hd__a22oi_1
*I *1980:A I *D sky130_fd_sc_hd__nand2_1
*I *1603:A I *D sky130_fd_sc_hd__nand3_1
*I *1604:A2 I *D sky130_fd_sc_hd__a21o_1
*I *1616:A1 I *D sky130_fd_sc_hd__a22o_1
*I *1602:A I *D sky130_fd_sc_hd__and3_1
*I *2059:X O *D sky130_fd_sc_hd__buf_4
*CAP
1 *2042:A1 4.26888e-05
2 *1966:A 7.19554e-05
3 *2006:A1 0
4 *2000:A1 5.00353e-05
5 *2001:A1 2.89733e-05
6 *1959:B2 0.000134191
7 *2002:A1 7.33414e-05
8 *1802:D 0.000141458
9 *1593:A_N 3.86698e-05
10 *1981:A 0
11 *1982:A2 9.09182e-05
12 *1980:A 0.000173558
13 *1603:A 1.11992e-05
14 *1604:A2 0
15 *1616:A1 0
16 *1602:A 9.69828e-05
17 *2059:X 0.000441388
18 *491:217 0.000527596
19 *491:198 0.000608475
20 *491:185 0.000381105
21 *491:170 0.000435345
22 *491:155 0.00034301
23 *491:147 0.000575743
24 *491:128 0.00148424
25 *491:82 0.000436596
26 *491:78 0.000810515
27 *491:65 0.000727583
28 *491:54 0.000518874
29 *491:37 0.000500473
30 *491:24 0.000507407
31 *491:16 0.00133372
32 *491:10 0.00241318
33 *1593:A_N *1593:B 7.49327e-05
34 *1593:A_N *520:51 0.00016063
35 *1593:A_N *523:31 4.99619e-05
36 *1802:D *1802:C 4.66108e-05
37 *1802:D *1803:B 4.91453e-05
38 *1802:D *1893:A 4.82863e-05
39 *1802:D *510:150 5.99393e-05
40 *1802:D *523:80 0
41 *1802:D *533:59 8.53113e-06
42 *1959:B2 *1949:A1 0.000155252
43 *1980:A *1980:B 0.000234674
44 *1980:A *1982:A1 9.80943e-06
45 *1982:A2 *1982:A1 6.90876e-05
46 *2001:A1 *534:16 4.66108e-05
47 *2002:A1 *492:39 7.25122e-05
48 *2042:A1 *501:240 1.08758e-05
49 *491:10 *1831:A 1.52945e-05
50 *491:10 *1834:A 9.49541e-05
51 *491:10 *2081:A 4.82863e-05
52 *491:10 *544:92 0.00020613
53 *491:16 *1589:B 0
54 *491:16 *1634:B1 0
55 *491:16 *1831:A 0.000374739
56 *491:16 *544:92 0.000937435
57 *491:24 *519:159 0.00016063
58 *491:24 *538:28 6.27347e-05
59 *491:37 *519:159 0.000275553
60 *491:37 *538:28 0.000103471
61 *491:54 *510:133 0.000248261
62 *491:54 *519:159 0.000269521
63 *491:54 *538:28 0.000153814
64 *491:54 *557:12 0.000122331
65 *491:65 *2016:B2 1.08758e-05
66 *491:78 *1926:A 0.000559578
67 *491:78 *2016:B2 0.000145515
68 *491:78 *497:47 0.000146098
69 *491:78 *519:198 7.07879e-05
70 *491:78 *519:202 0.000190889
71 *491:78 *521:85 7.4027e-05
72 *491:78 *521:107 0.000540406
73 *491:78 *561:33 0.000176647
74 *491:78 *561:63 0.000184935
75 *491:82 *1979:A 0
76 *491:82 *519:202 0.00017584
77 *491:128 *1803:B 1.39525e-05
78 *491:128 *1806:D 3.53774e-05
79 *491:128 *1815:C 8.49205e-05
80 *491:128 *1824:B_N 0
81 *491:128 *1824:C 4.80285e-05
82 *491:128 *1824:D 0.0001249
83 *491:128 *500:55 0.000108098
84 *491:128 *513:99 3.14385e-05
85 *491:128 *523:80 0
86 *491:128 *523:95 0
87 *491:128 *533:85 0.000498564
88 *491:147 *513:84 0.000230429
89 *491:155 *1818:B2 0.000232111
90 *491:155 *501:221 0.000176071
91 *491:185 *1949:A1 1.71013e-05
92 *491:185 *2002:A2 0.000330895
93 *491:185 *492:27 0
94 *491:198 *2002:A2 2.92496e-05
95 *491:198 *534:16 2.03321e-05
96 op_out[2] *491:10 0
97 *1596:B *491:16 0.000267591
98 *1599:A *491:54 0.000195859
99 *1603:B *1603:A 9.53428e-06
100 *1603:B *491:65 0.00011659
101 *1603:C *491:65 6.20192e-05
102 *1612:B *491:24 0.000136884
103 *1804:A *1802:D 9.05837e-05
104 *1824:A_N *491:128 8.37707e-05
105 *1833:B *491:10 0
106 *1844:B1 *491:10 0
107 *1845:A1 *491:10 4.42841e-05
108 *1889:A2 *491:16 0.000624995
109 *1889:A2 *491:24 0.000347515
110 *1889:B1 *491:16 0.000286275
111 *1891:A *491:147 0.000120655
112 *1902:B *491:78 0.00082156
113 *1917:A1 *491:16 0.000101317
114 *1917:B1 *491:16 0
115 *1918:A2 *491:16 7.23533e-05
116 *1949:A2 *491:155 0.000758108
117 *1949:A2 *491:170 0.000143833
118 *1981:C *491:78 5.10957e-05
119 *1981:C *491:82 5.53249e-06
120 *1982:B2 *1980:A 5.82176e-05
121 *1982:B2 *1982:A2 0.000203178
122 *2000:B1 *2000:A1 5.05437e-05
123 *2001:B2 *2000:A1 1.91597e-05
124 *2001:B2 *491:185 9.50342e-06
125 *2001:B2 *491:198 0.000129735
126 *2001:B2 *491:217 1.08758e-05
127 *2002:B1 *491:185 0
128 *2002:B2 *2002:A1 0.00018305
129 *2003:B1 *491:185 2.16389e-05
130 *2003:C1 *491:185 0.000139245
131 *2006:A2 *1966:A 0.000120186
132 *2008:A2 *491:217 0.000123295
133 *2010:A *1966:A 6.74079e-05
134 *2010:B *491:217 0.000892368
135 *2021:B2 *491:78 0.000196683
136 *2024:B1_N *491:82 0
137 *2027:A *1980:A 2.75145e-05
138 *2029:B *1980:A 0.00015639
139 *2029:B *1982:A2 0.000173364
140 *2041:B1 *1802:D 0.000105102
141 *2042:B1 *2042:A1 2.98656e-05
142 *2042:B1 *491:147 2.49909e-05
143 *2091:A *491:54 9.50342e-06
144 *186:8 *491:128 0.000593277
145 *191:14 *491:10 1.66065e-05
146 *191:14 *491:128 8.40269e-05
147 *191:76 *491:155 0.000304433
148 *191:76 *491:170 8.247e-05
149 *191:89 *491:198 0
150 *192:85 *2001:A1 8.40269e-05
151 *196:20 *491:155 0.000177745
152 *197:10 *491:128 2.75145e-05
153 *199:55 *1959:B2 0.000276123
154 *199:55 *491:185 0.000266114
155 *199:57 *1959:B2 3.09164e-05
156 *205:10 *491:128 1.91597e-05
157 *250:12 *491:16 3.31204e-05
158 *273:66 *1602:A 1.88904e-05
159 *294:35 *1602:A 0
160 *326:36 *491:16 0.000209179
161 *326:40 *491:16 0.000307688
162 *336:16 *491:147 0.000121065
163 *338:10 *491:185 0
164 *372:12 *491:82 0
165 *373:8 *1982:A2 5.02285e-05
166 *441:8 *491:54 0.000249928
167 *456:10 *1602:A 7.64902e-05
168 *474:22 *1602:A 0.000247567
169 *474:22 *491:16 0
170 *474:22 *491:24 0
171 *489:18 *491:128 2.59926e-05
172 *489:35 *491:128 1.21515e-05
173 *490:89 *1802:D 6.68079e-05
174 *490:105 *1802:D 5.16418e-05
*RES
1 *2059:X *491:10 12 
2 *491:10 *491:16 28.965 
3 *491:16 *491:24 9.905 
4 *491:24 *1602:A 8.51 
5 *491:24 *491:37 2.52 
6 *491:37 *1616:A1 1.6 
7 *491:37 *491:54 13.69 
8 *491:54 *1604:A2 1.6 
9 *491:54 *491:65 1.95 
10 *491:65 *1603:A 1.96 
11 *491:65 *491:78 23.99 
12 *491:78 *491:82 5.675 
13 *491:82 *1980:A 5.86 
14 *491:82 *1982:A2 5.18875 
15 *491:78 *1981:A 3.6 
16 *491:16 *1593:A_N 5.085 
17 *491:10 *491:128 23.53 
18 *491:128 *1802:D 7.44 
19 *491:128 *491:147 7.625 
20 *491:147 *491:155 13.15 
21 *491:155 *2002:A1 7.745 
22 *491:155 *491:170 3.485 
23 *491:170 *1959:B2 7.275 
24 *491:170 *491:185 7.035 
25 *491:185 *2001:A1 4.395 
26 *491:185 *491:198 4.145 
27 *491:198 *2000:A1 2.755 
28 *491:198 *491:217 11.295 
29 *491:217 *2006:A1 1.6 
30 *491:217 *1966:A 7.595 
31 *491:147 *2042:A1 2.41 
*END

*D_NET *492 0.0177736
*CONN
*I *2003:A1 I *D sky130_fd_sc_hd__a211o_1
*I *2039:A1 I *D sky130_fd_sc_hd__a21oi_1
*I *2040:A1 I *D sky130_fd_sc_hd__o22a_1
*I *2041:A1 I *D sky130_fd_sc_hd__a32o_1
*I *1582:A I *D sky130_fd_sc_hd__inv_2
*I *1592:B1 I *D sky130_fd_sc_hd__o41ai_4
*I *2026:B I *D sky130_fd_sc_hd__nand2_1
*I *1802:C I *D sky130_fd_sc_hd__or4_1
*I *2007:A I *D sky130_fd_sc_hd__xnor2_1
*I *2060:X O *D sky130_fd_sc_hd__clkbuf_4
*CAP
1 *2003:A1 4.34394e-05
2 *2039:A1 0
3 *2040:A1 0
4 *2041:A1 1.90984e-05
5 *1582:A 5.39834e-05
6 *1592:B1 0
7 *2026:B 0.00348028
8 *1802:C 4.26634e-05
9 *2007:A 2.41569e-05
10 *2060:X 0.000424882
11 *492:72 0.00364292
12 *492:70 0.000607093
13 *492:55 0.000545054
14 *492:53 0.000351926
15 *492:41 0.000253704
16 *492:39 0.000367006
17 *492:27 0.000658149
18 *492:14 0.000729537
19 *1582:A *1825:B1 0.000120655
20 *1582:A *520:126 4.66108e-05
21 *1582:A *561:143 5.58206e-05
22 *1802:C *510:150 1.08758e-05
23 *1802:C *510:165 3.24882e-05
24 *2007:A *2007:B 4.82919e-05
25 *2026:B *1982:A1 8.53113e-06
26 *2026:B *497:47 4.13879e-05
27 *2026:B *510:133 0.000100939
28 *2026:B *513:84 1.54862e-05
29 *2026:B *523:151 0.000106987
30 *492:14 *2007:B 1.16578e-05
31 *492:14 *2082:A 7.35813e-05
32 *492:14 *534:10 1.56615e-05
33 *492:27 *2082:A 0.00050355
34 *492:27 *534:10 0
35 *492:27 *534:16 0
36 *492:39 *2039:A2 4.82919e-05
37 *492:39 *2082:A 0.000506759
38 *492:41 *2039:A2 0.000120655
39 *492:53 *501:240 4.7878e-05
40 *492:70 *497:47 0.000271666
41 *492:70 *512:113 0.000510028
42 *492:70 *513:84 0.000106606
43 *492:72 *497:47 0.000505582
44 *492:72 *513:84 0.000206425
45 op_out[5] *492:14 3.83895e-05
46 *1609:A *2026:B 0.000111725
47 *1802:D *1802:C 4.66108e-05
48 *1816:B *2003:A1 4.66108e-05
49 *1816:B *492:27 2.92496e-05
50 *1816:B *492:39 1.88904e-05
51 *1828:A2 *492:70 6.73424e-05
52 *1838:A *492:70 0.000115863
53 *1957:B1 *492:39 2.8185e-05
54 *1957:B1 *492:41 4.82919e-05
55 *1962:C *492:53 3.09233e-05
56 *2001:B2 *492:27 0
57 *2002:A1 *492:39 7.25122e-05
58 *2002:B2 *492:39 0
59 *2003:A2 *2003:A1 9.53428e-06
60 *2003:B1 *492:27 0
61 *2004:B1 *2003:A1 0.0001249
62 *2009:A *492:14 7.00889e-06
63 *2041:B1 *1802:C 3.83194e-05
64 *2041:B1 *492:53 3.04056e-05
65 *2041:B1 *492:55 0.000258998
66 *2070:A *492:14 5.30673e-05
67 *182:21 *492:70 0.000153346
68 *188:36 *492:53 9.57037e-05
69 *190:20 *492:41 4.66108e-05
70 *190:27 *492:41 4.66108e-05
71 *190:31 *492:53 0
72 *197:10 *492:70 2.92496e-05
73 *197:22 *492:70 0.000132842
74 *197:78 *1802:C 4.66108e-05
75 *197:78 *492:55 0.000370212
76 *197:95 *492:53 0.000259544
77 *197:95 *492:55 8.49205e-05
78 *199:40 *2003:A1 2.16917e-05
79 *199:55 *2003:A1 1.61831e-05
80 *326:18 *2041:A1 4.00541e-06
81 *326:18 *492:39 2.45662e-05
82 *326:18 *492:53 0.000208148
83 *336:16 *492:39 0.000120655
84 *490:27 *2026:B 4.12764e-05
85 *490:89 *2026:B 0.000113115
86 *490:105 *492:53 2.11458e-05
87 *491:185 *492:27 0
*RES
1 *2060:X *492:14 12.53 
2 *492:14 *2007:A 2.05 
3 *492:14 *492:27 8.33 
4 *492:27 *492:39 13.47 
5 *492:39 *492:41 1.14 
6 *492:41 *492:53 9.565 
7 *492:53 *492:55 4.245 
8 *492:55 *1802:C 2.74 
9 *492:55 *492:70 12.86 
10 *492:70 *492:72 5.97 
11 *492:72 *2026:B 13.4073 
12 *492:72 *1592:B1 3.6 
13 *492:70 *1582:A 5.085 
14 *492:53 *2041:A1 1.96 
15 *492:41 *2040:A1 1.6 
16 *492:39 *2039:A1 1.6 
17 *492:27 *2003:A1 5.1 
*END

*D_NET *493 0.0202503
*CONN
*I *1862:A1 I *D sky130_fd_sc_hd__o31a_1
*I *1831:A I *D sky130_fd_sc_hd__nand2_1
*I *1839:A1 I *D sky130_fd_sc_hd__o21a_1
*I *1846:A1 I *D sky130_fd_sc_hd__a21o_1
*I *1848:A I *D sky130_fd_sc_hd__and3_1
*I *1826:A I *D sky130_fd_sc_hd__and3_1
*I *2056:A I *D sky130_fd_sc_hd__buf_4
*I *2061:X O *D sky130_fd_sc_hd__buf_2
*CAP
1 *1862:A1 5.10773e-05
2 *1831:A 0.000832539
3 *1839:A1 0
4 *1846:A1 0
5 *1848:A 0.000154503
6 *1826:A 0
7 *2056:A 0
8 *2061:X 0.00110478
9 *493:86 0.000931915
10 *493:80 0.000713353
11 *493:56 0.000217031
12 *493:45 0.00183168
13 *493:25 0.00340074
14 *493:8 0.00217347
15 *1831:A *1839:A2 9.02259e-05
16 *1831:A *533:85 8.23457e-05
17 *1848:A *512:29 9.61414e-05
18 *1848:A *512:90 7.26551e-05
19 *1848:A *512:103 3.05373e-05
20 *1848:A *514:119 9.50342e-06
21 *1862:A1 *497:31 0.000112349
22 *493:25 *1674:B1 0
23 *493:25 *518:60 0
24 *493:25 *519:142 0
25 *493:25 *523:10 0.000237249
26 *493:45 *1589:B 0.000148238
27 *493:45 *1596:A 0.000443928
28 *493:45 *1597:B1_N 0.000230429
29 *493:45 *1598:A2 4.99619e-05
30 *493:45 *1598:B1 7.06865e-05
31 *493:45 *1598:C1 4.66108e-05
32 *493:45 *1600:A1 4.72251e-05
33 *493:45 *1634:A2 6.1357e-05
34 *493:45 *2054:A 0.000107003
35 *493:45 *518:130 3.57349e-05
36 *493:45 *562:34 5.20968e-05
37 *493:56 *512:103 4.65643e-05
38 *493:56 *514:119 9.54399e-05
39 *493:80 *497:31 0.000275548
40 *493:80 *501:129 0
41 *493:80 *519:142 0
42 *1594:B1 *493:45 8.53113e-06
43 *1606:A *493:8 0
44 *1606:A *493:25 0.00035695
45 *1642:A *493:8 0.000159964
46 *1642:B *493:8 0.000229196
47 *1644:A1 *493:8 0
48 *1657:B *493:8 4.18603e-06
49 *1657:B *493:25 0.000161492
50 *1660:B *493:25 2.97004e-06
51 *1668:B *493:25 0.000201407
52 *1672:A *493:25 0
53 *1676:B *493:25 6.28765e-05
54 *1679:A1 *493:25 2.7881e-05
55 *1680:A *493:25 0
56 *1682:A2 *493:25 0
57 *1714:A *493:25 0.000139245
58 *1715:S *493:25 0
59 *1715:S *493:80 0
60 *1720:A *493:45 2.75145e-05
61 *1720:B *493:45 2.67184e-05
62 *1721:A1 *493:80 0
63 *1831:B *1831:A 0
64 *1839:B1 *1831:A 0.000230435
65 *1844:B1 *1831:A 6.44247e-05
66 *1856:B *1848:A 0
67 *1869:B *1831:A 7.23602e-05
68 *1890:A_N *1831:A 0.000245677
69 *1890:B *1831:A 0.000116853
70 *1961:A2 *493:45 7.23533e-05
71 *2095:A *493:45 0.00019637
72 *2116:A *493:45 4.66108e-05
73 *35:14 *493:8 0
74 *38:10 *493:25 0.000420412
75 *38:27 *493:25 0.000268278
76 *45:32 *493:25 0.00020267
77 *52:23 *493:25 5.34443e-05
78 *92:93 *493:80 0
79 *103:8 *493:80 0.000159957
80 *103:21 *493:80 0.000152127
81 *103:38 *493:80 0.000172852
82 *103:38 *493:86 0
83 *191:14 *1831:A 8.49205e-05
84 *191:24 *1831:A 0.000276152
85 *202:6 *1848:A 2.49909e-05
86 *202:21 *1848:A 7.45881e-05
87 *202:32 *1848:A 1.61461e-05
88 *219:30 *493:25 0.000332023
89 *219:70 *493:80 0
90 *219:70 *493:86 0.000101317
91 *224:16 *1831:A 0.000103845
92 *247:10 *1831:A 0.000249921
93 *250:12 *1831:A 0.00013521
94 *273:101 *493:80 0
95 *273:114 *493:80 0
96 *326:36 *1831:A 0.000105849
97 *326:95 *1831:A 0.000341885
98 *337:20 *493:45 8.5242e-05
99 *434:10 *493:45 9.50342e-06
100 *446:10 *493:8 0.000154488
101 *474:22 *493:45 2.75229e-05
102 *491:10 *1831:A 1.52945e-05
103 *491:16 *1831:A 0.000374739
*RES
1 *2061:X *493:8 23.34 
2 *493:8 *2056:A 3.6 
3 *493:8 *493:25 30.355 
4 *493:25 *493:45 35.425 
5 *493:45 *1826:A 1.6 
6 *493:45 *493:56 3.575 
7 *493:56 *1848:A 7.215 
8 *493:56 *1846:A1 3.6 
9 *493:25 *493:80 13.295 
10 *493:80 *493:86 6.145 
11 *493:86 *1839:A1 1.6 
12 *493:86 *1831:A 29.015 
13 *493:80 *1862:A1 2.74 
*END

*D_NET *494 0.00218975
*CONN
*I *2055:A I *D sky130_fd_sc_hd__clkbuf_4
*I *2062:X O *D sky130_fd_sc_hd__clkbuf_1
*CAP
1 *2055:A 0.000964711
2 *2062:X 0.000964711
3 *490:12 *2055:A 0.00026033
*RES
1 *2062:X *2055:A 22.425 
*END

*D_NET *495 0.0232028
*CONN
*I *1858:A2 I *D sky130_fd_sc_hd__a32o_1
*I *1862:A3 I *D sky130_fd_sc_hd__o31a_1
*I *1857:A2 I *D sky130_fd_sc_hd__o22a_1
*I *1849:A2_N I *D sky130_fd_sc_hd__o2bb2a_1
*I *1850:B I *D sky130_fd_sc_hd__and4b_1
*I *1855:B I *D sky130_fd_sc_hd__nand2_1
*I *1871:B I *D sky130_fd_sc_hd__nand2_1
*I *2053:A I *D sky130_fd_sc_hd__buf_4
*I *2063:X O *D sky130_fd_sc_hd__buf_2
*CAP
1 *1858:A2 0
2 *1862:A3 0.000641348
3 *1857:A2 0
4 *1849:A2_N 0.000109278
5 *1850:B 3.63983e-05
6 *1855:B 0.000193127
7 *1871:B 5.65892e-05
8 *2053:A 3.55506e-05
9 *2063:X 0.00146067
10 *495:100 0.00127437
11 *495:83 0.000929602
12 *495:68 0.000495672
13 *495:57 0.000180958
14 *495:44 0.000420534
15 *495:29 0.0010666
16 *495:27 0.002585
17 *495:12 0.00324388
18 *1849:A2_N *1849:A1_N 4.82919e-05
19 *1849:A2_N *514:119 0.000123225
20 *1855:B *512:16 2.45752e-05
21 *1855:B *512:29 4.66108e-05
22 *1862:A3 *497:31 0.000284519
23 *1862:A3 *497:43 9.82856e-06
24 *1871:B *1871:A 0.000313857
25 *495:12 *1645:A 8.78735e-05
26 *495:27 *510:209 0.00019637
27 *495:29 *1925:A1 0.000338233
28 *495:29 *1975:A1 0
29 *495:29 *2046:A 0.000724372
30 *495:29 *513:40 0
31 *495:29 *513:65 0
32 *495:29 *514:80 0
33 *495:29 *521:107 0
34 *495:44 *513:65 0
35 *495:44 *514:80 6.58714e-05
36 *495:57 *514:80 5.51245e-05
37 *495:68 *514:74 5.12859e-05
38 *495:68 *514:80 2.97004e-06
39 *495:68 *514:111 3.56353e-05
40 *495:83 *544:53 0
41 *495:100 *543:14 0.00076163
42 *1649:A1 *495:27 0.000200615
43 *1649:A2 *495:27 1.61831e-05
44 *1653:B1 *495:27 7.43306e-05
45 *1827:A *495:83 0
46 *1849:B1 *495:68 5.33085e-05
47 *1849:B1 *495:83 6.28498e-05
48 *1850:A_N *495:57 9.50342e-06
49 *1850:A_N *495:68 6.52181e-05
50 *1850:D *1850:B 8.65961e-05
51 *1856:B *1855:B 0.000264672
52 *1856:B *495:57 6.00003e-05
53 *1856:B *495:68 2.13396e-05
54 *1856:B *495:83 0.000127553
55 *1857:B2 *495:83 7.16199e-05
56 *1857:B2 *495:100 9.65453e-05
57 *1858:B1 *1862:A3 2.82172e-05
58 *1858:B1 *495:100 2.98807e-05
59 *1889:C1 *495:100 0.0014959
60 *1902:A *1855:B 8.23457e-05
61 *1915:A3 *1862:A3 2.49909e-05
62 *1917:C1 *495:100 0.000288153
63 *1931:B *495:27 8.8266e-05
64 *1932:B *495:27 1.0124e-05
65 *1961:A2 *1862:A3 0.000175183
66 *1961:A2 *495:100 2.10011e-05
67 *2004:A2 *495:83 0.000268846
68 *2004:A2 *495:100 8.78301e-05
69 *2023:B *495:29 5.33787e-05
70 *34:6 *495:27 0.000345687
71 *34:12 *2053:A 0
72 *205:18 *1862:A3 5.13684e-05
73 *207:10 *495:83 0
74 *229:23 *495:68 9.37731e-05
75 *233:12 *495:83 0
76 *287:8 *1871:B 0.000184866
77 *294:45 *495:27 0.001903
78 *311:12 *495:29 0.000273695
79 *316:12 *495:27 5.36384e-06
80 *469:14 *495:27 0.000373664
81 *483:12 *495:12 6.10014e-05
82 *484:10 *495:12 5.12017e-06
83 *485:8 *495:12 0.000140905
*RES
1 *2063:X *495:12 28.325 
2 *495:12 *2053:A 2.215 
3 *495:12 *495:27 35.42 
4 *495:27 *495:29 17.7 
5 *495:29 *1871:B 6.465 
6 *495:29 *495:44 3.21 
7 *495:44 *1855:B 7.86 
8 *495:44 *495:57 1.635 
9 *495:57 *1850:B 4.395 
10 *495:57 *495:68 2.91 
11 *495:68 *1849:A2_N 5.085 
12 *495:68 *495:83 6.78 
13 *495:83 *1857:A2 3.6 
14 *495:83 *495:100 5.3054 
15 *495:100 *1862:A3 13.89 
16 *495:100 *1858:A2 3.6 
*END

*D_NET *496 0.0224823
*CONN
*I *2052:A I *D sky130_fd_sc_hd__buf_4
*I *1976:C I *D sky130_fd_sc_hd__and4_1
*I *1897:A2 I *D sky130_fd_sc_hd__a22oi_1
*I *1920:C I *D sky130_fd_sc_hd__and4_1
*I *1921:A2 I *D sky130_fd_sc_hd__a22oi_1
*I *1975:A2 I *D sky130_fd_sc_hd__a22oi_1
*I *2018:A2 I *D sky130_fd_sc_hd__a22o_1
*I *2064:X O *D sky130_fd_sc_hd__buf_2
*CAP
1 *2052:A 0.000125667
2 *1976:C 0
3 *1897:A2 0.00048891
4 *1920:C 1.8095e-05
5 *1921:A2 4.53842e-06
6 *1975:A2 0
7 *2018:A2 4.29398e-05
8 *2064:X 0.000555868
9 *496:95 0.000683379
10 *496:72 0.000937082
11 *496:60 0.000798545
12 *496:53 0.000737539
13 *496:30 0.00233179
14 *496:18 0.00386126
15 *496:8 0.0029491
16 *1897:A2 *1896:A 1.16578e-05
17 *1897:A2 *1896:B 0.00015896
18 *1897:A2 *1897:A1 6.07316e-05
19 *1897:A2 *1897:B2 0.000107342
20 *1897:A2 *1921:B1 2.92496e-05
21 *1897:A2 *1921:B2 2.15594e-05
22 *1897:A2 *543:20 0
23 *1897:A2 *544:34 0.000373127
24 *1920:C *1920:B 8.49205e-05
25 *1920:C *1921:B1 3.66286e-05
26 *1920:C *497:80 4.82919e-05
27 *1921:A2 *1919:A 1.2818e-05
28 *2018:A2 *510:121 6.74516e-05
29 *2018:A2 *519:186 3.79555e-05
30 *2052:A *499:29 7.7918e-05
31 *496:18 *499:29 0.000470068
32 *496:18 *519:142 0.000236884
33 *496:30 *1610:B 4.00949e-05
34 *496:30 *2017:D 0.000301783
35 *496:53 *1975:A1 9.50342e-06
36 *496:53 *497:59 2.23407e-05
37 *496:53 *497:63 2.66464e-05
38 *496:53 *561:119 7.61837e-05
39 *496:60 *497:63 0.000208028
40 *496:72 *1920:B 3.09164e-05
41 *496:72 *1972:A1 0.000116158
42 *496:72 *1972:A2 0
43 *496:72 *1974:A 6.05513e-05
44 *496:72 *1974:B 1.83756e-05
45 *496:72 *2031:A2 0.000159741
46 *496:72 *555:16 0.000179008
47 *496:72 *555:30 7.30547e-05
48 *496:72 *555:81 9.30787e-05
49 *496:72 *561:12 0.000151309
50 *496:72 *561:110 2.37234e-05
51 *496:95 *1920:B 0.000240746
52 *496:95 *1921:B1 4.9968e-05
53 *496:95 *1921:B2 2.78732e-05
54 *496:95 *1972:A1 5.16418e-05
55 *496:95 *514:10 8.35683e-05
56 *496:95 *544:14 1.19928e-05
57 *1714:B *496:18 0.000198939
58 *1715:A1 *496:18 6.77162e-05
59 *1732:B *496:18 0.000313341
60 *1742:A *496:8 7.10578e-05
61 *1742:B *496:8 9.99636e-06
62 *1742:C *496:8 0.000196381
63 *1744:A *496:8 1.83756e-05
64 *1744:B *2052:A 4.5783e-05
65 *1744:C_N *496:8 8.34281e-06
66 *1747:A3 *496:8 4.00796e-05
67 *1753:A1 *496:18 0.000245893
68 *1900:C *2018:A2 3.79555e-05
69 *1971:A1 *1921:A2 6.8725e-06
70 *1977:A *496:53 2.49764e-05
71 *1977:A *496:60 0.000219021
72 *1977:B *496:72 3.57768e-05
73 *2020:D *2018:A2 8.23457e-05
74 *2031:B1 *496:72 3.86607e-05
75 *43:14 *496:18 0.000116165
76 *100:42 *2052:A 0.000163992
77 *110:29 *2052:A 9.30717e-05
78 *110:39 *2052:A 0.000203762
79 *117:14 *496:18 0.000282513
80 *117:18 *2052:A 4.284e-05
81 *117:18 *496:18 3.60648e-05
82 *219:18 *496:18 0.000312778
83 *241:6 *496:30 2.32597e-05
84 *241:17 *496:30 5.30673e-05
85 *273:14 *496:18 0.000178554
86 *273:16 *496:18 0.000121688
87 *283:22 *496:18 0.00070484
88 *306:10 *496:95 4.82863e-05
89 *323:8 *496:72 0
90 *413:6 *496:30 0.000975104
91 *439:16 *496:30 3.82728e-05
*RES
1 *2064:X *496:8 10.26 
2 *496:8 *496:18 49.6 
3 *496:18 *496:30 17.1702 
4 *496:30 *2018:A2 5.3825 
5 *496:30 *496:53 6.15757 
6 *496:53 *1975:A2 1.6 
7 *496:53 *496:60 2.04 
8 *496:60 *496:72 18.405 
9 *496:72 *1921:A2 3.72375 
10 *496:72 *496:95 8.2 
11 *496:95 *1920:C 4.395 
12 *496:95 *1897:A2 14.7 
13 *496:60 *1976:C 1.6 
14 *496:8 *2052:A 8.295 
*END

*D_NET *497 0.0289948
*CONN
*I *1915:A2 I *D sky130_fd_sc_hd__a32o_1
*I *1949:A1 I *D sky130_fd_sc_hd__o21a_1
*I *2018:B1 I *D sky130_fd_sc_hd__a22o_1
*I *1975:B1 I *D sky130_fd_sc_hd__a22oi_1
*I *1921:B1 I *D sky130_fd_sc_hd__a22oi_1
*I *1920:D I *D sky130_fd_sc_hd__and4_1
*I *1976:D I *D sky130_fd_sc_hd__and4_1
*I *2051:A I *D sky130_fd_sc_hd__buf_12
*I *2065:X O *D sky130_fd_sc_hd__buf_4
*CAP
1 *1915:A2 0
2 *1949:A1 0.00133482
3 *2018:B1 3.89585e-05
4 *1975:B1 0
5 *1921:B1 0.000134046
6 *1920:D 0
7 *1976:D 2.08101e-05
8 *2051:A 0.000631104
9 *2065:X 0
10 *497:80 0.000551188
11 *497:63 0.000547472
12 *497:59 0.00085495
13 *497:47 0.00160342
14 *497:43 0.00250902
15 *497:31 0.00318918
16 *497:4 0.00346512
17 *1921:B1 *1919:A 4.82919e-05
18 *1921:B1 *1920:B 0.000110718
19 *1921:B1 *1921:B2 5.98004e-06
20 *1921:B1 *513:6 8.40213e-05
21 *1921:B1 *514:10 0
22 *1921:B1 *544:34 3.09164e-05
23 *1921:B1 *555:81 4.43871e-06
24 *1949:A1 *1888:A1 2.05977e-05
25 *1949:A1 *518:161 0.00112766
26 *1949:A1 *544:92 0.000133592
27 *2018:B1 *2018:B2 4.66108e-05
28 *2018:B1 *510:133 0.000118081
29 *2051:A *2050:A 0
30 *2051:A *515:16 0
31 *2051:A *517:6 4.66108e-05
32 *2051:A *517:164 8.65961e-05
33 *497:31 *1780:A2 0.000125632
34 *497:31 *1837:A2 0.000334472
35 *497:31 *524:8 4.66108e-05
36 *497:43 *1915:A1 6.0657e-05
37 *497:43 *518:103 0.000249476
38 *497:43 *518:161 0.000705835
39 *497:43 *544:92 0.000916297
40 *497:47 *1598:A2 0.000139252
41 *497:47 *1873:B 0
42 *497:47 *2018:B2 2.14129e-05
43 *497:47 *2054:A 0.000373464
44 *497:47 *510:133 3.09364e-05
45 *497:47 *512:41 0.000114753
46 *497:47 *520:130 7.40748e-05
47 *497:47 *538:28 0.00031181
48 *497:47 *538:38 0.000155948
49 *497:47 *554:10 0.000141592
50 *497:59 *1975:A1 9.50342e-06
51 *497:59 *1975:B2 5.30673e-05
52 *497:59 *2018:B2 9.47454e-05
53 *497:59 *555:32 3.59311e-05
54 *497:59 *559:40 4.2649e-05
55 *497:63 *555:30 6.1357e-05
56 *497:80 *1920:B 2.16833e-05
57 *497:80 *1921:B2 0.000138188
58 *497:80 *1974:B 2.50049e-05
59 *497:80 *513:6 3.74161e-05
60 *497:80 *513:8 8.49205e-05
61 *497:80 *513:174 0
62 *497:80 *543:20 0
63 *497:80 *555:20 8.79923e-05
64 *1601:A2 *497:47 4.49872e-05
65 *1740:A *497:31 0.000849087
66 *1740:B *497:31 1.34594e-05
67 *1780:C1 *497:31 6.39292e-05
68 *1781:A *497:31 0.000158066
69 *1784:A *497:31 6.21553e-05
70 *1858:B1 *497:43 1.7635e-05
71 *1862:A1 *497:31 0.000112349
72 *1862:A3 *497:31 0.000284519
73 *1862:A3 *497:43 9.82856e-06
74 *1889:C1 *1949:A1 0.000182098
75 *1897:A2 *1921:B1 2.92496e-05
76 *1902:B *497:47 8.77729e-05
77 *1914:A *1949:A1 0
78 *1915:A3 *497:31 4.66108e-05
79 *1915:A3 *497:43 1.46828e-05
80 *1917:B1 *497:31 8.49205e-05
81 *1920:C *1921:B1 3.66286e-05
82 *1920:C *497:80 4.82919e-05
83 *1922:B1 *497:80 2.75145e-05
84 *1959:B2 *1949:A1 0.000155252
85 *1960:A2 *1949:A1 7.29356e-05
86 *1971:A1 *1921:B1 4.99619e-05
87 *1972:B1 *497:80 2.97004e-06
88 *1977:A *1976:D 0
89 *1977:A *497:59 4.82863e-05
90 *1977:A *497:63 9.6578e-05
91 *1977:A *497:80 6.77417e-05
92 *1977:B *497:80 8.40269e-05
93 *2002:B1 *1949:A1 9.76351e-05
94 *2020:C *497:59 0.000153816
95 *2020:D *2018:B1 3.83194e-05
96 *2021:B1 *497:59 0.000153816
97 *2021:B2 *497:47 7.01063e-05
98 *2021:B2 *497:59 9.14049e-05
99 *2022:B *497:59 6.07575e-06
100 *2023:A *497:59 0.000158066
101 *2023:B *497:59 0
102 *2026:B *497:47 4.13879e-05
103 *2030:A *497:59 9.27255e-06
104 *2030:A *497:63 0.000160635
105 *2044:A2 *497:31 4.66826e-05
106 *2065:A *2051:A 0
107 *2066:A *2051:A 0
108 *2105:A *497:47 2.66852e-05
109 *107:14 *497:31 0.00065405
110 *122:8 *497:31 0.000119756
111 *162:6 *497:31 1.47256e-05
112 *182:10 *497:47 6.76938e-05
113 *182:21 *497:47 9.70248e-05
114 *188:72 *1949:A1 0.000400381
115 *199:57 *1949:A1 8.48367e-05
116 *199:63 *1949:A1 0.000144365
117 *219:74 *497:31 6.36578e-05
118 *245:20 *497:31 0.000194694
119 *273:114 *497:31 0.000229801
120 *283:106 *497:31 9.5248e-06
121 *305:12 *497:80 0.000114492
122 *306:10 *1921:B1 5.65627e-05
123 *306:10 *497:80 5.98004e-06
124 *306:12 *497:80 4.83328e-05
125 *307:10 *1921:B1 5.16418e-05
126 *366:8 *497:80 2.49909e-05
127 *367:10 *497:80 2.75145e-05
128 *369:19 *497:47 1.74306e-05
129 *491:78 *497:47 0.000146098
130 *491:185 *1949:A1 1.71013e-05
131 *492:70 *497:47 0.000271666
132 *492:72 *497:47 0.000505582
133 *493:80 *497:31 0.000275548
134 *496:53 *497:59 2.23407e-05
135 *496:53 *497:63 2.66464e-05
136 *496:60 *497:63 0.000208028
137 *496:95 *1921:B1 4.9968e-05
*RES
1 *2065:X *497:4 1.6 
2 *497:4 *2051:A 15.89 
3 *497:4 *497:31 49.945 
4 *497:31 *497:43 5.3239 
5 *497:43 *497:47 24.7025 
6 *497:47 *497:59 16.125 
7 *497:59 *497:63 3.57 
8 *497:63 *1976:D 1.96 
9 *497:63 *497:80 14.08 
10 *497:80 *1920:D 1.6 
11 *497:80 *1921:B1 9.755 
12 *497:59 *1975:B1 1.6 
13 *497:47 *2018:B1 4.74 
14 *497:43 *1949:A1 17.2946 
15 *497:31 *1915:A2 1.6 
*END

*D_NET *498 0.00193391
*CONN
*I *2110:A I *D sky130_fd_sc_hd__dlygate4sd1_1
*I *2050:A I *D sky130_fd_sc_hd__buf_12
*I *2066:X O *D sky130_fd_sc_hd__buf_8
*CAP
1 *2110:A 0.000523872
2 *2050:A 0.000285334
3 *2066:X 0
4 *498:4 0.000809206
5 *2050:A *515:16 0.000222514
6 *1760:B *2110:A 4.59896e-06
7 *1761:A1 *2110:A 8.83829e-05
8 *2051:A *2050:A 0
*RES
1 *2066:X *498:4 1.6 
2 *498:4 *2050:A 11.825 
3 *498:4 *2110:A 9.085 
*END

*D_NET *499 0.016622
*CONN
*I *2017:D I *D sky130_fd_sc_hd__nand4_1
*I *2049:A I *D sky130_fd_sc_hd__buf_12
*I *2067:X O *D sky130_fd_sc_hd__buf_6
*CAP
1 *2017:D 0.00336838
2 *2049:A 0.000188836
3 *2067:X 0.000214437
4 *499:29 0.00486373
5 *499:6 0.00189862
6 *2017:D *1615:A2 4.43682e-05
7 *2017:D *2016:A1 2.49909e-05
8 *2017:D *2017:C 4.82863e-05
9 *2017:D *521:133 1.79536e-05
10 *2049:A *1763:A 0
11 *2049:A *2103:A 0.000143266
12 *2049:A *515:16 0
13 *2049:A *552:8 0
14 *499:29 *516:29 0.000984701
15 *1615:A1 *2017:D 8.65961e-05
16 *1615:B1 *2017:D 0.000114433
17 *1665:C *2017:D 0.000174577
18 *1681:A1 *2017:D 0.000108761
19 *1681:A2 *2017:D 0
20 *1681:B1 *2017:D 1.34503e-05
21 *1682:B1 *2017:D 0.00027209
22 *1708:A *499:29 0
23 *1708:C_N *499:29 0.000114846
24 *1713:A1 *499:29 0
25 *1732:B *499:29 0
26 *1735:A0 *499:29 0.000761205
27 *1735:A1 *499:29 1.34361e-05
28 *1739:A1 *499:29 0
29 *1744:A *499:29 0.000171172
30 *1749:A *499:29 0.000126743
31 *1761:A0 *499:6 8.65961e-05
32 *1761:A0 *499:29 3.66286e-05
33 *1761:A1 *2049:A 1.52184e-05
34 *1761:A1 *499:6 4.82863e-05
35 *1761:S *2049:A 4.73669e-05
36 *1761:S *499:6 6.52265e-05
37 *1761:S *499:29 0.000295648
38 *1762:B *2049:A 8.08439e-05
39 *1763:B *499:29 4.82919e-05
40 *1764:A *499:29 4.11194e-05
41 *1765:A1 *499:29 0.000139238
42 *1902:B *2017:D 1.92979e-05
43 *2052:A *499:29 7.7918e-05
44 *43:24 *2017:D 1.61831e-05
45 *52:10 *2017:D 0.000127096
46 *67:12 *2017:D 5.062e-06
47 *89:10 *499:29 0.00012819
48 *92:39 *499:29 0
49 *100:42 *499:29 0.00036366
50 *110:29 *499:29 9.14049e-05
51 *117:14 *499:29 0
52 *117:29 *499:29 0
53 *118:8 *499:29 0.000182356
54 *130:12 *499:29 0
55 *132:8 *499:29 4.94599e-05
56 *273:66 *2017:D 7.39088e-05
57 *294:35 *2017:D 1.93765e-05
58 *450:18 *2017:D 1.89387e-05
59 *453:10 *2017:D 1.79483e-05
60 *496:18 *499:29 0.000470068
61 *496:30 *2017:D 0.000301783
*RES
1 *2067:X *499:6 5.155 
2 *499:6 *2049:A 10.04 
3 *499:6 *499:29 45.505 
4 *499:29 *2017:D 40.996 
*END

*D_NET *500 0.00488404
*CONN
*I *1807:B I *D sky130_fd_sc_hd__nand2_2
*I *1809:D_N I *D sky130_fd_sc_hd__or4b_4
*I *1815:A_N I *D sky130_fd_sc_hd__and4b_2
*I *1824:D I *D sky130_fd_sc_hd__and4bb_2
*I *1806:B I *D sky130_fd_sc_hd__and4b_2
*I *1817:A_N I *D sky130_fd_sc_hd__and4bb_2
*I *1587:B I *D sky130_fd_sc_hd__nor2_1
*I *2068:X O *D sky130_fd_sc_hd__dlymetal6s2s_1
*CAP
1 *1807:B 4.78631e-05
2 *1809:D_N 2.98834e-05
3 *1815:A_N 0
4 *1824:D 2.36076e-05
5 *1806:B 3.65291e-05
6 *1817:A_N 0.000299087
7 *1587:B 7.50303e-06
8 *2068:X 0.000253259
9 *500:69 7.77465e-05
10 *500:55 6.09478e-05
11 *500:35 0.000384514
12 *500:31 0.000267718
13 *500:29 0.000280233
14 *500:12 0.000359516
15 *1587:B *2077:A 3.61258e-05
16 *1806:B *1806:D 4.82919e-05
17 *1806:B *523:95 2.0514e-05
18 *1807:B *511:60 8.15247e-05
19 *1809:D_N *511:60 4.35348e-05
20 *1809:D_N *511:62 4.82919e-05
21 *1817:A_N *1817:B_N 0.000198939
22 *1824:D *1824:B_N 5.30673e-05
23 *500:12 *2077:A 0.000153143
24 *500:29 *2077:A 4.66108e-05
25 *500:29 *2078:A 0.000176647
26 *500:31 *2078:A 0.000135896
27 *500:31 *522:101 4.32778e-05
28 *500:35 *1817:B_N 1.15688e-05
29 *500:55 *1824:B_N 2.75145e-05
30 *1587:A *500:12 4.82919e-05
31 *1805:D1 *500:29 1.73877e-05
32 *1805:D1 *500:31 2.0413e-05
33 *1806:A_N *500:31 5.23362e-05
34 *1806:A_N *500:35 0.000109388
35 *1806:C *1806:B 0.000158072
36 *1806:C *1817:A_N 4.82863e-05
37 *1806:C *500:31 4.38051e-05
38 *1806:C *500:35 8.86692e-05
39 *1815:B *500:55 2.49909e-05
40 *1817:D *1817:A_N 4.99619e-05
41 *199:29 *1806:B 2.59835e-05
42 *199:29 *1817:A_N 0.000161417
43 *230:8 *500:31 7.4027e-05
44 *230:10 *500:31 0.000219758
45 *315:10 *500:29 2.16389e-05
46 *315:23 *1807:B 6.97118e-05
47 *315:23 *1809:D_N 7.10578e-05
48 *489:18 *500:31 0
49 *489:35 *1824:D 1.34594e-05
50 *489:35 *500:55 8.34281e-06
51 *489:79 *500:29 7.06865e-05
52 *491:128 *1824:D 0.0001249
53 *491:128 *500:55 0.000108098
*RES
1 *2068:X *500:12 6.31 
2 *500:12 *1587:B 2.17 
3 *500:12 *500:29 4.715 
4 *500:29 *500:31 4.695 
5 *500:31 *500:35 3.38 
6 *500:35 *1817:A_N 7.24 
7 *500:35 *1806:B 3.085 
8 *500:31 *500:55 3.14 
9 *500:55 *1824:D 2.74 
10 *500:55 *1815:A_N 1.6 
11 *500:29 *500:69 2 
12 *500:69 *1809:D_N 2.74 
13 *500:69 *1807:B 3.1 
*END

*D_NET *501 0.0366213
*CONN
*I *2007:B I *D sky130_fd_sc_hd__xnor2_1
*I *2039:A2 I *D sky130_fd_sc_hd__a21oi_1
*I *2040:A2 I *D sky130_fd_sc_hd__o22a_1
*I *2041:A2 I *D sky130_fd_sc_hd__a32o_1
*I *1756:A I *D sky130_fd_sc_hd__and3_1
*I *1755:B1 I *D sky130_fd_sc_hd__a21oi_1
*I *2044:B1 I *D sky130_fd_sc_hd__a21oi_2
*I *2016:A2 I *D sky130_fd_sc_hd__a22o_1
*I *2017:C I *D sky130_fd_sc_hd__nand4_1
*I *1589:C I *D sky130_fd_sc_hd__or4_4
*I *1777:C1 I *D sky130_fd_sc_hd__a211o_1
*I *1771:C1 I *D sky130_fd_sc_hd__a221o_1
*I *1748:B1 I *D sky130_fd_sc_hd__a21oi_4
*I *1772:C1 I *D sky130_fd_sc_hd__a211o_1
*I *1710:C1 I *D sky130_fd_sc_hd__a311oi_4
*I *1667:B I *D sky130_fd_sc_hd__or4_4
*I *1666:B I *D sky130_fd_sc_hd__nor4_2
*I *2069:X O *D sky130_fd_sc_hd__clkbuf_8
*CAP
1 *2007:B 0.000671666
2 *2039:A2 6.84948e-05
3 *2040:A2 0
4 *2041:A2 5.017e-05
5 *1756:A 2.83841e-05
6 *1755:B1 0.000270063
7 *2044:B1 2.65425e-05
8 *2016:A2 0
9 *2017:C 0.000111911
10 *1589:C 3.94463e-05
11 *1777:C1 0
12 *1771:C1 0
13 *1748:B1 0
14 *1772:C1 0.000206205
15 *1710:C1 5.7793e-05
16 *1667:B 0.000160378
17 *1666:B 3.88191e-05
18 *2069:X 0.000437702
19 *501:240 0.000359254
20 *501:221 0.00060165
21 *501:217 0.00322609
22 *501:191 0.000887942
23 *501:160 0.00136178
24 *501:129 0.0027016
25 *501:89 0.00040088
26 *501:79 0.000382161
27 *501:65 0.0003198
28 *501:30 0.000477529
29 *501:28 0.000783996
30 *501:26 0.000825785
31 *501:22 0.00217046
32 *501:18 0.000927737
33 *501:16 0.00180503
34 *501:12 0.00355833
35 *1589:C *1589:A 1.91521e-05
36 *1666:B *1666:A 3.80022e-05
37 *1666:B *517:86 4.15296e-05
38 *1666:B *537:46 2.75145e-05
39 *1667:B *2089:A 6.74384e-05
40 *1667:B *537:46 0.000179793
41 *1710:C1 *1686:A 4.82863e-05
42 *1755:B1 *532:24 0.000311291
43 *1772:C1 *518:31 2.95616e-05
44 *1772:C1 *559:20 0.000155056
45 *2007:B *1814:A 7.29995e-05
46 *2007:B *2082:A 0.000434832
47 *2007:B *511:8 2.66999e-05
48 *2007:B *532:24 0
49 *2017:C *2016:A1 3.99817e-05
50 *2044:B1 *1837:A2 2.75229e-05
51 *2044:B1 *524:8 5.83121e-06
52 *501:12 *1837:A2 0
53 *501:16 *532:24 0
54 *501:18 *1780:A2 2.14129e-05
55 *501:22 *1725:B 0
56 *501:22 *1778:B 5.16348e-05
57 *501:22 *1780:A2 5.4003e-05
58 *501:22 *524:10 9.14049e-05
59 *501:28 *1686:A 9.30787e-05
60 *501:28 *517:86 2.94708e-05
61 *501:28 *517:98 7.89119e-05
62 *501:28 *518:37 0
63 *501:28 *519:67 0.000229014
64 *501:28 *549:12 0.00025929
65 *501:30 *1666:A 3.86607e-05
66 *501:30 *1667:A 0
67 *501:30 *517:86 0.000253904
68 *501:65 *518:31 0
69 *501:79 *519:84 0.000114492
70 *501:89 *518:31 9.47972e-06
71 *501:129 *1589:A 1.94841e-05
72 *501:129 *1589:D 5.8825e-05
73 *501:129 *517:98 0.00097258
74 *501:160 *1589:A 2.47677e-06
75 *501:160 *1598:A1 0.000328072
76 *501:160 *1598:B1 0.000159957
77 *501:160 *1610:B 0.000113971
78 *501:160 *1615:A2 2.42043e-05
79 *501:160 *2016:A1 2.75145e-05
80 *501:160 *2016:B1 4.66108e-05
81 *501:160 *2114:A 9.88182e-05
82 *501:160 *516:55 8.78735e-05
83 *501:160 *518:130 2.60986e-05
84 *501:160 *540:18 0.000121023
85 *501:160 *557:12 3.21271e-05
86 *501:160 *562:34 2.52454e-05
87 *501:191 *532:24 0.000820392
88 *501:217 *1834:A 0
89 *501:217 *532:24 0
90 op_out[2] *501:12 0
91 *1609:A *501:160 5.60404e-05
92 *1609:B *501:160 4.88478e-05
93 *1613:B1 *501:160 0.00013836
94 *1616:B2 *501:160 0.00011379
95 *1667:D *1666:B 4.99619e-05
96 *1686:C *1710:C1 0.000192125
97 *1723:B *501:129 6.27029e-05
98 *1727:A1 *501:22 0.000137578
99 *1727:A2 *501:129 5.95442e-05
100 *1728:C1 *501:28 2.24336e-05
101 *1728:C1 *501:65 4.40899e-05
102 *1755:A2 *1755:B1 8.7152e-06
103 *1756:B *1756:A 5.93673e-05
104 *1758:C *1756:A 3.82018e-05
105 *1771:B1 *501:79 4.82863e-05
106 *1771:B2 *501:79 1.52184e-05
107 *1772:A1 *501:89 7.54478e-05
108 *1776:A *501:26 1.34594e-05
109 *1776:B *501:26 0.000307831
110 *1776:B *501:129 7.23635e-05
111 *1777:A1 *501:79 9.29751e-06
112 *1777:A2 *501:79 5.02217e-05
113 *1777:B1 *501:65 0.000233004
114 *1791:A1 *501:18 0
115 *1791:B1 *501:18 0
116 *1792:B2 *501:18 2.16191e-05
117 *1792:B2 *501:191 1.31646e-05
118 *1795:B1 *1755:B1 5.88982e-05
119 *1797:C1 *501:18 6.06593e-05
120 *1797:C1 *501:191 6.44676e-05
121 *1798:D *501:191 5.72004e-05
122 *1799:A2 *1756:A 2.99518e-06
123 *1799:B1 *501:12 0
124 *1799:B1 *501:16 0
125 *1834:B *501:12 0.000135896
126 *1845:B1 *501:12 2.21935e-06
127 *1861:A2 *501:12 9.41168e-05
128 *1861:B1 *501:12 0
129 *1917:A2 *501:129 0.000349598
130 *1957:B1 *2039:A2 2.30292e-05
131 *1961:A2 *501:160 5.13424e-05
132 *2004:A2 *2041:A2 0.000111448
133 *2004:A2 *501:221 0.000388289
134 *2007:A *2007:B 4.82919e-05
135 *2017:D *2017:C 4.82863e-05
136 *2040:B2 *2039:A2 8.49205e-05
137 *2041:A3 *2041:A2 9.50342e-06
138 *2042:A1 *501:240 1.08758e-05
139 *2042:A2 *501:240 2.49909e-05
140 *2042:B1 *501:240 3.43354e-05
141 *2059:A *501:12 0.0001249
142 *2113:A *501:160 0.000155227
143 *49:42 *501:30 0
144 *61:22 *501:30 0
145 *70:18 *1710:C1 7.79931e-05
146 *97:48 *501:28 0
147 *105:6 *501:129 2.16917e-05
148 *106:32 *501:22 0.000109995
149 *107:22 *501:22 0
150 *110:10 *501:65 0.000154098
151 *126:8 *501:79 4.66108e-05
152 *126:8 *501:89 8.49852e-05
153 *129:14 *501:89 0.000148935
154 *130:8 *1772:C1 4.41506e-05
155 *130:8 *501:89 5.83121e-06
156 *130:55 *1772:C1 0
157 *136:10 *501:89 8.34348e-05
158 *158:10 *501:28 8.53113e-06
159 *158:10 *501:65 0.000129047
160 *188:23 *501:240 1.56615e-05
161 *188:36 *501:240 2.10582e-05
162 *190:10 *501:221 0.000102802
163 *190:20 *2039:A2 1.91597e-05
164 *190:20 *501:221 8.08153e-06
165 *190:20 *501:240 0.000198939
166 *192:12 *501:221 0.000319448
167 *192:20 *501:221 0.000114492
168 *196:20 *2041:A2 5.28193e-05
169 *196:20 *501:221 3.44734e-05
170 *215:12 *501:191 0
171 *273:101 *501:129 2.97561e-05
172 *273:114 *501:18 0
173 *273:114 *501:22 0
174 *273:114 *501:129 4.13171e-05
175 *273:125 *501:18 0.000138188
176 *273:134 *501:18 1.86911e-05
177 *283:22 *501:28 0
178 *283:91 *501:22 0.000553358
179 *283:91 *501:28 0
180 *283:106 *501:18 1.07797e-05
181 *294:35 *501:160 0
182 *326:8 *2007:B 0.000100297
183 *326:18 *501:240 1.08723e-05
184 *326:95 *501:12 7.96104e-06
185 *336:16 *2039:A2 3.63661e-05
186 *434:10 *501:160 0.000199097
187 *439:10 *501:160 0.000123249
188 *439:16 *501:160 0.000176273
189 *449:33 *501:160 0.00019637
190 *453:10 *501:160 2.87217e-05
191 *454:10 *501:160 0.000136907
192 *491:155 *501:221 0.000176071
193 *492:14 *2007:B 1.16578e-05
194 *492:39 *2039:A2 4.82919e-05
195 *492:41 *2039:A2 0.000120655
196 *492:53 *501:240 4.7878e-05
197 *493:80 *501:129 0
*RES
1 *2069:X *501:12 12.1025 
2 *501:12 *501:16 1.99467 
3 *501:16 *501:18 7.3725 
4 *501:18 *501:22 13.835 
5 *501:22 *501:26 5.21 
6 *501:26 *501:28 10.815 
7 *501:28 *501:30 5.715 
8 *501:30 *1666:B 4.92 
9 *501:30 *1667:B 5.775 
10 *501:28 *1710:C1 5.43 
11 *501:26 *501:65 6.155 
12 *501:65 *501:79 7.69 
13 *501:79 *501:89 8.68 
14 *501:89 *1772:C1 9.08 
15 *501:89 *1748:B1 1.6 
16 *501:79 *1771:C1 1.6 
17 *501:65 *1777:C1 1.6 
18 *501:22 *501:129 23.4587 
19 *501:129 *1589:C 2.3875 
20 *501:129 *501:160 32.2562 
21 *501:160 *2017:C 3.805 
22 *501:160 *2016:A2 1.6 
23 *501:18 *2044:B1 4.05 
24 *501:16 *501:191 6.9666 
25 *501:191 *1755:B1 5.34663 
26 *501:191 *1756:A 4.8425 
27 *501:12 *501:217 3.7088 
28 *501:217 *501:221 8.6375 
29 *501:221 *2041:A2 4.98 
30 *501:221 *501:240 10.08 
31 *501:240 *2040:A2 1.6 
32 *501:240 *2039:A2 3.79 
33 *501:217 *2007:B 10.8262 
*END

*D_NET *502 0.00206799
*CONN
*I *2077:A I *D sky130_fd_sc_hd__clkbuf_1
*I *1820:X O *D sky130_fd_sc_hd__or3_4
*CAP
1 *2077:A 0.000451364
2 *1820:X 0.000451364
3 *2077:A *1809:C 0
4 *2077:A *511:72 0.000113373
5 op_out[0] *2077:A 0.00041368
6 *1587:A *2077:A 4.82919e-05
7 *1587:B *2077:A 3.61258e-05
8 *1809:A *2077:A 0
9 *1820:A *2077:A 0.000124007
10 *1820:B *2077:A 0.000157309
11 *1838:B *2077:A 2.66586e-05
12 *489:79 *2077:A 4.60584e-05
13 *500:12 *2077:A 0.000153143
14 *500:29 *2077:A 4.66108e-05
*RES
1 *1820:X *2077:A 17.4 
*END

*D_NET *503 0.0012242
*CONN
*I *2078:A I *D sky130_fd_sc_hd__buf_1
*I *1838:X O *D sky130_fd_sc_hd__or2_1
*CAP
1 *2078:A 0.00033637
2 *1838:X 0.00033637
3 *1813:A *2078:A 0.000238919
4 *2057:A *2078:A 0
5 *489:12 *2078:A 0
6 *489:18 *2078:A 0
7 *500:29 *2078:A 0.000176647
8 *500:31 *2078:A 0.000135896
*RES
1 *1838:X *2078:A 13.05 
*END

*D_NET *504 0.000797095
*CONN
*I *2079:A I *D sky130_fd_sc_hd__buf_1
*I *1861:X O *D sky130_fd_sc_hd__a21o_1
*CAP
1 *2079:A 0.000195705
2 *1861:X 0.000195705
3 *2079:A *1834:A 3.86814e-05
4 *1832:B *2079:A 2.23407e-05
5 *1833:B *2079:A 1.43975e-05
6 *1844:B1 *2079:A 9.3062e-06
7 *1845:A1 *2079:A 4.82919e-05
8 *1845:A3 *2079:A 0.000198642
9 *225:8 *2079:A 7.4027e-05
*RES
1 *1861:X *2079:A 11.625 
*END

*D_NET *505 0.00207191
*CONN
*I *2080:A I *D sky130_fd_sc_hd__buf_1
*I *1890:Y O *D sky130_fd_sc_hd__nand2b_1
*CAP
1 *2080:A 0.000603835
2 *1890:Y 0.000603835
3 *2080:A *2081:A 0.000864238
4 *2080:A *533:85 0
5 *1820:B *2080:A 0
6 *2068:A *2080:A 0
7 *205:10 *2080:A 0
*RES
1 *1890:Y *2080:A 19.425 
*END

*D_NET *506 0.00252288
*CONN
*I *2081:A I *D sky130_fd_sc_hd__buf_1
*I *1918:Y O *D sky130_fd_sc_hd__o31ai_1
*CAP
1 *2081:A 0.000532701
2 *1918:Y 0.000532701
3 *2081:A *513:103 4.99619e-05
4 *2081:A *544:92 0.000222114
5 op_out[3] *2081:A 5.30673e-05
6 *1918:B1 *2081:A 1.71013e-05
7 *2080:A *2081:A 0.000864238
8 *191:14 *2081:A 0.000175191
9 *192:20 *2081:A 2.75229e-05
10 *205:10 *2081:A 0
11 *491:10 *2081:A 4.82863e-05
*RES
1 *1918:Y *2081:A 22.08 
*END

*D_NET *507 0.00331438
*CONN
*I *2082:A I *D sky130_fd_sc_hd__buf_1
*I *1962:X O *D sky130_fd_sc_hd__or3_1
*CAP
1 *2082:A 0.000744321
2 *1962:X 0.000744321
3 *2082:A *1959:A2 0
4 *2082:A *511:8 4.49328e-05
5 op_out[5] *2082:A 2.75229e-05
6 *2002:B2 *2082:A 0
7 *2004:B1 *2082:A 1.1561e-05
8 *2004:C1 *2082:A 0.000141592
9 *2007:B *2082:A 0.000434832
10 *190:31 *2082:A 3.14412e-05
11 *326:8 *2082:A 0
12 *326:18 *2082:A 0
13 *490:105 *2082:A 4.99619e-05
14 *492:14 *2082:A 7.35813e-05
15 *492:27 *2082:A 0.00050355
16 *492:39 *2082:A 0.000506759
*RES
1 *1962:X *2082:A 25.26 
*END

*D_NET *508 0.000396321
*CONN
*I *2083:A I *D sky130_fd_sc_hd__buf_1
*I *2005:X O *D sky130_fd_sc_hd__a31o_1
*CAP
1 *2083:A 0.000117017
2 *2005:X 0.000117017
3 op_out[6] *2083:A 5.20196e-05
4 *2043:A3 *2083:A 0.000110268
*RES
1 *2005:X *2083:A 9.63 
*END

*D_NET *509 0.000286783
*CONN
*I *2084:A I *D sky130_fd_sc_hd__buf_1
*I *2043:X O *D sky130_fd_sc_hd__a311o_1
*CAP
1 *2084:A 0.000143391
2 *2043:X 0.000143391
3 op_out[6] *2084:A 0
4 op_out[7] *2084:A 0
5 *2005:B1 *2084:A 0
*RES
1 *2043:X *2084:A 9.375 
*END

*D_NET *510 0.0263293
*CONN
*I *1652:A1 I *D sky130_fd_sc_hd__o211a_1
*I *1581:A I *D sky130_fd_sc_hd__inv_2
*I *1651:A1 I *D sky130_fd_sc_hd__o21ai_1
*I *2018:A1 I *D sky130_fd_sc_hd__a22o_1
*I *1913:A1 I *D sky130_fd_sc_hd__o22a_1
*I *1888:A1 I *D sky130_fd_sc_hd__a221o_1
*I *1912:A1 I *D sky130_fd_sc_hd__a21oi_1
*I *1802:B I *D sky130_fd_sc_hd__or4_1
*I *1893:A I *D sky130_fd_sc_hd__xnor2_1
*I *1900:A I *D sky130_fd_sc_hd__and3_1
*I *1646:B I *D sky130_fd_sc_hd__nand2_1
*I *1605:B I *D sky130_fd_sc_hd__or2_1
*I *1979:A I *D sky130_fd_sc_hd__nand2_1
*I *1928:A1 I *D sky130_fd_sc_hd__a21oi_1
*I *1927:A I *D sky130_fd_sc_hd__and3_1
*I *1606:B I *D sky130_fd_sc_hd__nor2_1
*I *2045:X O *D sky130_fd_sc_hd__buf_4
*CAP
1 *1652:A1 0
2 *1581:A 0.000229294
3 *1651:A1 0
4 *2018:A1 1.41956e-05
5 *1913:A1 9.71884e-06
6 *1888:A1 9.64174e-05
7 *1912:A1 0
8 *1802:B 0
9 *1893:A 0.000426874
10 *1900:A 0
11 *1646:B 0
12 *1605:B 7.00326e-06
13 *1979:A 0.000796526
14 *1928:A1 0
15 *1927:A 0
16 *1606:B 4.72596e-05
17 *2045:X 4.29227e-05
18 *510:213 0.000398643
19 *510:209 0.000352841
20 *510:176 0.000272641
21 *510:165 0.00132262
22 *510:150 0.00120755
23 *510:133 0.0019173
24 *510:121 0.00181391
25 *510:98 0.000650294
26 *510:76 1.78003e-05
27 *510:72 0.00047122
28 *510:44 0.00100216
29 *510:31 0.000363535
30 *510:25 0.00132114
31 *510:19 0.00126301
32 *510:6 0.000177312
33 *1605:B *1646:A 3.00381e-05
34 *1893:A *1803:B 0.000192125
35 *1893:A *1803:C 0.000270415
36 *1893:A *512:176 0.00010491
37 *1893:A *533:59 0.000118081
38 *1893:A *533:85 2.16833e-05
39 *1979:A *1928:A2 1.33293e-05
40 *510:19 *1653:C1 0
41 *510:31 *519:198 2.4997e-05
42 *510:31 *519:202 7.89767e-05
43 *510:31 *523:143 0
44 *510:44 *1928:A2 2.66586e-05
45 *510:72 *519:198 0.000173973
46 *510:72 *523:137 0
47 *510:72 *523:143 0
48 *510:76 *1646:A 2.05056e-05
49 *510:98 *1926:A 6.00003e-05
50 *510:98 *519:198 6.02926e-05
51 *510:98 *523:137 0
52 *510:98 *561:31 0.00015639
53 *510:98 *561:33 3.21271e-05
54 *510:121 *1925:A1 0
55 *510:121 *2031:A2 5.84902e-05
56 *510:121 *519:186 0.000328767
57 *510:121 *561:31 0.00015639
58 *510:133 *1600:B1 0.000481579
59 *510:133 *1803:B 2.92496e-05
60 *510:133 *1823:A2 0.0002247
61 *510:133 *1873:B 0.000605064
62 *510:133 *2016:B2 4.41939e-05
63 *510:133 *2018:B2 1.91597e-05
64 *510:133 *520:130 0.000153356
65 *510:133 *533:59 8.25609e-05
66 *510:133 *538:28 0
67 *510:133 *538:38 0
68 *510:150 *1803:B 3.57349e-05
69 *510:165 *533:59 0
70 *510:165 *560:12 2.50602e-05
71 *510:176 *560:27 1.03323e-05
72 *510:209 *1653:C1 0
73 *1592:A4 *510:133 5.16348e-05
74 *1601:A2 *510:133 6.88195e-05
75 *1606:A *1606:B 1.85674e-05
76 *1606:A *510:213 0
77 *1609:A *510:133 9.28053e-05
78 *1622:B1 *510:25 0.000576166
79 *1627:B1 *1606:B 1.83847e-05
80 *1627:B1 *510:6 3.23663e-05
81 *1629:A2 *510:25 7.67345e-05
82 *1629:C1 *510:25 9.2741e-05
83 *1640:A *510:19 0.000187766
84 *1640:A *510:209 0.000127366
85 *1653:A1 *1581:A 0.000286577
86 *1653:A1 *510:213 0.000205428
87 *1653:B1 *510:209 3.64998e-06
88 *1800:C *510:133 0.000149062
89 *1802:C *510:150 1.08758e-05
90 *1802:C *510:165 3.24882e-05
91 *1802:D *1893:A 4.82863e-05
92 *1802:D *510:150 5.99393e-05
93 *1858:B1 *1893:A 0.000205226
94 *1888:C1 *1888:A1 0
95 *1889:C1 *1888:A1 1.23192e-05
96 *1900:C *510:98 9.11353e-05
97 *1900:C *510:121 3.57349e-05
98 *1901:A1 *510:98 0.000140912
99 *1912:B1 *510:165 0.000503702
100 *1912:B1 *510:176 7.3151e-05
101 *1913:B1 *1913:A1 4.82919e-05
102 *1913:B2 *1913:A1 4.82919e-05
103 *1913:B2 *510:176 0.000118527
104 *1914:A *510:176 0.000219545
105 *1927:C *510:44 3.20404e-05
106 *1928:B1 *510:44 4.80285e-05
107 *1949:A1 *1888:A1 2.05977e-05
108 *1962:C *510:165 7.06865e-05
109 *1981:C *1979:A 0
110 *1983:B *1979:A 6.23288e-05
111 *2018:A2 *510:121 6.74516e-05
112 *2018:B1 *510:133 0.000118081
113 *2019:B *1581:A 7.23602e-05
114 *2020:D *510:121 4.44912e-05
115 *2020:D *510:133 1.19928e-05
116 *2021:A2 *510:121 0.000112123
117 *2024:B1_N *1979:A 0.000141599
118 *2026:B *510:133 0.000100939
119 *2029:B *1979:A 0.000212672
120 *2091:A *510:133 2.82601e-05
121 *2105:A *510:133 0.000109533
122 *182:21 *510:133 0.000143462
123 *188:36 *510:165 7.21296e-06
124 *188:72 *1888:A1 5.53249e-06
125 *188:72 *510:176 6.79039e-05
126 *190:31 *510:165 0.000131
127 *197:22 *510:133 0.000180689
128 *197:78 *510:165 0.000418504
129 *197:95 *510:165 0.000390265
130 *199:63 *1888:A1 0
131 *205:10 *1893:A 1.92979e-05
132 *205:18 *1893:A 0.000196303
133 *273:16 *1581:A 0
134 *273:16 *510:213 0
135 *283:30 *1581:A 1.08758e-05
136 *285:12 *510:98 0.000141356
137 *314:10 *1979:A 0
138 *369:19 *510:133 6.30964e-05
139 *370:8 *1979:A 7.65575e-05
140 *372:12 *1979:A 0
141 *413:6 *510:133 4.87317e-05
142 *441:8 *510:133 0.000131109
143 *446:10 *1606:B 3.64998e-06
144 *448:15 *510:31 7.22354e-05
145 *448:15 *510:44 2.17931e-05
146 *448:26 *510:44 1.20883e-05
147 *453:25 *510:25 4.21973e-05
148 *462:10 *510:25 2.10134e-05
149 *469:10 *510:25 4.82863e-05
150 *475:27 *510:213 0.00012904
151 *475:29 *510:213 0.000154488
152 *475:35 *510:213 9.50342e-06
153 *477:12 *1581:A 0.0001249
154 *486:14 *1605:B 4.99619e-05
155 *486:14 *510:76 4.82863e-05
156 *490:60 *510:98 0
157 *490:60 *510:133 9.34835e-05
158 *490:89 *1893:A 1.46828e-05
159 *490:89 *510:133 0.000225171
160 *491:54 *510:133 0.000248261
161 *491:82 *1979:A 0
162 *495:27 *510:209 0.00019637
163 *497:47 *510:133 3.09364e-05
*RES
1 *2045:X *510:6 2.395 
2 *510:6 *1606:B 2.41 
3 *510:6 *510:19 4.145 
4 *510:19 *510:25 19.975 
5 *510:25 *510:31 5.285 
6 *510:31 *1927:A 1.6 
7 *510:31 *510:44 3.345 
8 *510:44 *1928:A1 1.6 
9 *510:44 *1979:A 18.725 
10 *510:25 *510:72 3.675 
11 *510:72 *510:76 2.45 
12 *510:76 *1605:B 2.05 
13 *510:76 *1646:B 1.6 
14 *510:72 *510:98 8.66 
15 *510:98 *1900:A 1.6 
16 *510:98 *510:121 12.175 
17 *510:121 *510:133 39.07 
18 *510:133 *1893:A 15.35 
19 *510:133 *510:150 1.155 
20 *510:150 *1802:B 1.6 
21 *510:150 *510:165 20.575 
22 *510:165 *1912:A1 1.6 
23 *510:165 *510:176 6.05 
24 *510:176 *1888:A1 5.235 
25 *510:176 *1913:A1 4.05 
26 *510:121 *2018:A1 1.96 
27 *510:19 *510:209 5.825 
28 *510:209 *510:213 6.185 
29 *510:213 *1651:A1 3.6 
30 *510:213 *1581:A 8.925 
31 *510:209 *1652:A1 1.6 
*END

*D_NET *511 0.00640975
*CONN
*I *1588:C I *D sky130_fd_sc_hd__and3b_2
*I *1810:A I *D sky130_fd_sc_hd__or4b_4
*I *1579:A I *D sky130_fd_sc_hd__inv_2
*I *1809:B I *D sky130_fd_sc_hd__or4b_4
*I *1824:C I *D sky130_fd_sc_hd__and4bb_2
*I *1817:C I *D sky130_fd_sc_hd__and4bb_2
*I *1808:B I *D sky130_fd_sc_hd__or3b_4
*I *1814:A I *D sky130_fd_sc_hd__nor3_4
*I *2070:X O *D sky130_fd_sc_hd__buf_2
*CAP
1 *1588:C 0
2 *1810:A 0
3 *1579:A 0
4 *1809:B 0
5 *1824:C 2.56183e-05
6 *1817:C 8.50436e-05
7 *1808:B 0.000163814
8 *1814:A 0.000102903
9 *2070:X 7.22459e-05
10 *511:72 0.000314523
11 *511:62 0.000287634
12 *511:60 0.000404905
13 *511:52 0.000381166
14 *511:31 0.000469551
15 *511:23 0.000320518
16 *511:8 0.000249964
17 *1808:B *1808:C_N 0.000187071
18 *1808:B *522:16 9.43205e-05
19 *1817:C *533:85 3.99287e-05
20 *511:31 *1588:A_N 1.82667e-05
21 *511:52 *1810:B 4.82863e-05
22 *511:52 *522:16 6.97124e-05
23 *511:60 *532:24 0.000135083
24 *511:72 *1809:C 1.16283e-05
25 *511:72 *533:85 0
26 *1588:B *511:31 5.33172e-05
27 *1807:B *511:60 8.15247e-05
28 *1808:A *1808:B 0.00023203
29 *1809:A *511:62 0.000142773
30 *1809:A *511:72 2.91399e-05
31 *1809:D_N *511:60 4.35348e-05
32 *1809:D_N *511:62 4.82919e-05
33 *1810:D_N *511:31 0.000167101
34 *1810:D_N *511:52 4.35348e-05
35 *1810:D_N *511:60 0.000234786
36 *1817:D *1817:C 5.87938e-05
37 *1817:D *511:72 3.76633e-05
38 *1820:B *511:72 1.7902e-05
39 *1820:C *511:72 0.000139245
40 *1824:A_N *1824:C 4.80285e-05
41 *2000:B1 *1808:B 1.15688e-05
42 *2000:B1 *1814:A 0.000122325
43 *2007:B *1814:A 7.29995e-05
44 *2007:B *511:8 2.66999e-05
45 *2077:A *511:72 0.000113373
46 *2082:A *511:8 4.49328e-05
47 *189:6 *511:60 9.66021e-05
48 *191:63 *511:62 3.20202e-05
49 *191:63 *511:72 0.000171028
50 *192:10 *1808:B 0.000103699
51 *192:85 *1808:B 8.65961e-05
52 *315:23 *511:52 2.30292e-05
53 *315:23 *511:60 0.000394217
54 *326:8 *1814:A 0.000136606
55 *326:8 *511:8 6.61742e-05
56 *491:128 *1824:C 4.80285e-05
*RES
1 *2070:X *511:8 5.49 
2 *511:8 *1814:A 6.375 
3 *511:8 *511:23 2.9675 
4 *511:23 *511:31 5.8475 
5 *511:31 *1808:B 8.97 
6 *511:31 *511:52 3.665 
7 *511:52 *511:60 9.12 
8 *511:60 *511:62 2.0025 
9 *511:62 *511:72 7.0175 
10 *511:72 *1817:C 4.98 
11 *511:72 *1824:C 4.395 
12 *511:62 *1809:B 1.6 
13 *511:60 *1579:A 1.6 
14 *511:52 *1810:A 1.6 
15 *511:23 *1588:C 1.6 
*END

*D_NET *512 0.0191062
*CONN
*I *1873:A I *D sky130_fd_sc_hd__and3_1
*I *1874:A1 I *D sky130_fd_sc_hd__a21oi_1
*I *1857:A1 I *D sky130_fd_sc_hd__o22a_1
*I *1828:A1 I *D sky130_fd_sc_hd__a22o_1
*I *1842:A I *D sky130_fd_sc_hd__nand2_1
*I *1841:A I *D sky130_fd_sc_hd__or2_1
*I *1803:D I *D sky130_fd_sc_hd__or4_1
*I *1887:B2 I *D sky130_fd_sc_hd__a32o_1
*I *1858:A1 I *D sky130_fd_sc_hd__a32o_1
*I *1846:A2 I *D sky130_fd_sc_hd__a21o_1
*I *1848:B I *D sky130_fd_sc_hd__and3_1
*I *1721:A0 I *D sky130_fd_sc_hd__mux2_4
*I *1719:B I *D sky130_fd_sc_hd__nand2_1
*I *1678:B I *D sky130_fd_sc_hd__or2_1
*I *1677:B I *D sky130_fd_sc_hd__nor2_1
*I *1855:A I *D sky130_fd_sc_hd__nand2_1
*I *2046:X O *D sky130_fd_sc_hd__clkbuf_4
*CAP
1 *1873:A 0.000145696
2 *1874:A1 0
3 *1857:A1 9.70678e-05
4 *1828:A1 0
5 *1842:A 8.22876e-05
6 *1841:A 0
7 *1803:D 0
8 *1887:B2 0
9 *1858:A1 0.000274014
10 *1846:A2 3.37454e-05
11 *1848:B 9.41342e-05
12 *1721:A0 0.000110887
13 *1719:B 0
14 *1678:B 0
15 *1677:B 0.000125437
16 *1855:A 0
17 *2046:X 0
18 *512:176 0.00123402
19 *512:153 0.00127939
20 *512:127 0.000421846
21 *512:121 0.000551354
22 *512:113 0.000545932
23 *512:103 0.000588998
24 *512:90 0.000305737
25 *512:63 0.000160781
26 *512:54 0.000176894
27 *512:41 0.00168437
28 *512:31 0.00152607
29 *512:29 0.000222415
30 *512:16 0.000305879
31 *512:6 0.000252411
32 *512:4 0.000264516
33 *1677:B *1675:A 5.78206e-05
34 *1677:B *520:16 0.000218666
35 *1721:A0 *1585:A 0.000157595
36 *1721:A0 *519:240 8.23457e-05
37 *1721:A0 *520:179 0.00016881
38 *1857:A1 *544:53 0.000101022
39 *1857:A1 *544:71 7.57202e-05
40 *1858:A1 *1858:B2 3.00355e-05
41 *1858:A1 *1887:A2 2.76272e-05
42 *1858:A1 *1961:A3 0.000167089
43 *1858:A1 *2094:A 9.76042e-05
44 *1858:A1 *518:120 5.63183e-05
45 *1858:A1 *561:164 4.88555e-05
46 *1858:A1 *562:48 0.000144128
47 *512:6 *1873:B 2.36716e-05
48 *512:16 *513:65 0.000121741
49 *512:16 *519:186 5.20968e-05
50 *512:29 *513:65 8.08429e-05
51 *512:29 *513:84 0
52 *512:41 *1821:A 1.03323e-05
53 *512:41 *1821:B 0.000196381
54 *512:41 *1961:A3 8.8266e-05
55 *512:41 *2114:A 2.75145e-05
56 *512:41 *513:65 1.03423e-05
57 *512:54 *1585:A 9.50342e-06
58 *512:54 *520:10 0.000208491
59 *512:54 *520:16 0.000114492
60 *512:54 *523:31 0.00018305
61 *512:63 *1585:A 0.000159269
62 *512:63 *520:10 2.14129e-05
63 *512:63 *520:162 0.000114492
64 *512:63 *520:179 3.09233e-05
65 *512:90 *513:84 5.72004e-05
66 *512:103 *1825:B2 6.81315e-05
67 *512:103 *513:84 0.000150953
68 *512:103 *514:119 3.98044e-05
69 *512:103 *514:128 6.0236e-05
70 *512:103 *514:149 5.19442e-05
71 *512:103 *544:71 2.82846e-05
72 *512:113 *1825:B1 8.43862e-05
73 *512:113 *513:84 0.000173809
74 *512:113 *544:71 0.00021894
75 *512:113 *560:12 1.66606e-06
76 *512:113 *561:143 9.02259e-05
77 *512:121 *560:12 5.48176e-05
78 *512:127 *523:80 5.3023e-05
79 *512:127 *560:12 7.47145e-05
80 *512:127 *562:48 0.000116636
81 *512:153 *1892:A 0.000201393
82 *512:153 *517:110 0.000116158
83 *512:153 *523:80 8.61265e-05
84 *512:153 *533:85 5.53249e-06
85 *512:153 *560:12 9.37731e-05
86 *512:153 *562:48 7.12228e-06
87 *512:176 *1803:C 8.99218e-05
88 *512:176 *1892:A 4.14369e-05
89 *512:176 *533:85 1.26548e-05
90 *1601:A2 *512:41 0.00044149
91 *1609:A *512:41 6.84173e-05
92 *1679:A2 *1677:B 2.75145e-05
93 *1774:C1 *1721:A0 7.21296e-06
94 *1828:A2 *512:113 8.53113e-06
95 *1828:B1 *512:113 1.39832e-05
96 *1828:B1 *512:121 4.35034e-05
97 *1828:B2 *512:121 4.66108e-05
98 *1829:A3 *1857:A1 0.000232105
99 *1838:A *512:121 2.63322e-05
100 *1841:B *1842:A 8.8266e-05
101 *1848:A *512:29 9.61414e-05
102 *1848:A *512:90 7.26551e-05
103 *1848:A *512:103 3.05373e-05
104 *1855:B *512:16 2.45752e-05
105 *1855:B *512:29 4.66108e-05
106 *1856:B *512:29 0
107 *1858:A3 *1858:A1 4.82919e-05
108 *1858:B1 *1858:A1 2.24829e-05
109 *1860:A2 *1721:A0 4.41506e-05
110 *1866:B *1842:A 0
111 *1873:C *1873:A 0.000192791
112 *1873:C *512:6 8.40269e-05
113 *1887:B1 *1858:A1 1.62905e-05
114 *1891:A *512:176 0.000106215
115 *1892:B *512:176 8.57024e-05
116 *1893:A *512:176 0.00010491
117 *1902:A *512:16 0.000187071
118 *1902:B *512:16 5.12017e-06
119 *1917:A2 *512:54 0
120 *38:27 *512:16 9.05299e-05
121 *197:28 *512:121 0.000340209
122 *202:6 *1848:B 6.1357e-05
123 *202:6 *512:41 5.30673e-05
124 *202:21 *1848:B 7.00889e-06
125 *219:18 *1677:B 0.000120655
126 *219:30 *1677:B 1.37583e-05
127 *219:70 *512:176 0.000124895
128 *219:136 *512:41 4.82919e-05
129 *221:12 *512:176 0
130 *223:6 *1842:A 4.35348e-05
131 *223:12 *512:176 0
132 *273:14 *512:54 1.07797e-05
133 *326:95 *512:176 0
134 *492:70 *512:113 0.000510028
135 *493:56 *512:103 4.65643e-05
136 *497:47 *512:41 0.000114753
*RES
1 *2046:X *512:4 1.6 
2 *512:4 *512:6 1.485 
3 *512:6 *512:16 8.23 
4 *512:16 *1855:A 1.6 
5 *512:16 *512:29 5.555 
6 *512:29 *512:31 2 
7 *512:31 *512:41 25.585 
8 *512:41 *1677:B 4.825 
9 *512:41 *512:54 5.93 
10 *512:54 *1678:B 3.6 
11 *512:54 *512:63 1.89 
12 *512:63 *1719:B 3.6 
13 *512:63 *1721:A0 6.54 
14 *512:31 *1848:B 2.74 
15 *512:29 *512:90 1.635 
16 *512:90 *1846:A2 4.05 
17 *512:90 *512:103 8.225 
18 *512:103 *512:113 12.19 
19 *512:113 *512:121 7.025 
20 *512:121 *512:127 5.54 
21 *512:127 *1858:A1 11.525 
22 *512:127 *1887:B2 1.6 
23 *512:121 *512:153 3.93 
24 *512:153 *1803:D 3.6 
25 *512:153 *512:176 23.055 
26 *512:176 *1841:A 1.6 
27 *512:176 *1842:A 3.445 
28 *512:113 *1828:A1 1.6 
29 *512:103 *1857:A1 4.48 
30 *512:6 *1874:A1 1.6 
31 *512:4 *1873:A 3.79 
*END

*D_NET *513 0.026788
*CONN
*I *1897:A1 I *D sky130_fd_sc_hd__a22oi_1
*I *1896:B I *D sky130_fd_sc_hd__and4_1
*I *1921:B2 I *D sky130_fd_sc_hd__a22oi_1
*I *1920:A I *D sky130_fd_sc_hd__and4_1
*I *2031:A1 I *D sky130_fd_sc_hd__a31o_1
*I *1974:A I *D sky130_fd_sc_hd__nand2_1
*I *1818:B2 I *D sky130_fd_sc_hd__a32o_1
*I *1788:A1 I *D sky130_fd_sc_hd__o211a_1
*I *1785:A0 I *D sky130_fd_sc_hd__mux2_1
*I *1783:B I *D sky130_fd_sc_hd__nand2_1
*I *1725:B I *D sky130_fd_sc_hd__or2_1
*I *1803:B I *D sky130_fd_sc_hd__or4_1
*I *1821:A I *D sky130_fd_sc_hd__and2_1
*I *1871:A I *D sky130_fd_sc_hd__nand2_1
*I *2016:B2 I *D sky130_fd_sc_hd__a22o_1
*I *2017:B I *D sky130_fd_sc_hd__nand4_1
*I *2047:X O *D sky130_fd_sc_hd__clkbuf_4
*CAP
1 *1897:A1 2.23927e-05
2 *1896:B 5.74437e-05
3 *1921:B2 0.000152185
4 *1920:A 2.08101e-05
5 *2031:A1 0
6 *1974:A 5.77096e-05
7 *1818:B2 0.000385112
8 *1788:A1 0.000188925
9 *1785:A0 0
10 *1783:B 0
11 *1725:B 7.99393e-05
12 *1803:B 0.000285217
13 *1821:A 6.99166e-05
14 *1871:A 0.000311459
15 *2016:B2 0.000367701
16 *2017:B 6.02429e-05
17 *2047:X 0
18 *513:218 0.000359996
19 *513:174 0.000440017
20 *513:129 0.000223807
21 *513:111 0.000220463
22 *513:103 0.00147938
23 *513:99 0.00174116
24 *513:84 0.00113443
25 *513:65 0.00118136
26 *513:40 0.000823944
27 *513:23 0.00061103
28 *513:12 0.000885074
29 *513:10 0.00145831
30 *513:8 0.000406117
31 *513:6 0.000408283
32 *513:4 0.000447261
33 *1788:A1 *1837:A2 0
34 *1803:B *533:59 4.24292e-06
35 *1821:A *1821:B 2.7919e-05
36 *1896:B *1897:B1 8.40213e-05
37 *1897:A1 *1897:B1 0.000123225
38 *1897:A1 *1897:B2 3.45617e-05
39 *1921:B2 *1919:A 8.23457e-05
40 *1921:B2 *543:20 0
41 *1974:A *2031:A2 3.95724e-05
42 *1974:A *561:12 0.000200615
43 *2016:B2 *519:186 0.000158066
44 *2016:B2 *538:28 8.53722e-05
45 *2016:B2 *538:38 2.98807e-05
46 *2017:B *2016:A1 8.57024e-05
47 *513:6 *1920:B 9.80943e-06
48 *513:6 *544:14 2.30292e-05
49 *513:6 *544:34 2.75229e-05
50 *513:12 *514:80 0.000220038
51 *513:23 *519:186 7.06865e-05
52 *513:40 *2046:A 0
53 *513:40 *519:186 2.07184e-05
54 *513:65 *2054:A 0
55 *513:84 *1825:B2 0.000138544
56 *513:84 *2054:A 9.86611e-05
57 *513:84 *544:71 0.000321793
58 *513:103 *533:85 0.000312182
59 *513:111 *1837:A2 1.19928e-05
60 *513:174 *1974:B 0
61 *513:174 *543:20 0
62 *513:174 *561:119 0
63 *513:218 *514:8 4.66108e-05
64 *513:218 *514:10 2.92496e-05
65 *513:218 *514:49 0.00064955
66 *513:218 *514:64 4.9968e-05
67 *513:218 *533:26 0.000284031
68 *513:218 *544:14 8.57024e-05
69 *1784:B *513:111 9.77597e-05
70 *1785:A1 *1788:A1 9.50342e-06
71 *1785:A1 *513:111 9.54399e-05
72 *1785:A1 *513:129 0.000164686
73 *1787:B *1788:A1 0
74 *1788:A2 *1788:A1 9.53428e-06
75 *1802:D *1803:B 4.91453e-05
76 *1828:A2 *513:84 0.000134509
77 *1832:A *1788:A1 1.47347e-05
78 *1838:A *513:99 1.1561e-05
79 *1868:A1 *513:103 8.73389e-06
80 *1868:A2 *513:103 5.36372e-05
81 *1871:B *1871:A 0.000313857
82 *1893:A *1803:B 0.000192125
83 *1897:A2 *1896:B 0.00015896
84 *1897:A2 *1897:A1 6.07316e-05
85 *1897:A2 *1921:B2 2.15594e-05
86 *1900:C *513:40 8.9061e-05
87 *1900:C *513:65 0
88 *1902:A *513:65 5.47165e-05
89 *1918:A2 *513:103 0.000138919
90 *1921:B1 *1921:B2 5.98004e-06
91 *1921:B1 *513:6 8.40213e-05
92 *1949:A2 *1803:B 3.86832e-05
93 *1949:A2 *1818:B2 0.000276188
94 *1949:A2 *513:99 0.000138284
95 *1971:A1 *1921:B2 4.66108e-05
96 *1977:B *513:174 7.30547e-05
97 *1978:B *513:174 5.53249e-06
98 *2026:B *513:84 1.54862e-05
99 *2031:B1 *513:174 0.00011379
100 *2081:A *513:103 4.99619e-05
101 *38:27 *513:40 0.000116158
102 *38:27 *513:65 6.75724e-05
103 *182:21 *1803:B 0.000171937
104 *183:8 *513:84 0.000790905
105 *186:8 *513:99 9.54399e-05
106 *188:23 *1818:B2 0.000200852
107 *190:20 *1818:B2 3.50033e-05
108 *191:76 *1818:B2 0.000755545
109 *191:76 *513:103 0.000283918
110 *192:20 *513:103 0.000259082
111 *192:24 *513:103 0.000147196
112 *192:34 *513:103 0.000232111
113 *196:20 *1818:B2 0.000294421
114 *197:10 *513:84 5.48836e-05
115 *199:40 *1818:B2 0.00012491
116 *202:6 *513:65 2.75145e-05
117 *219:85 *1788:A1 0.000200648
118 *219:85 *513:111 0.000118527
119 *219:85 *513:129 0.000156842
120 *254:12 *1871:A 4.82919e-05
121 *257:12 *2016:B2 1.19928e-05
122 *257:12 *513:40 0.000118527
123 *273:114 *1725:B 0.000138544
124 *273:138 *1788:A1 1.83756e-05
125 *287:8 *1871:A 0.000125284
126 *305:12 *513:174 0
127 *306:10 *1921:B2 0.000157602
128 *336:16 *513:84 0.000128537
129 *367:10 *513:174 5.46798e-05
130 *490:105 *1803:B 4.9968e-05
131 *491:65 *2016:B2 1.08758e-05
132 *491:78 *2016:B2 0.000145515
133 *491:128 *1803:B 1.39525e-05
134 *491:128 *513:99 3.14385e-05
135 *491:147 *513:84 0.000230429
136 *491:155 *1818:B2 0.000232111
137 *492:70 *513:84 0.000106606
138 *492:72 *513:84 0.000206425
139 *495:29 *513:40 0
140 *495:29 *513:65 0
141 *495:44 *513:65 0
142 *496:72 *1974:A 6.05513e-05
143 *496:95 *1921:B2 2.78732e-05
144 *497:80 *1921:B2 0.000138188
145 *497:80 *513:6 3.74161e-05
146 *497:80 *513:8 8.49205e-05
147 *497:80 *513:174 0
148 *501:22 *1725:B 0
149 *510:133 *1803:B 2.92496e-05
150 *510:133 *2016:B2 4.41939e-05
151 *510:150 *1803:B 3.57349e-05
152 *512:16 *513:65 0.000121741
153 *512:29 *513:65 8.08429e-05
154 *512:29 *513:84 0
155 *512:41 *1821:A 1.03323e-05
156 *512:41 *513:65 1.03423e-05
157 *512:90 *513:84 5.72004e-05
158 *512:103 *513:84 0.000150953
159 *512:113 *513:84 0.000173809
*RES
1 *2047:X *513:4 1.6 
2 *513:4 *513:6 2.175 
3 *513:6 *513:8 1.14 
4 *513:8 *513:10 3.21 
5 *513:10 *513:12 9.075 
6 *513:12 *2017:B 2.395 
7 *513:12 *513:23 2.87 
8 *513:23 *2016:B2 12.88 
9 *513:23 *513:40 4.44 
10 *513:40 *1871:A 9.585 
11 *513:40 *513:65 8.435 
12 *513:65 *1821:A 2.755 
13 *513:65 *513:84 28.935 
14 *513:84 *1803:B 8.43 
15 *513:84 *513:99 3.89 
16 *513:99 *513:103 24.53 
17 *513:103 *513:111 5.135 
18 *513:111 *1725:B 7.235 
19 *513:111 *1783:B 1.6 
20 *513:103 *513:129 1.89 
21 *513:129 *1785:A0 3.6 
22 *513:129 *1788:A1 7.515 
23 *513:99 *1818:B2 18.635 
24 *513:10 *513:174 10.735 
25 *513:174 *1974:A 3.79 
26 *513:174 *2031:A1 1.6 
27 *513:8 *1920:A 1.96 
28 *513:6 *1921:B2 9.56 
29 *513:4 *513:218 13.42 
30 *513:218 *1896:B 3.085 
31 *513:218 *1897:A1 2.74 
*END

*D_NET *514 0.0194038
*CONN
*I *1879:A I *D sky130_fd_sc_hd__and3_1
*I *1880:A1 I *D sky130_fd_sc_hd__a21oi_1
*I *1896:A I *D sky130_fd_sc_hd__and4_1
*I *1849:A1_N I *D sky130_fd_sc_hd__o2bb2a_1
*I *1818:A2 I *D sky130_fd_sc_hd__a32o_1
*I *1812:A2 I *D sky130_fd_sc_hd__o22a_1
*I *1811:A2 I *D sky130_fd_sc_hd__a22oi_1
*I *1825:B2 I *D sky130_fd_sc_hd__a22o_1
*I *1826:B I *D sky130_fd_sc_hd__and3_1
*I *1850:C I *D sky130_fd_sc_hd__and4b_1
*I *2016:A1 I *D sky130_fd_sc_hd__a22o_1
*I *2017:A I *D sky130_fd_sc_hd__nand4_1
*I *1897:B2 I *D sky130_fd_sc_hd__a22oi_1
*I *1971:B1 I *D sky130_fd_sc_hd__o211a_1
*I *1919:A I *D sky130_fd_sc_hd__nand2_1
*I *1972:A1 I *D sky130_fd_sc_hd__a211oi_1
*I *2048:X O *D sky130_fd_sc_hd__clkbuf_4
*CAP
1 *1879:A 0.000160695
2 *1880:A1 0.000119328
3 *1896:A 0.000255011
4 *1849:A1_N 2.55556e-05
5 *1818:A2 4.22598e-05
6 *1812:A2 0.000235238
7 *1811:A2 3.75469e-06
8 *1825:B2 0.000159939
9 *1826:B 0
10 *1850:C 0
11 *2016:A1 0.000252256
12 *2017:A 0
13 *1897:B2 0.000104558
14 *1971:B1 7.49997e-05
15 *1919:A 0.000177459
16 *1972:A1 0.000131917
17 *2048:X 0.000208939
18 *514:195 0.000374339
19 *514:164 0.000396134
20 *514:149 0.000991162
21 *514:128 0.00108839
22 *514:119 0.000327929
23 *514:111 0.000362169
24 *514:80 0.000988006
25 *514:74 0.000816719
26 *514:72 0.000870247
27 *514:68 0.00092341
28 *514:64 0.000515864
29 *514:49 0.000473883
30 *514:27 0.000270234
31 *514:10 0.000277581
32 *514:8 0.000553482
33 *1811:A2 *1811:A1 1.2818e-05
34 *1825:B2 *544:71 9.50342e-06
35 *1879:A *533:26 0
36 *1879:A *560:40 0.000198293
37 *1880:A1 *543:20 0
38 *1880:A1 *544:34 0
39 *1896:A *543:20 0
40 *1896:A *544:34 0
41 *1897:B2 *1897:B1 2.16917e-05
42 *1919:A *2099:A 0.000272978
43 *1919:A *538:38 9.26713e-05
44 *1971:B1 *538:38 7.10578e-05
45 *1972:A1 *1972:A2 7.41193e-05
46 *1972:A1 *538:38 1.73877e-05
47 *514:8 *533:26 0.000163204
48 *514:8 *544:14 6.20787e-05
49 *514:10 *1920:B 1.26626e-05
50 *514:10 *538:38 1.22676e-05
51 *514:10 *544:34 2.03578e-05
52 *514:49 *544:34 0.000264469
53 *514:64 *533:26 0
54 *514:64 *544:34 2.04147e-05
55 *514:64 *560:40 0.000250609
56 *514:74 *561:119 0
57 *514:80 *561:119 0
58 *514:111 *561:119 0
59 *1812:B2 *1811:A2 1.2818e-05
60 *1823:B1 *514:149 0.00012359
61 *1829:A2 *514:149 0.000129424
62 *1829:A3 *514:149 1.0129e-05
63 *1830:A *514:149 0.000116158
64 *1830:C *514:149 0
65 *1846:B1 *514:119 4.82863e-05
66 *1848:A *514:119 9.50342e-06
67 *1849:A2_N *1849:A1_N 4.82919e-05
68 *1849:A2_N *514:119 0.000123225
69 *1851:A *1849:A1_N 1.85674e-05
70 *1870:A *1849:A1_N 1.75693e-05
71 *1870:A *514:72 0.000209183
72 *1870:A *514:119 4.80182e-05
73 *1870:B *514:72 0.000138808
74 *1875:A *514:80 6.4422e-05
75 *1876:B *514:80 0
76 *1877:B *514:72 0.000353831
77 *1879:C *1879:A 7.1084e-05
78 *1881:B *1879:A 0.000136339
79 *1897:A1 *1897:B2 3.45617e-05
80 *1897:A2 *1896:A 1.16578e-05
81 *1897:A2 *1897:B2 0.000107342
82 *1898:B *1897:B2 4.99619e-05
83 *1921:A2 *1919:A 1.2818e-05
84 *1921:B1 *1919:A 4.82919e-05
85 *1921:B1 *514:10 0
86 *1921:B2 *1919:A 8.23457e-05
87 *1922:B1 *1972:A1 0
88 *1971:A1 *1919:A 5.48723e-05
89 *1971:A1 *1971:B1 8.07016e-05
90 *2004:A2 *1825:B2 7.89269e-05
91 *2017:B *2016:A1 8.57024e-05
92 *2017:C *2016:A1 3.99817e-05
93 *2017:D *2016:A1 2.49909e-05
94 *2042:C1 *514:149 0.000153067
95 *183:8 *1818:A2 0
96 *183:8 *514:149 0
97 *183:8 *514:164 0
98 *192:12 *1818:A2 3.86607e-05
99 *192:12 *514:149 7.21296e-06
100 *192:12 *514:164 6.90874e-05
101 *192:20 *514:149 3.26822e-05
102 *196:20 *514:149 0.000667193
103 *196:28 *514:149 9.66687e-05
104 *199:29 *1812:A2 0.000347922
105 *202:32 *514:119 5.39718e-05
106 *202:43 *514:119 5.37442e-05
107 *202:43 *514:128 8.97564e-05
108 *202:43 *514:149 0.000106317
109 *229:23 *514:119 1.56428e-05
110 *232:12 *514:74 0
111 *232:12 *514:111 0
112 *253:8 *514:72 4.7662e-05
113 *254:12 *514:80 0
114 *259:14 *514:72 4.35432e-05
115 *260:12 *514:68 0.000131052
116 *261:12 *1880:A1 3.86607e-05
117 *261:12 *514:68 3.82323e-06
118 *261:12 *514:72 3.81908e-06
119 *280:8 *1897:B2 0.000160937
120 *305:12 *1919:A 0.000124895
121 *323:8 *514:10 0
122 *410:10 *2016:A1 1.03423e-05
123 *410:10 *514:80 1.83756e-05
124 *493:56 *514:119 9.54399e-05
125 *495:29 *514:80 0
126 *495:44 *514:80 6.58714e-05
127 *495:57 *514:80 5.51245e-05
128 *495:68 *514:74 5.12859e-05
129 *495:68 *514:80 2.97004e-06
130 *495:68 *514:111 3.56353e-05
131 *496:72 *1972:A1 0.000116158
132 *496:95 *1972:A1 5.16418e-05
133 *496:95 *514:10 8.35683e-05
134 *501:160 *2016:A1 2.75145e-05
135 *512:103 *1825:B2 6.81315e-05
136 *512:103 *514:119 3.98044e-05
137 *512:103 *514:128 6.0236e-05
138 *512:103 *514:149 5.19442e-05
139 *513:12 *514:80 0.000220038
140 *513:84 *1825:B2 0.000138544
141 *513:218 *514:8 4.66108e-05
142 *513:218 *514:10 2.92496e-05
143 *513:218 *514:49 0.00064955
144 *513:218 *514:64 4.9968e-05
*RES
1 *2048:X *514:8 6.465 
2 *514:8 *514:10 2.4 
3 *514:10 *1972:A1 6.3 
4 *514:10 *514:27 2.36 
5 *514:27 *1919:A 6.655 
6 *514:27 *1971:B1 3.79 
7 *514:8 *514:49 7.5 
8 *514:49 *1897:B2 6.585 
9 *514:49 *514:64 3.675 
10 *514:64 *514:68 4.52 
11 *514:68 *514:72 11.765 
12 *514:72 *514:74 1.635 
13 *514:74 *514:80 15.605 
14 *514:80 *2017:A 1.6 
15 *514:80 *2016:A1 5.65 
16 *514:74 *1850:C 3.6 
17 *514:72 *514:111 3.125 
18 *514:111 *514:119 7.715 
19 *514:119 *1826:B 3.6 
20 *514:119 *514:128 1.89 
21 *514:128 *1825:B2 11.065 
22 *514:128 *514:149 18.51 
23 *514:149 *1811:A2 3.72375 
24 *514:149 *514:164 2.19 
25 *514:164 *1812:A2 6.81 
26 *514:164 *1818:A2 4.47 
27 *514:111 *1849:A1_N 2.52625 
28 *514:68 *514:195 2 
29 *514:195 *1896:A 7.56 
30 *514:195 *1880:A1 5.745 
31 *514:64 *1879:A 7.3125 
*END

*D_NET *515 0.0143393
*CONN
*I *2117:A I *D sky130_fd_sc_hd__dlygate4sd1_1
*I *2086:A I *D sky130_fd_sc_hd__dlygate4sd1_1
*I *1589:B I *D sky130_fd_sc_hd__or4_4
*I *2088:A I *D sky130_fd_sc_hd__dlygate4sd1_1
*I *1586:A I *D sky130_fd_sc_hd__inv_2
*I *2087:A I *D sky130_fd_sc_hd__dlygate4sd1_1
*I *2049:X O *D sky130_fd_sc_hd__buf_12
*CAP
1 *2117:A 0
2 *2086:A 0.000271719
3 *1589:B 0.00132999
4 *2088:A 0
5 *1586:A 5.02618e-05
6 *2087:A 0
7 *2049:X 0
8 *515:74 0.000420971
9 *515:42 0.00150333
10 *515:29 0.00103184
11 *515:16 0.00206121
12 *515:6 0.00140222
13 *1589:B *1589:A 7.35813e-05
14 *1589:B *1589:D 2.39856e-05
15 *1589:B *1596:A 0.00049723
16 *1589:B *1598:C1 5.83121e-06
17 *1589:B *1634:B1 0.000112123
18 *1589:B *517:110 7.32599e-05
19 *1589:B *523:56 0.000457691
20 *2086:A *1757:A 5.09337e-05
21 *515:16 *1730:A 0.000120186
22 *515:16 *517:10 0.00103826
23 *515:16 *517:14 0.00018761
24 *515:16 *517:20 0
25 *515:74 *1757:A 8.65905e-05
26 *1672:A *1589:B 2.75145e-05
27 *1720:A *1589:B 2.75145e-05
28 *1720:B *1589:B 8.80267e-05
29 *1721:A1 *1589:B 4.99619e-05
30 *1731:A1 *515:42 8.52845e-05
31 *1731:B1 *1586:A 4.77757e-05
32 *1731:B1 *515:42 1.14169e-05
33 *1742:A *515:16 9.28357e-05
34 *1746:A1_N *1586:A 2.04923e-05
35 *1761:A1 *515:16 0
36 *1917:A1 *1589:B 0
37 *1961:A2 *1589:B 0.000391829
38 *2049:A *515:16 0
39 *2050:A *515:16 0.000222514
40 *2051:A *515:16 0
41 *92:78 *1589:B 0.000908767
42 *92:78 *515:42 0.000195791
43 *95:12 *515:29 0.000279306
44 *112:8 *515:16 0.000129678
45 *113:6 *1586:A 4.66108e-05
46 *113:6 *515:29 3.66286e-05
47 *113:10 *1586:A 8.6076e-05
48 *113:10 *515:29 0.000274161
49 *114:12 *515:16 0.000321719
50 *474:22 *1589:B 4.82919e-05
51 *491:16 *1589:B 0
52 *493:45 *1589:B 0.000148238
*RES
1 *2049:X *515:6 3.6 
2 *515:6 *515:16 32.36 
3 *515:16 *2087:A 1.6 
4 *515:16 *515:29 11.355 
5 *515:29 *1586:A 3.085 
6 *515:29 *515:42 4.02 
7 *515:42 *2088:A 1.6 
8 *515:42 *1589:B 34.445 
9 *515:6 *515:74 4.685 
10 *515:74 *2086:A 5.35 
11 *515:74 *2117:A 1.6 
*END

*D_NET *516 0.0150225
*CONN
*I *2093:A I *D sky130_fd_sc_hd__dlygate4sd1_1
*I *1746:B2 I *D sky130_fd_sc_hd__o2bb2a_1
*I *2100:A I *D sky130_fd_sc_hd__dlygate4sd1_1
*I *2094:A I *D sky130_fd_sc_hd__dlygate4sd1_1
*I *1589:A I *D sky130_fd_sc_hd__or4_4
*I *2103:A I *D sky130_fd_sc_hd__dlygate4sd1_1
*I *2050:X O *D sky130_fd_sc_hd__buf_12
*CAP
1 *2093:A 0
2 *1746:B2 0
3 *2100:A 0
4 *2094:A 0.000220879
5 *1589:A 8.1382e-05
6 *2103:A 6.6515e-05
7 *2050:X 0
8 *516:55 0.0017082
9 *516:43 0.00200128
10 *516:35 0.000986352
11 *516:29 0.00136543
12 *516:4 0.00104093
13 *1589:A *1589:D 1.08758e-05
14 *2094:A *1858:B2 4.66108e-05
15 *2094:A *526:8 3.72916e-05
16 *2094:A *562:34 0
17 *2094:A *562:48 2.8185e-05
18 *2103:A *552:8 0
19 *516:29 *1763:A 0.000208484
20 *516:29 *552:8 3.09164e-05
21 *516:55 *1634:B1 0.000119762
22 *516:55 *519:122 0.000132968
23 *516:55 *519:126 0.000577747
24 *516:55 *519:240 0.000255288
25 *516:55 *519:255 0.000688865
26 *516:55 *562:34 0
27 *1589:B *1589:A 7.35813e-05
28 *1589:C *1589:A 1.91521e-05
29 *1728:B1 *516:55 7.68414e-06
30 *1742:C *516:29 0.000162332
31 *1743:A2 *516:29 4.66108e-05
32 *1746:B1 *516:35 4.77757e-05
33 *1750:A3 *516:29 3.38425e-05
34 *1754:B *516:43 0.000231787
35 *1761:S *516:29 0
36 *1762:B *516:29 8.65961e-05
37 *1775:B *516:43 0.000461053
38 *1775:B *516:55 1.34503e-05
39 *1858:A1 *2094:A 9.76042e-05
40 *1858:A3 *2094:A 2.36716e-05
41 *1858:B1 *2094:A 1.35171e-05
42 *1860:C1 *2094:A 0.000542446
43 *1961:A2 *2094:A 9.28058e-05
44 *1961:A2 *516:55 0.000246663
45 *2049:A *2103:A 0.000143266
46 *100:20 *516:43 0.000148611
47 *100:32 *516:29 1.19928e-05
48 *100:42 *516:29 1.19928e-05
49 *110:39 *516:29 8.40213e-05
50 *117:14 *516:35 8.68803e-05
51 *117:18 *516:29 0.000482561
52 *117:18 *516:35 9.50342e-06
53 *121:10 *516:29 0.000163367
54 *121:10 *516:35 9.428e-05
55 *132:8 *516:29 8.53113e-06
56 *135:10 *2103:A 0
57 *135:10 *516:29 0.00084204
58 *144:12 *516:29 3.23955e-05
59 *499:29 *516:29 0.000984701
60 *501:129 *1589:A 1.94841e-05
61 *501:160 *1589:A 2.47677e-06
62 *501:160 *516:55 8.78735e-05
*RES
1 *2050:X *516:4 1.6 
2 *516:4 *2103:A 7.235 
3 *516:4 *516:29 33.855 
4 *516:29 *516:35 8.825 
5 *516:35 *516:43 11.19 
6 *516:43 *516:55 24.035 
7 *516:55 *1589:A 5.445 
8 *516:55 *2094:A 10.275 
9 *516:43 *2100:A 1.6 
10 *516:35 *1746:B2 1.6 
11 *516:29 *2093:A 3.6 
*END

*D_NET *517 0.0262595
*CONN
*I *1766:A I *D sky130_fd_sc_hd__or2_1
*I *1767:A I *D sky130_fd_sc_hd__nand2_1
*I *1737:A I *D sky130_fd_sc_hd__xor2_1
*I *1743:A1 I *D sky130_fd_sc_hd__o22a_1
*I *1736:A I *D sky130_fd_sc_hd__and2_4
*I *1683:A I *D sky130_fd_sc_hd__or2_1
*I *1589:D I *D sky130_fd_sc_hd__or4_4
*I *1892:A I *D sky130_fd_sc_hd__xor2_1
*I *2111:A I *D sky130_fd_sc_hd__buf_1
*I *1662:B1 I *D sky130_fd_sc_hd__a21oi_1
*I *2019:D_N I *D sky130_fd_sc_hd__or4b_1
*I *1665:A I *D sky130_fd_sc_hd__and3_1
*I *1684:A I *D sky130_fd_sc_hd__xnor2_1
*I *2051:X O *D sky130_fd_sc_hd__buf_12
*CAP
1 *1766:A 0
2 *1767:A 0.000127225
3 *1737:A 0
4 *1743:A1 3.76639e-05
5 *1736:A 0.000131039
6 *1683:A 0
7 *1589:D 5.40391e-05
8 *1892:A 0.00027598
9 *2111:A 0
10 *1662:B1 0
11 *2019:D_N 0.000399173
12 *1665:A 2.15379e-05
13 *1684:A 2.77456e-05
14 *2051:X 2.61242e-05
15 *517:171 0.000283459
16 *517:164 0.000380033
17 *517:110 0.000980888
18 *517:98 0.00181449
19 *517:86 0.00135484
20 *517:60 0.00112816
21 *517:48 0.00133386
22 *517:35 0.00164329
23 *517:20 0.00230544
24 *517:14 0.00127714
25 *517:10 0.000595979
26 *517:6 0.000623658
27 *1736:A *1730:A 1.61831e-05
28 *1892:A *1948:A1 1.88656e-05
29 *1892:A *533:85 5.69248e-06
30 *1892:A *562:48 0.000286157
31 *517:20 *1730:A 3.03775e-05
32 *517:20 *1732:A 0.000118513
33 *517:48 *519:67 4.01019e-05
34 *517:48 *537:37 4.63627e-06
35 *517:60 *518:60 1.7635e-05
36 *517:86 *1686:A 9.47454e-05
37 *517:86 *519:67 0.00070056
38 *517:86 *549:12 0.000160641
39 *517:98 *518:37 0.000374085
40 *517:98 *549:12 0.000468933
41 *517:110 *562:48 0.000116158
42 *1589:A *1589:D 1.08758e-05
43 *1589:B *1589:D 2.39856e-05
44 *1589:B *517:110 7.32599e-05
45 *1606:A *2019:D_N 5.53249e-06
46 *1665:B *517:48 4.57464e-06
47 *1665:C *517:48 7.06981e-05
48 *1666:B *517:86 4.15296e-05
49 *1667:D *517:48 0.000120655
50 *1683:B *517:86 2.05056e-05
51 *1709:A1 *517:86 0.000122337
52 *1711:A1 *517:35 0.000120655
53 *1711:B1 *517:35 0.000200148
54 *1712:B *517:20 0
55 *1712:B *517:35 1.67266e-05
56 *1723:B *517:98 0.000269244
57 *1727:A2 *517:98 9.78539e-05
58 *1728:C1 *517:98 3.96653e-05
59 *1733:A1 *517:35 0
60 *1737:B *517:164 4.66108e-05
61 *1742:C *517:10 0
62 *1742:D *517:10 0.000467252
63 *1742:D *517:14 0.000206123
64 *1744:D_N *517:14 0.000116571
65 *1752:A1 *1736:A 0.000158066
66 *1752:A1 *517:14 3.38895e-05
67 *1761:A1 *517:10 0
68 *1764:B *517:10 4.68199e-05
69 *1765:A0 *517:10 0
70 *1766:B *1767:A 2.42087e-05
71 *1766:B *517:171 8.57024e-05
72 *1767:B *1767:A 8.52883e-05
73 *1768:D *1767:A 3.04704e-05
74 *1776:A *517:98 0.000122337
75 *1889:B1 *517:110 2.27571e-05
76 *1891:A *1892:A 3.04786e-05
77 *1891:B *1892:A 6.56448e-06
78 *1917:A1 *517:110 0
79 *1917:A2 *517:98 0.000349598
80 *1917:C1 *517:110 1.00941e-05
81 *1918:B1 *517:110 0.000525671
82 *1948:A2 *1892:A 4.83139e-05
83 *1948:B1 *1892:A 2.36616e-05
84 *1961:A2 *517:110 0.000496194
85 *2019:B *2019:D_N 7.63883e-05
86 *2051:A *517:6 4.66108e-05
87 *2051:A *517:164 8.65961e-05
88 *43:24 *2019:D_N 1.46828e-05
89 *43:24 *517:48 0
90 *43:24 *517:60 4.66108e-05
91 *47:8 *517:48 3.27443e-05
92 *61:32 *517:35 0
93 *66:10 *517:20 4.91189e-05
94 *95:8 *517:20 0
95 *105:6 *517:98 5.93953e-05
96 *112:8 *517:20 0.000210839
97 *114:12 *517:14 0.000338219
98 *114:12 *517:20 0
99 *119:8 *517:10 0
100 *121:10 *517:14 0
101 *121:41 *517:10 0
102 *197:28 *517:110 0.000219341
103 *219:30 *2019:D_N 0.000175848
104 *283:22 *2019:D_N 0.000132655
105 *471:8 *2019:D_N 0.000291923
106 *471:18 *2019:D_N 4.99619e-05
107 *501:28 *517:86 2.94708e-05
108 *501:28 *517:98 7.89119e-05
109 *501:30 *517:86 0.000253904
110 *501:129 *1589:D 5.8825e-05
111 *501:129 *517:98 0.00097258
112 *512:153 *1892:A 0.000201393
113 *512:153 *517:110 0.000116158
114 *512:176 *1892:A 4.14369e-05
115 *515:16 *517:10 0.00103826
116 *515:16 *517:14 0.00018761
117 *515:16 *517:20 0
*RES
1 *2051:X *517:6 2.05 
2 *517:6 *517:10 14.09 
3 *517:10 *517:14 8.225 
4 *517:14 *517:20 18.905 
5 *517:20 *1684:A 4.05 
6 *517:20 *517:35 17.78 
7 *517:35 *1665:A 1.96 
8 *517:35 *517:48 6.0425 
9 *517:48 *517:60 4.88583 
10 *517:60 *2019:D_N 13.19 
11 *517:60 *1662:B1 1.6 
12 *517:48 *517:86 12.2225 
13 *517:86 *517:98 30.865 
14 *517:98 *517:110 19.995 
15 *517:110 *2111:A 3.6 
16 *517:110 *1892:A 9.72 
17 *517:98 *1589:D 2.74 
18 *517:86 *1683:A 1.6 
19 *517:14 *1736:A 4.12 
20 *517:10 *1743:A1 4.05 
21 *517:6 *517:164 3.675 
22 *517:164 *1737:A 1.6 
23 *517:164 *517:171 2.52 
24 *517:171 *1767:A 4.15 
25 *517:171 *1766:A 1.6 
*END

*D_NET *518 0.0305332
*CONN
*I *1759:B2 I *D sky130_fd_sc_hd__o32a_1
*I *1741:A I *D sky130_fd_sc_hd__xnor2_1
*I *1886:A2 I *D sky130_fd_sc_hd__o22a_1
*I *1885:A2 I *D sky130_fd_sc_hd__a21oi_1
*I *1879:B I *D sky130_fd_sc_hd__and3_1
*I *1896:C I *D sky130_fd_sc_hd__and4_1
*I *1880:A2 I *D sky130_fd_sc_hd__a21oi_1
*I *1590:A I *D sky130_fd_sc_hd__or2_4
*I *1634:A1 I *D sky130_fd_sc_hd__a21o_1
*I *1598:C1 I *D sky130_fd_sc_hd__a211oi_2
*I *1887:A2 I *D sky130_fd_sc_hd__a32o_1
*I *1863:A I *D sky130_fd_sc_hd__xnor2_1
*I *1633:A1 I *D sky130_fd_sc_hd__o21ba_4
*I *1638:A I *D sky130_fd_sc_hd__nor2_1
*I *1584:A I *D sky130_fd_sc_hd__inv_2
*I *1743:B1 I *D sky130_fd_sc_hd__o22a_1
*I *2052:X O *D sky130_fd_sc_hd__buf_4
*CAP
1 *1759:B2 4.44051e-05
2 *1741:A 8.4836e-05
3 *1886:A2 9.32008e-05
4 *1885:A2 0
5 *1879:B 0
6 *1896:C 0.000134819
7 *1880:A2 0
8 *1590:A 9.02094e-05
9 *1634:A1 0
10 *1598:C1 8.61063e-05
11 *1887:A2 5.75123e-05
12 *1863:A 0
13 *1633:A1 0.000475685
14 *1638:A 0
15 *1584:A 0
16 *1743:B1 9.66271e-05
17 *2052:X 0
18 *518:224 0.000481014
19 *518:202 0.000196216
20 *518:180 0.000365245
21 *518:171 0.000989208
22 *518:161 0.00141569
23 *518:130 0.00036758
24 *518:120 0.00057369
25 *518:105 0.000259519
26 *518:103 0.00136921
27 *518:80 0.00141944
28 *518:60 0.00159489
29 *518:37 0.0015226
30 *518:31 0.00222155
31 *518:12 0.00136345
32 *518:6 0.000404571
33 *1590:A *1590:B 3.83041e-05
34 *1598:C1 *523:56 1.19928e-05
35 *1633:A1 *559:32 8.4546e-05
36 *1886:A2 *1886:A1 1.34503e-05
37 *1887:A2 *561:160 5.63183e-05
38 *1887:A2 *561:164 8.7152e-06
39 *1896:C *544:34 0.000535804
40 *1896:C *560:40 0.000535804
41 *518:80 *1724:A 0.000229171
42 *518:103 *1724:A 0.000157172
43 *518:103 *544:92 0.000190654
44 *518:120 *1961:A3 0.000117838
45 *518:120 *561:143 9.63396e-05
46 *518:120 *561:160 2.69648e-05
47 *518:130 *1590:B 0.000126224
48 *518:130 *1598:A1 0.000199727
49 *518:130 *1598:B1 0.000118081
50 *518:130 *1634:A2 2.16833e-05
51 *518:130 *523:56 1.34594e-05
52 *518:130 *562:34 0.000131
53 *518:171 *543:20 0
54 *518:171 *561:119 0.00026528
55 *518:171 *561:223 0.000122942
56 *518:202 *561:223 4.83541e-05
57 *1589:B *1598:C1 5.83121e-06
58 *1600:A2 *1590:A 0
59 *1638:B *518:60 0.000178314
60 *1657:B *518:60 0.000125088
61 *1672:A *518:60 3.09164e-05
62 *1676:B *518:60 0
63 *1679:B1 *518:60 7.04753e-05
64 *1681:B1 *518:60 0.000358944
65 *1682:A1 *518:60 0.000114492
66 *1682:A2 *518:60 0
67 *1683:B *518:60 3.09598e-05
68 *1722:A *518:31 2.7441e-05
69 *1724:B *518:80 0.000198934
70 *1728:A1 *518:80 2.49909e-05
71 *1728:A2 *518:80 8.65905e-05
72 *1728:B1 *518:31 3.05373e-05
73 *1728:B1 *518:37 0.000150116
74 *1728:B1 *518:80 2.75145e-05
75 *1728:C1 *518:31 1.26626e-05
76 *1728:C1 *518:37 7.17811e-05
77 *1741:B *1741:A 7.87474e-05
78 *1741:B *1759:B2 9.2006e-05
79 *1743:A2 *1743:B1 1.34594e-05
80 *1750:A3 *1743:B1 1.91597e-05
81 *1750:A3 *518:31 1.91597e-05
82 *1750:A3 *518:224 1.60203e-05
83 *1750:B1 *1743:B1 1.08758e-05
84 *1750:B1 *518:31 3.57349e-05
85 *1759:A2 *518:224 0.000191226
86 *1772:A1 *518:31 0.000230009
87 *1772:C1 *518:31 2.95616e-05
88 *1774:B1 *518:31 7.06865e-05
89 *1779:A2 *518:31 0
90 *1854:B *518:171 9.54399e-05
91 *1858:A1 *1887:A2 2.76272e-05
92 *1858:A1 *518:120 5.63183e-05
93 *1860:A1 *518:103 6.58725e-05
94 *1860:A2 *518:103 8.23457e-05
95 *1860:B1 *518:103 0
96 *1861:B1 *518:103 0.00017014
97 *1881:B *518:180 7.00118e-05
98 *1885:B1 *1886:A2 6.90876e-05
99 *1885:B1 *518:202 4.82919e-05
100 *1886:B2 *1886:A2 8.57024e-05
101 *1889:A2 *518:103 0
102 *1889:C1 *518:103 0.000593403
103 *1889:C1 *518:161 0.0018058
104 *1890:A_N *518:103 6.15576e-06
105 *1949:A1 *518:161 0.00112766
106 *1961:A2 *1598:C1 8.35683e-05
107 *2044:A2 *518:31 0.000148267
108 *2106:A *518:120 0.000112679
109 *44:10 *518:60 0
110 *45:32 *1633:A1 7.22354e-05
111 *45:32 *518:60 3.00381e-05
112 *51:21 *518:60 8.40903e-05
113 *52:10 *518:60 2.82284e-05
114 *52:23 *518:60 0
115 *53:12 *518:60 0.000117832
116 *100:32 *518:31 0.000230435
117 *100:42 *518:31 4.66108e-05
118 *103:38 *518:31 2.75145e-05
119 *106:6 *518:80 3.7712e-05
120 *110:39 *518:12 0.000143266
121 *110:39 *518:31 8.34281e-06
122 *110:39 *518:224 0.000118513
123 *117:29 *518:12 0.000143266
124 *117:29 *518:224 0.000109009
125 *121:25 *1759:B2 7.14699e-05
126 *123:8 *1759:B2 0.000119756
127 *123:8 *518:224 0.000157172
128 *125:6 *1743:B1 4.66108e-05
129 *126:42 *518:31 0.000111455
130 *126:49 *518:31 3.96653e-05
131 *130:8 *518:31 0.000200545
132 *199:63 *518:202 0
133 *245:20 *518:103 8.40213e-05
134 *273:95 *518:60 3.96653e-05
135 *273:101 *518:60 4.82919e-05
136 *283:8 *518:60 1.83756e-05
137 *283:22 *518:60 0
138 *283:91 *518:31 0.000110609
139 *283:91 *518:37 0.000225918
140 *294:35 *1598:C1 7.47215e-05
141 *337:10 *518:120 0.000204668
142 *412:14 *1590:A 3.96653e-05
143 *434:10 *1598:C1 7.63883e-05
144 *471:18 *518:60 0.000328797
145 *474:22 *1598:C1 0
146 *478:8 *518:60 1.56632e-05
147 *493:25 *518:60 0
148 *493:45 *1598:C1 4.66108e-05
149 *493:45 *518:130 3.57349e-05
150 *497:43 *518:103 0.000249476
151 *497:43 *518:161 0.000705835
152 *501:28 *518:37 0
153 *501:65 *518:31 0
154 *501:89 *518:31 9.47972e-06
155 *501:160 *518:130 2.60986e-05
156 *517:60 *518:60 1.7635e-05
157 *517:98 *518:37 0.000374085
*RES
1 *2052:X *518:6 3.6 
2 *518:6 *518:12 3.995 
3 *518:12 *1743:B1 3.1 
4 *518:12 *518:31 20.72 
5 *518:31 *518:37 12.5 
6 *518:37 *1584:A 1.6 
7 *518:37 *518:60 26.395 
8 *518:60 *1638:A 1.6 
9 *518:60 *1633:A1 8.95 
10 *518:31 *518:80 12.14 
11 *518:80 *1863:A 1.6 
12 *518:80 *518:103 9.38717 
13 *518:103 *518:105 0.5 
14 *518:105 *1887:A2 4.5975 
15 *518:105 *518:120 7.0175 
16 *518:120 *518:130 10.225 
17 *518:130 *1598:C1 7.94 
18 *518:130 *1634:A1 1.6 
19 *518:120 *1590:A 3.1 
20 *518:103 *518:161 3.3348 
21 *518:161 *518:171 14.9525 
22 *518:171 *1880:A2 1.6 
23 *518:171 *518:180 3.045 
24 *518:180 *1896:C 11.825 
25 *518:180 *1879:B 1.6 
26 *518:161 *518:202 3.7025 
27 *518:202 *1885:A2 1.6 
28 *518:202 *1886:A2 3.79 
29 *518:6 *518:224 7.64 
30 *518:224 *1741:A 3.355 
31 *518:224 *1759:B2 3.445 
*END

*D_NET *519 0.0353459
*CONN
*I *1717:A I *D sky130_fd_sc_hd__nor2_1
*I *1590:B I *D sky130_fd_sc_hd__or2_4
*I *1598:A1 I *D sky130_fd_sc_hd__a211oi_2
*I *1585:A I *D sky130_fd_sc_hd__inv_2
*I *1925:A2 I *D sky130_fd_sc_hd__a31oi_1
*I *1926:B I *D sky130_fd_sc_hd__nand2_1
*I *1979:B I *D sky130_fd_sc_hd__nand2_1
*I *2025:B I *D sky130_fd_sc_hd__nand2_1
*I *1611:A I *D sky130_fd_sc_hd__nor2_1
*I *1612:A I *D sky130_fd_sc_hd__or2_1
*I *1840:A I *D sky130_fd_sc_hd__xnor2_1
*I *1773:C1 I *D sky130_fd_sc_hd__o211a_1
*I *1718:A I *D sky130_fd_sc_hd__and2_1
*I *1703:A I *D sky130_fd_sc_hd__and3_1
*I *1702:B1 I *D sky130_fd_sc_hd__a21oi_1
*I *1645:A I *D sky130_fd_sc_hd__nand2_1
*I *2053:X O *D sky130_fd_sc_hd__buf_4
*CAP
1 *1717:A 2.08101e-05
2 *1590:B 0.000116803
3 *1598:A1 0.000112102
4 *1585:A 0.000124975
5 *1925:A2 0
6 *1926:B 5.30573e-05
7 *1979:B 0.000854836
8 *2025:B 0.000192725
9 *1611:A 2.08101e-05
10 *1612:A 2.21949e-05
11 *1840:A 0.000879011
12 *1773:C1 0.000157325
13 *1718:A 6.55189e-05
14 *1703:A 3.18314e-05
15 *1702:B1 0.000198144
16 *1645:A 0.000139181
17 *2053:X 0
18 *519:255 0.000657611
19 *519:240 0.000627152
20 *519:202 0.00156434
21 *519:198 0.000912156
22 *519:186 0.00134993
23 *519:159 0.00164327
24 *519:142 0.00170352
25 *519:126 0.00129098
26 *519:122 0.000602472
27 *519:84 0.00130486
28 *519:71 0.00042063
29 *519:67 0.00146049
30 *519:52 0.00101948
31 *519:27 0.00116645
32 *519:6 0.00106311
33 *1598:A1 *562:34 5.12772e-05
34 *1702:B1 *1701:A 8.52845e-05
35 *1702:B1 *558:22 3.59356e-06
36 *1703:A *558:22 4.77719e-05
37 *1718:A *559:20 5.33085e-05
38 *1840:A *1773:A2 0.000100729
39 *1926:B *1926:A 4.66108e-05
40 *519:27 *559:32 0
41 *519:67 *559:20 0
42 *519:67 *559:32 0.000536502
43 *519:84 *559:20 0.000115326
44 *519:142 *1674:B1 0.000220452
45 *519:142 *523:14 8.53113e-06
46 *519:142 *523:31 0.000104671
47 *519:142 *538:28 6.97352e-05
48 *519:159 *538:28 9.27255e-06
49 *519:159 *562:34 4.94404e-05
50 *519:186 *1925:A1 4.82919e-05
51 *519:186 *2046:A 0
52 *519:186 *521:107 1.7396e-05
53 *519:186 *521:120 2.16389e-05
54 *519:186 *521:133 0.000229904
55 *519:198 *1926:A 0.000432899
56 *519:198 *521:107 0.000139933
57 *519:202 *1926:A 3.09164e-05
58 *519:202 *1980:B 7.06865e-05
59 *519:202 *1982:B1 0
60 *519:202 *521:51 0.000342935
61 *519:202 *523:143 0
62 *519:255 *1634:B1 4.35348e-05
63 *1590:A *1590:B 3.83041e-05
64 *1599:A *519:159 0.000147834
65 *1611:B *519:159 0.000201508
66 *1612:B *519:142 4.66108e-05
67 *1661:A *1612:A 0
68 *1661:A *519:142 0.000122325
69 *1663:A2 *519:27 5.93674e-05
70 *1663:A3 *519:27 0.000131408
71 *1680:A *519:27 1.01661e-05
72 *1680:B *519:27 2.60908e-05
73 *1691:A2 *519:27 6.9117e-05
74 *1699:B1 *519:27 0.00019637
75 *1701:B *1702:B1 8.64421e-05
76 *1703:B *1702:B1 3.2205e-05
77 *1703:B *519:27 1.94874e-05
78 *1703:B *519:52 3.79595e-05
79 *1703:C *1703:A 8.35068e-05
80 *1703:C *519:67 4.66108e-05
81 *1709:B1 *519:67 0.000155928
82 *1714:A *519:142 0
83 *1717:B *519:122 4.82919e-05
84 *1718:B *1718:A 2.05571e-05
85 *1720:A *519:142 6.47516e-05
86 *1721:A0 *1585:A 0.000157595
87 *1721:A0 *519:240 8.23457e-05
88 *1721:A1 *519:142 3.39064e-05
89 *1728:B1 *519:122 0.000109869
90 *1771:A1 *519:84 2.05641e-05
91 *1771:A2 *519:84 0.000183036
92 *1772:B1 *1840:A 0.000118081
93 *1773:A1 *1840:A 1.91597e-05
94 *1774:C1 *1585:A 0.000143655
95 *1775:B *519:71 4.35348e-05
96 *1775:B *519:122 0.000210362
97 *1776:B *519:122 4.43871e-06
98 *1777:A2 *519:84 7.8494e-06
99 *1780:B1 *1773:C1 0.000113572
100 *1781:C *1840:A 7.06865e-05
101 *1781:C *519:84 3.09164e-05
102 *1860:A2 *519:240 4.63191e-05
103 *1860:A2 *519:255 7.00889e-06
104 *1900:C *519:186 0.000309016
105 *1902:B *519:186 0.000387963
106 *1902:B *519:198 9.50342e-06
107 *1917:A2 *1585:A 0
108 *1917:A2 *519:142 5.59628e-05
109 *1925:B1 *519:186 8.40269e-05
110 *2016:B2 *519:186 0.000158066
111 *2018:A2 *519:186 3.79555e-05
112 *2021:A2 *519:186 2.34423e-05
113 *2024:A1 *1979:B 0
114 *2028:A *519:202 0
115 *2029:A *1979:B 0
116 *2029:B *519:202 5.57736e-05
117 *2044:A1 *1840:A 1.17409e-05
118 *38:27 *519:159 2.96334e-05
119 *38:27 *519:186 0.000180139
120 *41:10 *519:27 0.000137578
121 *43:24 *519:67 0
122 *46:34 *519:67 0
123 *46:49 *519:67 0
124 *49:24 *1702:B1 0
125 *81:12 *519:27 8.53113e-06
126 *81:12 *519:52 9.37731e-05
127 *82:10 *1702:B1 4.1652e-06
128 *82:10 *519:27 3.84519e-05
129 *82:14 *1702:B1 2.68464e-05
130 *92:93 *519:126 0.00025143
131 *92:93 *519:240 2.75229e-05
132 *97:8 *519:122 1.02348e-05
133 *97:23 *519:122 3.16057e-06
134 *97:48 *1718:A 0
135 *97:48 *519:67 3.97211e-05
136 *97:48 *519:84 0.000274332
137 *99:6 *519:122 6.07328e-05
138 *100:20 *519:71 4.99619e-05
139 *126:42 *1773:C1 2.10134e-05
140 *126:49 *1773:C1 1.83756e-05
141 *129:14 *1773:C1 6.69608e-06
142 *129:23 *1773:C1 2.68464e-05
143 *129:25 *519:84 7.46533e-05
144 *129:53 *1773:C1 0.000116165
145 *129:53 *1840:A 2.37321e-05
146 *129:53 *519:84 2.03578e-05
147 *219:18 *519:142 1.65192e-05
148 *219:30 *519:142 1.43805e-05
149 *219:57 *519:142 0
150 *219:70 *519:142 0
151 *257:12 *519:186 5.83121e-06
152 *273:101 *519:122 0
153 *283:22 *519:142 8.39517e-05
154 *283:38 *1702:B1 5.04585e-05
155 *283:38 *519:27 0.000152379
156 *283:91 *519:122 6.96106e-05
157 *337:18 *1590:B 3.12176e-05
158 *410:10 *519:186 6.13769e-05
159 *411:10 *519:186 9.30787e-05
160 *412:14 *1590:B 4.82919e-05
161 *451:10 *519:159 8.65961e-05
162 *471:78 *519:84 0.000107433
163 *479:10 *519:27 0
164 *479:14 *519:27 0
165 *484:10 *1645:A 8.65961e-05
166 *485:8 *1645:A 1.01661e-05
167 *485:8 *519:27 0.000150084
168 *490:12 *519:202 0
169 *490:25 *2025:B 5.59592e-05
170 *490:25 *519:202 0
171 *490:38 *519:202 0
172 *491:24 *519:159 0.00016063
173 *491:37 *519:159 0.000275553
174 *491:54 *519:159 0.000269521
175 *491:78 *519:198 7.07879e-05
176 *491:78 *519:202 0.000190889
177 *491:82 *519:202 0.00017584
178 *493:25 *519:142 0
179 *493:80 *519:142 0
180 *495:12 *1645:A 8.78735e-05
181 *496:18 *519:142 0.000236884
182 *501:28 *519:67 0.000229014
183 *501:79 *519:84 0.000114492
184 *501:160 *1598:A1 0.000328072
185 *510:31 *519:198 2.4997e-05
186 *510:31 *519:202 7.89767e-05
187 *510:72 *519:198 0.000173973
188 *510:98 *519:198 6.02926e-05
189 *510:121 *519:186 0.000328767
190 *512:16 *519:186 5.20968e-05
191 *512:54 *1585:A 9.50342e-06
192 *512:63 *1585:A 0.000159269
193 *513:23 *519:186 7.06865e-05
194 *513:40 *519:186 2.07184e-05
195 *516:55 *519:122 0.000132968
196 *516:55 *519:126 0.000577747
197 *516:55 *519:240 0.000255288
198 *516:55 *519:255 0.000688865
199 *517:48 *519:67 4.01019e-05
200 *517:86 *519:67 0.00070056
201 *518:130 *1590:B 0.000126224
202 *518:130 *1598:A1 0.000199727
*RES
1 *2053:X *519:6 3.6 
2 *519:6 *1645:A 6.54 
3 *519:6 *519:27 19.105 
4 *519:27 *1702:B1 10.705 
5 *519:27 *519:52 3.125 
6 *519:52 *1703:A 2.395 
7 *519:52 *519:67 25.66 
8 *519:67 *519:71 3.14 
9 *519:71 *1718:A 5.01 
10 *519:71 *519:84 8.265 
11 *519:84 *1773:C1 10.465 
12 *519:84 *1840:A 14.16 
13 *519:67 *519:122 11.29 
14 *519:122 *519:126 5.64 
15 *519:126 *519:142 20.4891 
16 *519:142 *1612:A 1.96 
17 *519:142 *519:159 14.305 
18 *519:159 *1611:A 1.96 
19 *519:159 *519:186 29.99 
20 *519:186 *519:198 14.07 
21 *519:198 *519:202 14.6 
22 *519:202 *2025:B 4.48 
23 *519:202 *1979:B 18.08 
24 *519:198 *1926:B 4.395 
25 *519:186 *1925:A2 1.6 
26 *519:126 *519:240 2.52 
27 *519:240 *1585:A 9.275 
28 *519:240 *519:255 9.09 
29 *519:255 *1598:A1 9.53 
30 *519:255 *1590:B 4.24 
31 *519:122 *1717:A 1.96 
*END

*D_NET *520 0.0210369
*CONN
*I *1839:A2 I *D sky130_fd_sc_hd__o21a_1
*I *1862:A2 I *D sky130_fd_sc_hd__o31a_1
*I *1724:A I *D sky130_fd_sc_hd__xnor2_2
*I *1596:A I *D sky130_fd_sc_hd__or2_1
*I *1595:A I *D sky130_fd_sc_hd__nor2_1
*I *1825:B1 I *D sky130_fd_sc_hd__a22o_1
*I *1823:A2 I *D sky130_fd_sc_hd__o22a_1
*I *1800:B I *D sky130_fd_sc_hd__or3_1
*I *1591:B1 I *D sky130_fd_sc_hd__a2111oi_1
*I *1592:A2 I *D sky130_fd_sc_hd__o41ai_4
*I *1821:B I *D sky130_fd_sc_hd__and2_1
*I *1873:B I *D sky130_fd_sc_hd__and3_1
*I *1594:A1 I *D sky130_fd_sc_hd__a211o_1
*I *1583:A I *D sky130_fd_sc_hd__inv_2
*I *1674:B1 I *D sky130_fd_sc_hd__a21o_1
*I *1675:A I *D sky130_fd_sc_hd__and3_1
*I *2054:X O *D sky130_fd_sc_hd__buf_4
*CAP
1 *1839:A2 0.000182421
2 *1862:A2 0
3 *1724:A 0.000335342
4 *1596:A 0.00017017
5 *1595:A 0
6 *1825:B1 7.91475e-05
7 *1823:A2 0.000268588
8 *1800:B 0
9 *1591:B1 2.08101e-05
10 *1592:A2 1.36534e-05
11 *1821:B 0.000166125
12 *1873:B 0.000726416
13 *1594:A1 6.34195e-05
14 *1583:A 0
15 *1674:B1 0.000293375
16 *1675:A 7.76373e-05
17 *2054:X 0.000162162
18 *520:192 0.000245881
19 *520:179 0.000619783
20 *520:162 0.000425286
21 *520:130 0.000336519
22 *520:126 0.000207951
23 *520:117 0.000311712
24 *520:102 0.000266629
25 *520:76 0.00109974
26 *520:65 0.000306596
27 *520:61 0.000531729
28 *520:51 0.000714159
29 *520:44 0.000310682
30 *520:16 0.000590269
31 *520:10 0.000348275
32 *520:8 0.000255993
33 *1592:A2 *1598:A2 4.66108e-05
34 *1592:A2 *2054:A 4.66108e-05
35 *1594:A1 *1597:B1_N 0.000155491
36 *1825:B1 *1825:A1 0.000332796
37 *1825:B1 *544:71 4.82863e-05
38 *1825:B1 *561:143 7.68414e-06
39 *1873:B *2046:A 4.82863e-05
40 *1873:B *2054:A 6.58339e-05
41 *1873:B *538:28 0.000133408
42 *520:44 *523:31 7.35813e-05
43 *520:51 *523:31 8.82557e-05
44 *520:61 *2054:A 1.91597e-05
45 *520:65 *1597:B1_N 7.06865e-05
46 *520:76 *1597:B1_N 4.82919e-05
47 *520:76 *1600:B1 4.99619e-05
48 *520:102 *1597:B1_N 7.30547e-05
49 *520:117 *1597:B1_N 0.000113797
50 *520:117 *1961:A3 0.00010946
51 *520:117 *523:56 0.000429627
52 *520:126 *1825:A1 0.000234685
53 *520:126 *523:56 3.66286e-05
54 *520:126 *561:143 7.67415e-06
55 *1582:A *1825:B1 0.000120655
56 *1582:A *520:126 4.66108e-05
57 *1589:B *1596:A 0.00049723
58 *1591:A2 *520:126 8.65961e-05
59 *1592:A1 *520:102 5.16418e-05
60 *1593:A_N *520:51 0.00016063
61 *1594:A2 *1594:A1 3.17194e-05
62 *1594:B1 *1594:A1 2.49909e-05
63 *1594:C1 *1594:A1 6.20248e-05
64 *1594:C1 *520:65 1.07797e-05
65 *1594:C1 *520:76 7.49327e-05
66 *1601:A2 *1873:B 0.000206817
67 *1677:B *1675:A 5.78206e-05
68 *1677:B *520:16 0.000218666
69 *1679:A2 *1675:A 1.61831e-05
70 *1720:B *1596:A 5.83121e-06
71 *1721:A0 *520:179 0.00016881
72 *1724:B *1724:A 0.000115762
73 *1774:C1 *520:179 0
74 *1774:C1 *520:192 1.32017e-05
75 *1800:C *520:126 9.80032e-06
76 *1821:A *1821:B 2.7919e-05
77 *1831:A *1839:A2 9.02259e-05
78 *1839:B1 *1839:A2 1.47256e-05
79 *1848:C *1821:B 0
80 *1860:A2 *520:179 0.000187409
81 *1862:B1 *1839:A2 5.2089e-05
82 *1862:B1 *520:192 3.24046e-05
83 *1873:C *1873:B 0.000133769
84 *2041:B1 *520:117 9.27495e-05
85 *2041:B1 *520:126 4.92062e-05
86 *38:27 *1674:B1 0.0001947
87 *52:23 *1675:A 0
88 *182:10 *1823:A2 7.02687e-05
89 *182:10 *520:130 8.7152e-06
90 *182:21 *1823:A2 0.000163304
91 *219:8 *520:8 0.000246223
92 *219:18 *520:10 0.000110087
93 *219:18 *520:16 2.42236e-05
94 *219:30 *1674:B1 0.000113871
95 *219:57 *520:10 3.25831e-05
96 *219:57 *520:162 0.000108322
97 *219:57 *520:179 2.30797e-05
98 *219:70 *1839:A2 4.65565e-05
99 *219:70 *520:179 0.000572525
100 *219:70 *520:192 9.61052e-05
101 *219:130 *520:8 6.58339e-05
102 *219:130 *520:61 0.000567476
103 *219:136 *520:65 9.14049e-05
104 *219:136 *520:102 2.07184e-05
105 *245:20 *520:179 4.24292e-06
106 *245:20 *520:192 5.21046e-05
107 *273:6 *520:44 0.000111901
108 *273:6 *520:51 2.05056e-05
109 *273:14 *520:16 7.06865e-05
110 *283:22 *1674:B1 0.000172746
111 *294:6 *520:8 4.99619e-05
112 *294:35 *520:8 0.0003711
113 *294:35 *520:61 0.000137571
114 *326:95 *520:179 0
115 *348:10 *520:117 0.000145326
116 *348:36 *520:117 5.73362e-05
117 *380:8 *520:51 0.000237243
118 *391:21 *1594:A1 2.4526e-05
119 *471:18 *1674:B1 1.56428e-05
120 *474:22 *520:61 7.63204e-05
121 *493:25 *1674:B1 0
122 *493:45 *1596:A 0.000443928
123 *497:47 *1873:B 0
124 *497:47 *520:130 7.40748e-05
125 *510:133 *1823:A2 0.0002247
126 *510:133 *1873:B 0.000605064
127 *510:133 *520:130 0.000153356
128 *512:6 *1873:B 2.36716e-05
129 *512:41 *1821:B 0.000196381
130 *512:54 *520:10 0.000208491
131 *512:54 *520:16 0.000114492
132 *512:63 *520:10 2.14129e-05
133 *512:63 *520:162 0.000114492
134 *512:63 *520:179 3.09233e-05
135 *512:113 *1825:B1 8.43862e-05
136 *518:80 *1724:A 0.000229171
137 *518:103 *1724:A 0.000157172
138 *519:142 *1674:B1 0.000220452
*RES
1 *2054:X *520:8 8.535 
2 *520:8 *520:10 2.655 
3 *520:10 *520:16 5.555 
4 *520:16 *1675:A 2.755 
5 *520:16 *1674:B1 12.17 
6 *520:10 *520:44 3.83 
7 *520:44 *1583:A 1.6 
8 *520:44 *520:51 5.28 
9 *520:51 *520:61 13.26 
10 *520:61 *520:65 3.125 
11 *520:65 *1594:A1 3.7 
12 *520:65 *520:76 3.21 
13 *520:76 *1873:B 20.3 
14 *520:76 *1821:B 4.735 
15 *520:61 *520:102 0.87 
16 *520:102 *1592:A2 4.05 
17 *520:102 *520:117 9.2 
18 *520:117 *1591:B1 1.96 
19 *520:117 *520:126 2.52 
20 *520:126 *520:130 3.89 
21 *520:130 *1800:B 3.6 
22 *520:130 *1823:A2 8.685 
23 *520:126 *1825:B1 4.81 
24 *520:51 *1595:A 1.6 
25 *520:8 *520:162 1.38 
26 *520:162 *1596:A 9.69 
27 *520:162 *520:179 7.44 
28 *520:179 *1724:A 9.585 
29 *520:179 *520:192 2.145 
30 *520:192 *1862:A2 3.6 
31 *520:192 *1839:A2 6.555 
*END

*D_NET *521 0.0170762
*CONN
*I *1981:B I *D sky130_fd_sc_hd__and3_1
*I *1874:A2 I *D sky130_fd_sc_hd__a21oi_1
*I *2054:A I *D sky130_fd_sc_hd__buf_4
*I *1900:B I *D sky130_fd_sc_hd__and3_1
*I *1872:B I *D sky130_fd_sc_hd__nand2_1
*I *1928:A2 I *D sky130_fd_sc_hd__a21oi_1
*I *1927:B I *D sky130_fd_sc_hd__and3_1
*I *1982:B1 I *D sky130_fd_sc_hd__a22oi_1
*I *1980:B I *D sky130_fd_sc_hd__nand2_1
*I *1627:A1 I *D sky130_fd_sc_hd__a31o_1
*I *1653:C1 I *D sky130_fd_sc_hd__o211ai_2
*I *1626:B1 I *D sky130_fd_sc_hd__a21o_1
*I *2055:X O *D sky130_fd_sc_hd__clkbuf_4
*CAP
1 *1981:B 4.00252e-05
2 *1874:A2 0
3 *2054:A 0.000889502
4 *1900:B 6.67864e-05
5 *1872:B 0.000340965
6 *1928:A2 0.000212439
7 *1927:B 0
8 *1982:B1 0.000315869
9 *1980:B 7.17792e-05
10 *1627:A1 2.59389e-05
11 *1653:C1 0.000588611
12 *1626:B1 0
13 *2055:X 0
14 *521:133 0.00116503
15 *521:120 0.000413861
16 *521:107 0.00087538
17 *521:87 0.000212439
18 *521:85 0.000490879
19 *521:81 0.000203232
20 *521:51 0.000548006
21 *521:47 0.000886627
22 *521:18 0.000775066
23 *521:12 0.000300078
24 *521:4 0.000678752
25 *1653:C1 *523:137 5.89445e-05
26 *1872:B *1872:A 4.0668e-05
27 *1900:B *561:31 3.1835e-05
28 *1980:B *1982:A1 2.30292e-05
29 *2054:A *1598:A2 0.000244275
30 *521:18 *2045:A 0
31 *521:47 *1607:A 2.8185e-05
32 *521:47 *562:28 7.5919e-05
33 *1592:A2 *2054:A 4.66108e-05
34 *1592:A3 *2054:A 0.000119762
35 *1607:B *521:47 0.000228863
36 *1621:B *1653:C1 0
37 *1624:A *521:12 0.000118978
38 *1624:B *521:18 4.9968e-05
39 *1627:B1 *1627:A1 3.26889e-05
40 *1627:B1 *521:18 0.000158072
41 *1628:A *1653:C1 2.15738e-05
42 *1628:A *521:12 4.94326e-05
43 *1628:A *521:18 9.3062e-06
44 *1629:A1 *1653:C1 4.49328e-05
45 *1636:B *521:12 0.00012657
46 *1636:B *521:47 0.000150653
47 *1637:A1 *521:47 4.99619e-05
48 *1649:A1 *1653:C1 4.92096e-05
49 *1649:B1 *1653:C1 1.17309e-05
50 *1649:C1 *1653:C1 1.08758e-05
51 *1650:B1 *1653:C1 4.11112e-05
52 *1873:B *2054:A 6.58339e-05
53 *1900:C *521:120 0.000116853
54 *1900:C *521:133 0.000801699
55 *1901:A2 *1872:B 9.79935e-05
56 *1902:A *2054:A 9.28188e-05
57 *1902:B *2054:A 0.000185411
58 *1902:B *521:107 2.23407e-05
59 *1902:B *521:120 9.15582e-05
60 *1902:B *521:133 0.000153658
61 *1925:B1 *1872:B 0.000192125
62 *1928:B1 *1928:A2 5.84537e-05
63 *1979:A *1928:A2 1.33293e-05
64 *1980:A *1980:B 0.000234674
65 *1981:C *1981:B 2.65814e-06
66 *1981:C *521:85 7.06865e-05
67 *1981:C *521:107 5.23362e-05
68 *1982:B2 *1980:B 0.000198945
69 *2017:D *521:133 1.79536e-05
70 *2021:A1 *521:133 0.000199045
71 *2024:B1_N *1982:B1 5.20968e-05
72 *2029:B *1980:B 4.9968e-05
73 *2029:B *1982:B1 0.000386221
74 *219:130 *2054:A 0.000622454
75 *294:35 *2054:A 9.2741e-05
76 *313:10 *521:107 3.86607e-05
77 *314:10 *521:107 3.90184e-05
78 *316:12 *521:107 0
79 *409:8 *521:133 9.21178e-05
80 *448:15 *1928:A2 5.83121e-06
81 *448:26 *1928:A2 1.91597e-05
82 *460:8 *1653:C1 0
83 *463:17 *1627:A1 5.4155e-06
84 *463:17 *521:18 1.34503e-05
85 *475:10 *1653:C1 4.43871e-06
86 *490:27 *1980:B 0
87 *490:27 *521:51 0
88 *490:38 *521:51 0
89 *491:78 *521:85 7.4027e-05
90 *491:78 *521:107 0.000540406
91 *493:45 *2054:A 0.000107003
92 *495:29 *521:107 0
93 *497:47 *2054:A 0.000373464
94 *510:19 *1653:C1 0
95 *510:44 *1928:A2 2.66586e-05
96 *510:209 *1653:C1 0
97 *513:65 *2054:A 0
98 *513:84 *2054:A 9.86611e-05
99 *519:186 *521:107 1.7396e-05
100 *519:186 *521:120 2.16389e-05
101 *519:186 *521:133 0.000229904
102 *519:198 *521:107 0.000139933
103 *519:202 *1980:B 7.06865e-05
104 *519:202 *1982:B1 0
105 *519:202 *521:51 0.000342935
106 *520:61 *2054:A 1.91597e-05
*RES
1 *2055:X *521:4 1.6 
2 *521:4 *521:12 6.265 
3 *521:12 *521:18 4.7 
4 *521:18 *1626:B1 3.6 
5 *521:18 *1653:C1 12.54 
6 *521:12 *1627:A1 2.215 
7 *521:4 *521:47 10.11 
8 *521:47 *521:51 5.93 
9 *521:51 *1980:B 6.645 
10 *521:51 *1982:B1 12.28 
11 *521:47 *521:81 1.845 
12 *521:81 *521:85 2.87 
13 *521:85 *521:87 2 
14 *521:87 *1927:B 1.6 
15 *521:87 *1928:A2 4.645 
16 *521:85 *521:107 10.44 
17 *521:107 *1872:B 8.115 
18 *521:107 *521:120 2.145 
19 *521:120 *1900:B 4.395 
20 *521:120 *521:133 11.795 
21 *521:133 *2054:A 27.26 
22 *521:133 *1874:A2 1.6 
23 *521:81 *1981:B 2.05 
*END

*D_NET *522 0.00746739
*CONN
*I *1588:A_N I *D sky130_fd_sc_hd__and3b_2
*I *1810:B I *D sky130_fd_sc_hd__or4b_4
*I *1814:B I *D sky130_fd_sc_hd__nor3_4
*I *1813:B I *D sky130_fd_sc_hd__nor3_1
*I *1815:C I *D sky130_fd_sc_hd__and4b_2
*I *1806:D I *D sky130_fd_sc_hd__and4b_2
*I *1809:C I *D sky130_fd_sc_hd__or4b_4
*I *1805:C1 I *D sky130_fd_sc_hd__o2111a_1
*I *1824:B_N I *D sky130_fd_sc_hd__and4bb_2
*I *1817:B_N I *D sky130_fd_sc_hd__and4bb_2
*I *1808:C_N I *D sky130_fd_sc_hd__or3b_4
*I *2071:X O *D sky130_fd_sc_hd__buf_2
*CAP
1 *1588:A_N 6.86839e-05
2 *1810:B 1.88763e-05
3 *1814:B 0
4 *1813:B 0
5 *1815:C 2.18567e-05
6 *1806:D 0.000114212
7 *1809:C 0.000212077
8 *1805:C1 0
9 *1824:B_N 4.42579e-05
10 *1817:B_N 0.000150428
11 *1808:C_N 0.000106885
12 *2071:X 0.000119376
13 *522:133 8.75602e-05
14 *522:101 0.00023266
15 *522:75 0.000256178
16 *522:49 0.000260161
17 *522:47 0.000227948
18 *522:39 0.000299368
19 *522:37 0.000378409
20 *522:29 0.000294003
21 *522:16 0.000275139
22 *522:10 0.00028763
23 *1806:D *523:95 0.000124895
24 *1588:B *1588:A_N 9.07793e-05
25 *1588:B *1810:B 3.66286e-05
26 *1805:A1 *522:37 0.000199833
27 *1805:A1 *522:39 0.000273878
28 *1805:A1 *522:47 4.82863e-05
29 *1805:A2 *522:39 0.000148084
30 *1805:A2 *522:47 8.65905e-05
31 *1805:A2 *522:101 0
32 *1805:D1 *1809:C 7.90106e-05
33 *1805:D1 *522:75 9.50342e-06
34 *1806:A_N *1806:D 6.69172e-05
35 *1806:A_N *1817:B_N 7.21296e-06
36 *1806:A_N *522:101 2.42236e-05
37 *1806:B *1806:D 4.82919e-05
38 *1806:C *1806:D 2.30292e-05
39 *1806:C *1817:B_N 0.000134141
40 *1806:C *522:49 8.53113e-06
41 *1808:B *1808:C_N 0.000187071
42 *1808:B *522:16 9.43205e-05
43 *1809:A *1809:C 0.00011584
44 *1810:D_N *1588:A_N 8.26164e-05
45 *1810:D_N *1810:B 8.34281e-06
46 *1813:A *1809:C 9.53428e-06
47 *1817:A_N *1817:B_N 0.000198939
48 *1819:A3 *522:37 8.65905e-05
49 *1824:D *1824:B_N 5.30673e-05
50 *1838:B *1809:C 6.02762e-05
51 *1838:B *522:47 0.000108031
52 *2000:B1 *1808:C_N 0.000185411
53 *2000:B1 *522:16 3.25831e-05
54 *2070:A *522:10 1.83756e-05
55 *2077:A *1809:C 0
56 *186:8 *1806:D 0
57 *189:19 *522:37 0.000290225
58 *191:63 *1809:C 9.37731e-05
59 *191:63 *1817:B_N 0
60 *191:63 *522:49 0
61 *191:63 *522:75 0
62 *192:85 *1808:C_N 4.66742e-05
63 *196:10 *522:16 1.34361e-05
64 *199:29 *1817:B_N 0.000115779
65 *230:10 *522:49 0.000103592
66 *230:10 *522:75 7.47215e-05
67 *315:23 *1810:B 4.99619e-05
68 *326:8 *522:16 0
69 *489:18 *1815:C 2.05056e-05
70 *489:18 *522:101 4.92096e-05
71 *489:20 *1815:C 2.75229e-05
72 *489:35 *1824:B_N 0.000124895
73 *491:128 *1806:D 3.53774e-05
74 *491:128 *1815:C 8.49205e-05
75 *491:128 *1824:B_N 0
76 *500:31 *522:101 4.32778e-05
77 *500:35 *1817:B_N 1.15688e-05
78 *500:55 *1824:B_N 2.75145e-05
79 *511:31 *1588:A_N 1.82667e-05
80 *511:52 *1810:B 4.82863e-05
81 *511:52 *522:16 6.97124e-05
82 *511:72 *1809:C 1.16283e-05
*RES
1 *2071:X *522:10 5.175 
2 *522:10 *522:16 2.955 
3 *522:16 *1808:C_N 6.54 
4 *522:16 *522:29 2 
5 *522:29 *522:37 6.105 
6 *522:37 *522:39 2.52 
7 *522:39 *522:47 4.295 
8 *522:47 *522:49 1.38 
9 *522:49 *1817:B_N 7.575 
10 *522:49 *1824:B_N 5.1 
11 *522:47 *522:75 2.87 
12 *522:75 *1805:C1 1.6 
13 *522:75 *1809:C 10.04 
14 *522:39 *522:101 4.145 
15 *522:101 *1806:D 6.375 
16 *522:101 *1815:C 4.395 
17 *522:37 *1813:B 1.6 
18 *522:29 *1814:B 1.6 
19 *522:10 *522:133 2 
20 *522:133 *1810:B 2.395 
21 *522:133 *1588:A_N 3.805 
*END

*D_NET *523 0.0264411
*CONN
*I *1657:A I *D sky130_fd_sc_hd__nand2_1
*I *1605:A I *D sky130_fd_sc_hd__or2_1
*I *1646:A I *D sky130_fd_sc_hd__nand2_1
*I *1608:A I *D sky130_fd_sc_hd__and2_1
*I *1607:A I *D sky130_fd_sc_hd__nor2_1
*I *2026:A I *D sky130_fd_sc_hd__nand2_1
*I *1982:A1 I *D sky130_fd_sc_hd__a22oi_1
*I *1593:B I *D sky130_fd_sc_hd__and2b_1
*I *1825:A1 I *D sky130_fd_sc_hd__a22o_1
*I *1818:A1 I *D sky130_fd_sc_hd__a32o_1
*I *1812:A1 I *D sky130_fd_sc_hd__o22a_1
*I *1811:A1 I *D sky130_fd_sc_hd__a22oi_1
*I *1800:A I *D sky130_fd_sc_hd__or3_1
*I *1591:A1 I *D sky130_fd_sc_hd__a2111oi_1
*I *1578:A I *D sky130_fd_sc_hd__clkinv_4
*I *1655:A I *D sky130_fd_sc_hd__nor2_1
*I *2056:X O *D sky130_fd_sc_hd__buf_4
*CAP
1 *1657:A 2.64702e-05
2 *1605:A 0
3 *1646:A 0.000192061
4 *1608:A 0
5 *1607:A 0.000158402
6 *2026:A 2.8889e-05
7 *1982:A1 0.000721982
8 *1593:B 4.32388e-05
9 *1825:A1 0.00043331
10 *1818:A1 0.000104588
11 *1812:A1 2.08101e-05
12 *1811:A1 0.000442742
13 *1800:A 5.98143e-05
14 *1591:A1 0
15 *1578:A 0
16 *1655:A 0.00025569
17 *2056:X 3.76499e-05
18 *523:191 0.000192061
19 *523:151 0.000831786
20 *523:149 0.000443237
21 *523:143 0.000545001
22 *523:137 0.00149388
23 *523:95 0.000355943
24 *523:80 0.00127318
25 *523:69 0.000742894
26 *523:60 0.000118698
27 *523:56 0.00118215
28 *523:35 0.000801932
29 *523:31 0.000528663
30 *523:14 0.00114147
31 *523:10 0.00189687
32 *523:6 0.000319233
33 *1607:A *562:28 4.82863e-05
34 *1655:A *1655:B 6.17765e-05
35 *1655:A *538:28 7.67415e-06
36 *1800:A *1801:A 0.000105508
37 *1825:A1 *544:53 9.53428e-06
38 *1825:A1 *544:71 2.16917e-05
39 *523:14 *1655:B 0.000285323
40 *523:14 *561:75 6.55328e-05
41 *523:56 *1634:A2 0.000417605
42 *523:56 *1961:A3 0.00027066
43 *523:56 *561:143 3.1562e-06
44 *523:60 *1591:C1 5.53249e-06
45 *523:69 *1591:C1 8.10758e-05
46 *523:80 *1591:C1 2.0458e-05
47 *523:80 *533:85 0.000285426
48 *523:80 *560:12 8.71079e-05
49 *523:80 *562:48 0
50 *523:149 *562:28 0
51 *1589:B *523:56 0.000457691
52 *1593:A_N *1593:B 7.49327e-05
53 *1593:A_N *523:31 4.99619e-05
54 *1598:C1 *523:56 1.19928e-05
55 *1605:B *1646:A 3.00381e-05
56 *1607:B *1607:A 0.000239807
57 *1608:B *523:143 4.82919e-05
58 *1623:B *523:149 0
59 *1623:C *523:143 6.48713e-05
60 *1623:C *523:149 7.18832e-05
61 *1648:A *523:137 0.000166515
62 *1649:B1 *523:137 0.000162311
63 *1649:C1 *523:137 0.000159169
64 *1651:B1 *523:10 0.000193795
65 *1653:C1 *523:137 5.89445e-05
66 *1661:A *1655:A 8.49205e-05
67 *1668:B *1655:A 1.37328e-05
68 *1669:A *1655:A 2.11084e-05
69 *1802:D *523:80 0
70 *1804:B *523:80 4.55239e-05
71 *1806:B *523:95 2.0514e-05
72 *1806:D *523:95 0.000124895
73 *1811:A2 *1811:A1 1.2818e-05
74 *1812:B1 *1812:A1 0
75 *1812:B2 *1811:A1 0.000153619
76 *1818:A3 *1818:A1 5.46217e-05
77 *1825:B1 *1825:A1 0.000332796
78 *1860:C1 *1800:A 0.000192125
79 *1889:A2 *523:35 8.97642e-05
80 *1889:A2 *523:56 0.000105995
81 *1891:B *523:80 0
82 *1917:A2 *523:14 1.14559e-05
83 *1917:A2 *523:31 3.18437e-05
84 *1917:A2 *523:35 0
85 *1917:A2 *523:56 0
86 *1980:A *1982:A1 9.80943e-06
87 *1980:B *1982:A1 2.30292e-05
88 *1982:A2 *1982:A1 6.90876e-05
89 *1982:B2 *1982:A1 0.000504484
90 *2026:B *1982:A1 8.53113e-06
91 *2026:B *523:151 0.000106987
92 *2027:A *1982:A1 0.000158965
93 *2027:B *1982:A1 0.000118513
94 *2027:B *2026:A 1.56428e-05
95 *2028:B *1982:A1 4.13171e-05
96 *2041:B1 *523:69 0.000151242
97 *2041:B1 *523:80 0.000732762
98 *31:6 *523:10 0.000148089
99 *31:6 *523:137 0.0001249
100 *35:14 *523:10 0.000155092
101 *39:6 *1657:A 1.47347e-05
102 *39:6 *523:6 3.45588e-05
103 *188:6 *1818:A1 8.88799e-05
104 *188:6 *523:95 2.75145e-05
105 *188:21 *1818:A1 9.95136e-05
106 *191:63 *523:80 0
107 *191:63 *523:95 0
108 *199:29 *1818:A1 0.000442886
109 *199:29 *523:95 0.000309612
110 *273:14 *523:14 0.000106784
111 *273:14 *523:31 0.000154722
112 *273:16 *523:14 0.000588359
113 *348:36 *523:60 1.53032e-05
114 *412:14 *523:56 0.000529948
115 *445:6 *523:137 1.31227e-05
116 *474:22 *523:137 0.000160635
117 *475:73 *523:14 0.000177655
118 *486:14 *1646:A 3.91768e-05
119 *486:14 *523:137 3.51986e-05
120 *490:27 *1982:A1 0
121 *490:27 *523:151 0
122 *490:38 *523:143 1.52184e-05
123 *490:38 *523:149 0
124 *490:49 *523:143 0.000103974
125 *490:60 *523:137 4.84393e-05
126 *490:60 *523:143 0.000173973
127 *490:89 *523:60 2.7881e-05
128 *490:89 *523:69 1.20524e-05
129 *491:128 *523:80 0
130 *491:128 *523:95 0
131 *493:25 *523:10 0.000237249
132 *510:31 *523:143 0
133 *510:72 *523:137 0
134 *510:72 *523:143 0
135 *510:76 *1646:A 2.05056e-05
136 *510:98 *523:137 0
137 *512:54 *523:31 0.00018305
138 *512:127 *523:80 5.3023e-05
139 *512:153 *523:80 8.61265e-05
140 *518:130 *523:56 1.34594e-05
141 *519:142 *523:14 8.53113e-06
142 *519:142 *523:31 0.000104671
143 *519:202 *523:143 0
144 *520:44 *523:31 7.35813e-05
145 *520:51 *523:31 8.82557e-05
146 *520:117 *523:56 0.000429627
147 *520:126 *1825:A1 0.000234685
148 *520:126 *523:56 3.66286e-05
149 *521:47 *1607:A 2.8185e-05
*RES
1 *2056:X *523:6 2.395 
2 *523:6 *523:10 6.675 
3 *523:10 *523:14 16.64 
4 *523:14 *1655:A 7.08 
5 *523:14 *523:31 10.835 
6 *523:31 *523:35 3.89 
7 *523:35 *1578:A 3.6 
8 *523:35 *523:56 22.47 
9 *523:56 *523:60 2.615 
10 *523:60 *1591:A1 3.6 
11 *523:60 *523:69 2.145 
12 *523:69 *1800:A 5.43 
13 *523:69 *523:80 14.13 
14 *523:80 *1811:A1 9.915 
15 *523:80 *523:95 7.265 
16 *523:95 *1812:A1 1.96 
17 *523:95 *1818:A1 5.86 
18 *523:56 *1825:A1 7.585 
19 *523:31 *1593:B 2.395 
20 *523:10 *523:137 17.84 
21 *523:137 *523:143 9.11 
22 *523:143 *523:149 5.54 
23 *523:149 *523:151 1.635 
24 *523:151 *1982:A1 14.565 
25 *523:151 *2026:A 4.05 
26 *523:149 *1607:A 6.825 
27 *523:143 *1608:A 1.6 
28 *523:137 *523:191 2 
29 *523:191 *1646:A 4.405 
30 *523:191 *1605:A 1.6 
31 *523:6 *1657:A 2.41 
*END

*D_NET *524 0.00683909
*CONN
*I *1837:A2 I *D sky130_fd_sc_hd__a22o_1
*I *1780:A2 I *D sky130_fd_sc_hd__o211a_1
*I *1773:A2 I *D sky130_fd_sc_hd__o211a_1
*I *1774:A2 I *D sky130_fd_sc_hd__o211a_1
*I *1779:A1 I *D sky130_fd_sc_hd__a211o_1
*I *1778:B I *D sky130_fd_sc_hd__nor2_1
*I *2044:Y O *D sky130_fd_sc_hd__a21oi_2
*CAP
1 *1837:A2 0.000902221
2 *1780:A2 0.00023995
3 *1773:A2 0.000116455
4 *1774:A2 6.79627e-05
5 *1779:A1 1.8905e-05
6 *1778:B 1.64693e-05
7 *2044:Y 0
8 *524:36 0.000254049
9 *524:25 0.000210927
10 *524:10 0.000170267
11 *524:8 0.000291281
12 *524:4 0.000922143
13 *1837:A2 *1788:C1 0
14 *1740:A *1780:A2 0
15 *1772:B1 *1773:A2 2.81762e-05
16 *1773:A1 *1773:A2 0.000163845
17 *1773:B1 *1773:A2 1.85674e-05
18 *1774:B1 *1774:A2 9.50342e-06
19 *1778:A *1779:A1 4.82863e-05
20 *1778:A *524:25 8.34281e-06
21 *1779:B1 *524:25 0.000115035
22 *1781:A *1780:A2 3.09179e-05
23 *1784:A *1837:A2 0
24 *1784:B *1837:A2 4.66826e-05
25 *1785:A1 *1837:A2 0
26 *1788:A1 *1837:A2 0
27 *1791:B1 *524:36 3.9442e-05
28 *1799:B1 *1837:A2 9.50342e-06
29 *1832:A *1837:A2 5.16418e-05
30 *1840:A *1773:A2 0.000100729
31 *1843:A *1837:A2 0
32 *2044:A1 *1773:A2 0.000459372
33 *2044:A1 *524:36 0.000160658
34 *2044:A2 *1774:A2 7.25036e-05
35 *2044:A2 *1780:A2 4.66826e-05
36 *2044:A2 *524:36 3.60566e-05
37 *2044:B1 *1837:A2 2.75229e-05
38 *2044:B1 *524:8 5.83121e-06
39 *162:6 *1780:A2 0.000124895
40 *219:85 *1837:A2 0
41 *221:12 *1837:A2 3.09233e-05
42 *223:12 *1837:A2 0
43 *224:16 *1837:A2 0
44 *283:91 *1774:A2 9.76522e-05
45 *283:91 *1778:B 9.50342e-06
46 *283:91 *524:36 1.07797e-05
47 *283:106 *1778:B 5.16348e-05
48 *283:106 *1780:A2 0.000755465
49 *283:106 *524:10 8.45475e-05
50 *326:95 *1837:A2 0.000246599
51 *497:31 *1780:A2 0.000125632
52 *497:31 *1837:A2 0.000334472
53 *497:31 *524:8 4.66108e-05
54 *501:12 *1837:A2 0
55 *501:18 *1780:A2 2.14129e-05
56 *501:22 *1778:B 5.16348e-05
57 *501:22 *1780:A2 5.4003e-05
58 *501:22 *524:10 9.14049e-05
59 *513:111 *1837:A2 1.19928e-05
*RES
1 *2044:Y *524:4 1.6 
2 *524:4 *524:8 2.45 
3 *524:8 *524:10 1.125 
4 *524:10 *1778:B 4.215 
5 *524:10 *524:25 3.755 
6 *524:25 *1779:A1 2.05 
7 *524:25 *524:36 4.145 
8 *524:36 *1774:A2 5.745 
9 *524:36 *1773:A2 8.32125 
10 *524:8 *1780:A2 11.745 
11 *524:4 *1837:A2 22.25 
*END

*D_NET *525 0.00180608
*CONN
*I *1600:A1 I *D sky130_fd_sc_hd__a21oi_1
*I *1634:A2 I *D sky130_fd_sc_hd__a21o_1
*I *2095:X O *D sky130_fd_sc_hd__dlygate4sd1_1
*CAP
1 *1600:A1 0.000203327
2 *1634:A2 0.000176134
3 *2095:X 0
4 *525:4 0.00037946
5 *1600:A1 *1600:B1 7.89689e-05
6 *1634:A2 *1598:B1 0.000229541
7 *2095:A *1600:A1 4.9253e-06
8 *2116:A *1634:A2 4.66108e-05
9 *490:89 *1600:A1 0.000139245
10 *493:45 *1600:A1 4.72251e-05
11 *493:45 *1634:A2 6.1357e-05
12 *518:130 *1634:A2 2.16833e-05
13 *523:56 *1634:A2 0.000417605
*RES
1 *2095:X *525:4 1.6 
2 *525:4 *1634:A2 6.82 
3 *525:4 *1600:A1 9.065 
*END

*D_NET *526 0.00160486
*CONN
*I *1801:A I *D sky130_fd_sc_hd__or2_1
*I *1591:C1 I *D sky130_fd_sc_hd__a2111oi_1
*I *2106:X O *D sky130_fd_sc_hd__dlygate4sd1_1
*CAP
1 *1801:A 0.000306519
2 *1591:C1 0.000170101
3 *2106:X 9.2105e-05
4 *526:8 0.000568724
5 *1591:C1 *1961:A3 0
6 *1591:C1 *562:48 2.0851e-06
7 *1801:A *544:71 5.83121e-06
8 *526:8 *562:48 0
9 *1800:A *1801:A 0.000105508
10 *1801:B *1801:A 8.23457e-05
11 *1860:C1 *1801:A 6.66729e-05
12 *1860:C1 *526:8 1.13241e-05
13 *2094:A *526:8 3.72916e-05
14 *348:36 *1591:C1 4.92861e-05
15 *523:60 *1591:C1 5.53249e-06
16 *523:69 *1591:C1 8.10758e-05
17 *523:80 *1591:C1 2.0458e-05
*RES
1 *2106:X *526:8 3.1 
2 *526:8 *1591:C1 8.255 
3 *526:8 *1801:A 6.19 
*END

*D_NET *527 0.000735749
*CONN
*I *1634:B1 I *D sky130_fd_sc_hd__a21o_1
*I *2112:X O *D sky130_fd_sc_hd__dlygate4sd1_1
*CAP
1 *1634:B1 0.000222352
2 *2112:X 0.000222352
3 *1589:B *1634:B1 0.000112123
4 *1961:A2 *1634:B1 1.26548e-05
5 *474:22 *1634:B1 2.97004e-06
6 *491:16 *1634:B1 0
7 *516:55 *1634:B1 0.000119762
8 *519:255 *1634:B1 4.35348e-05
*RES
1 *2112:X *1634:B1 10.665 
*END

*D_NET *528 0.00162821
*CONN
*I *2114:A I *D sky130_fd_sc_hd__dlygate4sd1_1
*I *1630:A2 I *D sky130_fd_sc_hd__a21o_1
*I *2113:X O *D sky130_fd_sc_hd__dlymetal6s2s_1
*CAP
1 *2114:A 8.13685e-05
2 *1630:A2 0.000122734
3 *2113:X 1.54629e-05
4 *528:6 0.000219565
5 *2114:A *562:34 8.78813e-05
6 *2113:A *1630:A2 4.66108e-05
7 *38:27 *1630:A2 0.00049767
8 *38:27 *528:6 8.49205e-05
9 *423:20 *1630:A2 0.00027073
10 *423:20 *528:6 7.49327e-05
11 *501:160 *2114:A 9.88182e-05
12 *512:41 *2114:A 2.75145e-05
*RES
1 *2113:X *528:6 2.395 
2 *528:6 *1630:A2 6.55 
3 *528:6 *2114:A 7.94 
*END

*D_NET *529 0.00353694
*CONN
*I *1961:A3 I *D sky130_fd_sc_hd__a31o_1
*I *2114:X O *D sky130_fd_sc_hd__dlygate4sd1_1
*CAP
1 *1961:A3 0.000690232
2 *2114:X 0.000690232
3 *1961:A3 *1803:C 5.29474e-05
4 *1961:A3 *561:143 9.46729e-05
5 *1961:A3 *561:164 0.000129148
6 *1961:A3 *562:48 0.000257639
7 *1591:C1 *1961:A3 0
8 *1592:A1 *1961:A3 4.31106e-05
9 *1594:B1 *1961:A3 0.000241171
10 *1858:A1 *1961:A3 0.000167089
11 *219:136 *1961:A3 0.000261889
12 *337:10 *1961:A3 1.23244e-05
13 *337:18 *1961:A3 0.000158297
14 *337:20 *1961:A3 0.000114492
15 *348:36 *1961:A3 0
16 *412:14 *1961:A3 1.07797e-05
17 *423:12 *1961:A3 2.66935e-05
18 *512:41 *1961:A3 8.8266e-05
19 *518:120 *1961:A3 0.000117838
20 *520:117 *1961:A3 0.00010946
21 *523:56 *1961:A3 0.00027066
*RES
1 *2114:X *1961:A3 25.695 
*END

*D_NET *530 0.000772546
*CONN
*I *1696:A1 I *D sky130_fd_sc_hd__a21o_1
*I *1695:A1 I *D sky130_fd_sc_hd__a21oi_1
*I *2115:X O *D sky130_fd_sc_hd__buf_1
*CAP
1 *1696:A1 0
2 *1695:A1 0.00011073
3 *2115:X 0.000100917
4 *530:12 0.000211647
5 *1694:C *530:12 6.23375e-05
6 *1695:B1 *1695:A1 8.43946e-05
7 *1696:B1 *1695:A1 1.93182e-05
8 *1707:A1 *1695:A1 4.99619e-05
9 *1735:A0 *530:12 6.4422e-05
10 *74:8 *530:12 3.00381e-05
11 *283:40 *1695:A1 3.87788e-05
*RES
1 *2115:X *530:12 7.94 
2 *530:12 *1695:A1 3.775 
3 *530:12 *1696:A1 1.6 
*END

*D_NET *531 0.000912447
*CONN
*I *1598:B1 I *D sky130_fd_sc_hd__a211oi_2
*I *2116:X O *D sky130_fd_sc_hd__dlymetal6s2s_1
*CAP
1 *1598:B1 0.000142867
2 *2116:X 0.000142867
3 *1634:A2 *1598:B1 0.000229541
4 *1961:A2 *1598:B1 2.34423e-05
5 *434:10 *1598:B1 2.50049e-05
6 *493:45 *1598:B1 7.06865e-05
7 *501:160 *1598:B1 0.000159957
8 *518:130 *1598:B1 0.000118081
*RES
1 *2116:X *1598:B1 11.265 
*END

*D_NET *532 0.0142508
*CONN
*I *1794:A1 I *D sky130_fd_sc_hd__a21oi_1
*I *1964:A I *D sky130_fd_sc_hd__xor2_1
*I *2008:A1 I *D sky130_fd_sc_hd__a21o_1
*I *2085:A I *D sky130_fd_sc_hd__dlymetal6s2s_1
*I *2117:X O *D sky130_fd_sc_hd__dlygate4sd1_1
*CAP
1 *1794:A1 0
2 *1964:A 0.000225911
3 *2008:A1 0
4 *2085:A 0
5 *2117:X 0.000354704
6 *532:35 0.000504254
7 *532:24 0.0044195
8 *532:14 0.00449586
9 *532:14 *1757:A 9.91257e-05
10 *532:24 *1834:A 0.000362475
11 *532:35 *534:10 0.0001249
12 *1755:B1 *532:24 0.000311291
13 *1757:B *532:14 0.000360488
14 *1758:C *532:14 0.000313852
15 *1794:B1 *532:14 6.32485e-05
16 *1795:B1 *532:14 5.53549e-06
17 *1799:B1 *532:24 0.000975117
18 *1834:B *532:24 0.000190379
19 *1964:B *1964:A 9.78429e-05
20 *1964:B *532:35 4.41021e-05
21 *2007:B *532:24 0
22 *2009:A *532:35 5.05437e-05
23 *2009:B *532:35 0.000165698
24 *135:10 *532:14 0
25 *315:23 *532:24 0.000130536
26 *501:16 *532:24 0
27 *501:191 *532:24 0.000820392
28 *501:217 *532:24 0
29 *511:60 *532:24 0.000135083
*RES
1 *2117:X *532:14 11.7975 
2 *532:14 *532:24 11.7192 
3 *532:24 *2085:A 1.6 
4 *532:24 *532:35 5.655 
5 *532:35 *2008:A1 1.6 
6 *532:35 *1964:A 4.735 
7 *532:14 *1794:A1 3.6 
*END

*D_NET *533 0.0177751
*CONN
*I *2048:A I *D sky130_fd_sc_hd__clkbuf_4
*I *1803:A I *D sky130_fd_sc_hd__or4_1
*I *1796:B I *D sky130_fd_sc_hd__nor2_1
*I *1788:C1 I *D sky130_fd_sc_hd__o211a_1
*I *1786:B I *D sky130_fd_sc_hd__and2_1
*I *1829:B2 I *D sky130_fd_sc_hd__a32o_1
*I *2072:X O *D sky130_fd_sc_hd__clkbuf_2
*CAP
1 *2048:A 0
2 *1803:A 0
3 *1796:B 1.04051e-05
4 *1788:C1 6.20546e-05
5 *1786:B 7.14747e-05
6 *1829:B2 0.000121451
7 *2072:X 0.000496758
8 *533:87 0.000199525
9 *533:85 0.00158043
10 *533:59 0.00212009
11 *533:26 0.00258987
12 *533:12 0.00234912
13 *1829:B2 *561:143 6.66464e-06
14 *533:12 *544:14 0
15 *533:26 *544:14 0.000275548
16 *533:26 *544:34 0.000859223
17 *533:26 *545:10 3.07153e-05
18 *533:26 *560:40 0
19 *533:26 *561:143 1.69467e-05
20 *533:59 *1859:A1 1.88602e-05
21 *1788:B1 *1788:C1 6.71803e-06
22 *1796:A *1786:B 4.66108e-05
23 *1796:A *533:87 4.82919e-05
24 *1797:D1 *1786:B 1.17309e-05
25 *1797:D1 *533:85 4.05674e-06
26 *1797:D1 *533:87 2.20732e-05
27 *1802:D *533:59 8.53113e-06
28 *1803:B *533:59 4.24292e-06
29 *1817:C *533:85 3.99287e-05
30 *1823:B1 *533:59 0.000419398
31 *1828:A2 *533:59 0.000600647
32 *1829:A1 *1829:B2 4.35752e-06
33 *1829:B1 *1829:B2 4.40113e-05
34 *1831:A *533:85 8.23457e-05
35 *1832:A *1788:C1 4.57897e-05
36 *1837:A2 *1788:C1 0
37 *1857:B1 *533:59 0.000460425
38 *1858:B1 *533:85 1.03755e-05
39 *1859:A2 *1829:B2 0.000125382
40 *1859:B2 *533:26 1.12643e-05
41 *1859:C1 *533:26 5.05828e-05
42 *1860:C1 *1829:B2 7.79048e-05
43 *1861:A1 *533:85 0.000191226
44 *1861:A2 *533:85 4.99619e-05
45 *1861:B1 *533:85 4.66108e-05
46 *1879:A *533:26 0
47 *1888:B1 *533:26 8.23947e-05
48 *1888:B2 *533:26 1.35051e-05
49 *1891:A *533:59 0
50 *1891:A *533:85 9.14314e-05
51 *1891:B *533:85 4.13171e-05
52 *1892:A *533:85 5.69248e-06
53 *1893:A *533:59 0.000118081
54 *1893:A *533:85 2.16833e-05
55 *1906:B *533:26 0
56 *1914:B *533:26 2.89767e-05
57 *1937:A *533:26 0
58 *1937:B *533:26 0
59 *1961:B1 *533:59 0.000281621
60 *2041:B1 *533:59 1.91597e-05
61 *2080:A *533:85 0
62 *188:40 *533:59 3.57349e-05
63 *190:31 *533:59 0
64 *190:35 *533:59 0
65 *191:14 *533:85 0.00010293
66 *191:24 *533:85 4.08514e-05
67 *191:63 *533:85 0.000182454
68 *196:51 *533:26 0.000115892
69 *197:22 *533:59 0.000118081
70 *199:63 *533:26 0.000111141
71 *205:10 *533:85 0.000127842
72 *219:100 *1788:C1 0.000124356
73 *265:12 *533:26 0.000277029
74 *291:12 *533:26 0
75 *295:12 *533:26 0
76 *323:8 *533:12 0.000103185
77 *323:8 *533:26 0
78 *326:28 *533:59 0.00017824
79 *326:95 *533:85 0.000462829
80 *490:89 *533:59 0.000224918
81 *491:128 *533:85 0.000498564
82 *510:133 *533:59 8.25609e-05
83 *510:165 *533:59 0
84 *511:72 *533:85 0
85 *512:153 *533:85 5.53249e-06
86 *512:176 *533:85 1.26548e-05
87 *513:103 *533:85 0.000312182
88 *513:218 *533:26 0.000284031
89 *514:8 *533:26 0.000163204
90 *514:64 *533:26 0
91 *523:80 *533:85 0.000285426
*RES
1 *2072:X *533:12 13.025 
2 *533:12 *533:26 40.795 
3 *533:26 *1829:B2 4.42 
4 *533:26 *533:59 25.85 
5 *533:59 *533:85 37.265 
6 *533:85 *533:87 1.14 
7 *533:87 *1786:B 2.755 
8 *533:87 *1788:C1 7.235 
9 *533:85 *1796:B 1.96 
10 *533:59 *1803:A 1.6 
11 *533:12 *2048:A 1.6 
*END

*D_NET *534 0.00246355
*CONN
*I *2000:A2 I *D sky130_fd_sc_hd__a21oi_1
*I *2001:A2 I *D sky130_fd_sc_hd__o22a_1
*I *2002:A2 I *D sky130_fd_sc_hd__a32o_1
*I *2085:X O *D sky130_fd_sc_hd__dlymetal6s2s_1
*CAP
1 *2000:A2 0
2 *2001:A2 0
3 *2002:A2 0.000262755
4 *2085:X 0.000252371
5 *534:16 0.000436648
6 *534:10 0.000426264
7 *2001:A1 *534:16 4.66108e-05
8 *2001:B1 *534:16 4.99619e-05
9 *2001:B2 *534:16 6.55406e-05
10 *2002:A3 *2002:A2 1.10717e-05
11 *2002:B1 *2002:A2 6.67659e-05
12 *2005:B1 *2002:A2 0.000224814
13 *2009:A *534:10 6.20088e-05
14 *2009:A *534:16 0
15 *2009:B *534:16 0
16 *191:89 *2002:A2 0
17 *192:85 *534:16 3.77036e-05
18 *491:185 *2002:A2 0.000330895
19 *491:198 *2002:A2 2.92496e-05
20 *491:198 *534:16 2.03321e-05
21 *492:14 *534:10 1.56615e-05
22 *492:27 *534:10 0
23 *492:27 *534:16 0
24 *532:35 *534:10 0.0001249
*RES
1 *2085:X *534:10 8.265 
2 *534:10 *534:16 5.63 
3 *534:16 *2002:A2 11.975 
4 *534:16 *2001:A2 1.6 
5 *534:10 *2000:A2 3.6 
*END

*D_NET *535 0.000681516
*CONN
*I *1757:A I *D sky130_fd_sc_hd__xor2_1
*I *2086:X O *D sky130_fd_sc_hd__dlygate4sd1_1
*CAP
1 *1757:A 0.000222433
2 *2086:X 0.000222433
3 *2086:A *1757:A 5.09337e-05
4 *515:74 *1757:A 8.65905e-05
5 *532:14 *1757:A 9.91257e-05
*RES
1 *2086:X *1757:A 7.715 
*END

*D_NET *536 0.000399271
*CONN
*I *1732:A I *D sky130_fd_sc_hd__xnor2_1
*I *2087:X O *D sky130_fd_sc_hd__dlygate4sd1_1
*CAP
1 *1732:A 0.000140379
2 *2087:X 0.000140379
3 *517:20 *1732:A 0.000118513
*RES
1 *2087:X *1732:A 9.375 
*END

*D_NET *537 0.00435858
*CONN
*I *2089:A I *D sky130_fd_sc_hd__dlygate4sd1_1
*I *1667:C I *D sky130_fd_sc_hd__or4_4
*I *1666:C I *D sky130_fd_sc_hd__nor4_2
*I *1710:B1 I *D sky130_fd_sc_hd__a311oi_4
*I *2088:X O *D sky130_fd_sc_hd__dlygate4sd1_1
*CAP
1 *2089:A 0.000146468
2 *1667:C 0
3 *1666:C 2.32206e-05
4 *1710:B1 1.19676e-05
5 *2088:X 0.000166341
6 *537:46 0.000272374
7 *537:37 0.000608479
8 *537:8 0.00063766
9 *2089:A *1667:A 4.82919e-05
10 *537:8 *549:16 0
11 *537:8 *559:20 0.000240055
12 *537:8 *559:32 0
13 *1665:B *537:37 0.00024856
14 *1665:C *537:37 1.88224e-05
15 *1666:B *537:46 2.75145e-05
16 *1667:B *2089:A 6.74384e-05
17 *1667:B *537:46 0.000179793
18 *1667:D *1666:C 9.53428e-06
19 *1667:D *537:37 7.68414e-06
20 *1667:D *537:46 8.87273e-05
21 *1686:B *537:37 8.53592e-05
22 *1686:C *1710:B1 4.77757e-05
23 *1709:A2 *537:8 5.2584e-05
24 *1709:A2 *537:37 3.76596e-05
25 *43:24 *2089:A 0.00013882
26 *43:24 *537:46 1.60083e-05
27 *47:8 *1666:C 5.58436e-05
28 *47:8 *537:37 0.000124895
29 *48:10 *537:46 7.67415e-06
30 *67:12 *537:37 0.000332802
31 *67:18 *537:37 0.000118791
32 *67:35 *537:8 0.000450093
33 *67:35 *537:37 2.1939e-05
34 *92:18 *1710:B1 4.66108e-05
35 *471:39 *537:37 1.41634e-05
36 *517:48 *537:37 4.63627e-06
*RES
1 *2088:X *537:8 9.06 
2 *537:8 *1710:B1 4.05 
3 *537:8 *537:37 12.59 
4 *537:37 *1666:C 2.215 
5 *537:37 *537:46 3.0375 
6 *537:46 *1667:C 1.6 
7 *537:46 *2089:A 4.6525 
*END

*D_NET *538 0.0108403
*CONN
*I *2016:B1 I *D sky130_fd_sc_hd__a22o_1
*I *1971:C1 I *D sky130_fd_sc_hd__o211a_1
*I *1972:A2 I *D sky130_fd_sc_hd__a211oi_1
*I *2089:X O *D sky130_fd_sc_hd__dlygate4sd1_1
*CAP
1 *2016:B1 2.89988e-05
2 *1971:C1 0
3 *1972:A2 0.000118396
4 *2089:X 0.00146887
5 *538:38 0.00196652
6 *538:28 0.00334599
7 *538:28 *1655:B 0.000307049
8 *538:28 *557:12 8.19982e-05
9 *538:38 *2099:A 0.000201502
10 *1599:A *538:28 0.000150395
11 *1612:B *538:28 1.83847e-05
12 *1631:B1 *538:28 4.82863e-05
13 *1655:A *538:28 7.67415e-06
14 *1661:A *538:28 1.47347e-05
15 *1661:B *538:28 1.91597e-05
16 *1668:B *538:28 3.37859e-05
17 *1669:A *538:28 0.000232105
18 *1682:A1 *538:28 0.000142051
19 *1682:A2 *538:28 0
20 *1873:B *538:28 0.000133408
21 *1919:A *538:38 9.26713e-05
22 *1971:A2 *1972:A2 6.4422e-05
23 *1971:A2 *538:38 4.18603e-06
24 *1971:B1 *538:38 7.10578e-05
25 *1972:A1 *1972:A2 7.41193e-05
26 *1972:A1 *538:38 1.73877e-05
27 *2016:B2 *538:28 8.53722e-05
28 *2016:B2 *538:38 2.98807e-05
29 *2020:A *538:38 0.000153816
30 *2020:D *538:38 0.000138566
31 *2022:B *538:38 0.00019637
32 *2023:B *538:38 9.46525e-06
33 *49:42 *538:28 3.87203e-05
34 *309:10 *1972:A2 0.00012657
35 *323:8 *538:38 0
36 *413:6 *538:38 8.40213e-05
37 *439:10 *538:28 0.000323776
38 *456:10 *538:28 8.49205e-05
39 *491:24 *538:28 6.27347e-05
40 *491:37 *538:28 0.000103471
41 *491:54 *538:28 0.000153814
42 *496:72 *1972:A2 0
43 *497:47 *538:28 0.00031181
44 *497:47 *538:38 0.000155948
45 *501:160 *2016:B1 4.66108e-05
46 *510:133 *538:28 0
47 *510:133 *538:38 0
48 *514:10 *538:38 1.22676e-05
49 *519:142 *538:28 6.97352e-05
50 *519:159 *538:28 9.27255e-06
*RES
1 *2089:X *538:28 36.67 
2 *538:28 *538:38 26.875 
3 *538:38 *1972:A2 6.63 
4 *538:38 *1971:C1 3.6 
5 *538:28 *2016:B1 4.05 
*END

*D_NET *539 0.00256916
*CONN
*I *1614:A2 I *D sky130_fd_sc_hd__a211o_1
*I *1615:A2 I *D sky130_fd_sc_hd__a21o_1
*I *2090:X O *D sky130_fd_sc_hd__clkbuf_1
*CAP
1 *1614:A2 0.000102237
2 *1615:A2 0.000468336
3 *2090:X 0.000122017
4 *539:10 0.000692589
5 *1614:A2 *562:28 2.73083e-05
6 *1614:A2 *562:34 4.09245e-05
7 *1613:C1 *1614:A2 0.00017734
8 *1614:A1 *1614:A2 1.71207e-05
9 *1615:B1 *1615:A2 0.000246972
10 *1617:A1 *1615:A2 4.66108e-05
11 *2017:D *1615:A2 4.43682e-05
12 *273:66 *1614:A2 3.09233e-05
13 *413:6 *539:10 0.000119756
14 *449:12 *1614:A2 4.43871e-06
15 *449:12 *539:10 3.67779e-05
16 *449:33 *1614:A2 2.07184e-05
17 *449:33 *1615:A2 0.00027583
18 *449:33 *539:10 7.06865e-05
19 *501:160 *1615:A2 2.42043e-05
*RES
1 *2090:X *539:10 5.61 
2 *539:10 *1615:A2 10.995 
3 *539:10 *1614:A2 6.255 
*END

*D_NET *540 0.00217177
*CONN
*I *2092:A I *D sky130_fd_sc_hd__dlygate4sd1_1
*I *1602:C I *D sky130_fd_sc_hd__and3_1
*I *2091:X O *D sky130_fd_sc_hd__buf_1
*CAP
1 *2092:A 1.85694e-05
2 *1602:C 0.000198961
3 *2091:X 0.000353537
4 *540:18 0.000571067
5 *1613:B1 *540:18 0.00013611
6 *1614:A1 *540:18 2.34345e-05
7 *1614:C1 *2092:A 0
8 *1631:C1 *1602:C 0.000297183
9 *2090:A *540:18 0.000178027
10 *273:66 *540:18 0.000191226
11 *442:8 *1602:C 3.83194e-05
12 *442:8 *540:18 3.87808e-05
13 *449:12 *540:18 5.53249e-06
14 *501:160 *540:18 0.000121023
*RES
1 *2091:X *540:18 11.87 
2 *540:18 *1602:C 5.035 
3 *540:18 *2092:A 1.96 
*END

*D_NET *541 0.000384366
*CONN
*I *1616:A2 I *D sky130_fd_sc_hd__a22o_1
*I *2092:X O *D sky130_fd_sc_hd__dlygate4sd1_1
*CAP
1 *1616:A2 9.56942e-05
2 *2092:X 9.56942e-05
3 *294:35 *1616:A2 7.0176e-05
4 *443:22 *1616:A2 4.99619e-05
5 *454:10 *1616:A2 7.28401e-05
*RES
1 *2092:X *1616:A2 9.285 
*END

*D_NET *542 0.000531513
*CONN
*I *1730:A I *D sky130_fd_sc_hd__xor2_1
*I *2093:X O *D sky130_fd_sc_hd__dlygate4sd1_1
*CAP
1 *1730:A 0.000123126
2 *2093:X 0.000123126
3 *1736:A *1730:A 1.61831e-05
4 *114:12 *1730:A 0.000118513
5 *515:16 *1730:A 0.000120186
6 *517:20 *1730:A 3.03775e-05
*RES
1 *2093:X *1730:A 9.72 
*END

*D_NET *543 0.00818932
*CONN
*I *2096:A I *D sky130_fd_sc_hd__dlygate4sd1_1
*I *2099:A I *D sky130_fd_sc_hd__dlygate4sd1_1
*I *1919:B I *D sky130_fd_sc_hd__nand2_1
*I *2094:X O *D sky130_fd_sc_hd__dlygate4sd1_1
*CAP
1 *2096:A 0.000217878
2 *2099:A 0.000102517
3 *1919:B 0
4 *2094:X 0.000743397
5 *543:20 0.00150989
6 *543:14 0.00236865
7 *543:20 *561:119 0
8 *1800:C *543:14 1.7635e-05
9 *1860:C1 *543:14 4.66108e-05
10 *1880:A1 *543:20 0
11 *1888:B1 *2096:A 3.08148e-05
12 *1888:B2 *2096:A 2.05191e-05
13 *1888:B2 *543:20 0
14 *1889:C1 *543:14 0.000474889
15 *1896:A *543:20 0
16 *1897:A2 *543:20 0
17 *1899:A2 *543:20 0
18 *1917:C1 *2096:A 0.000161104
19 *1917:C1 *543:14 0.000698037
20 *1919:A *2099:A 0.000272978
21 *1921:B2 *543:20 0
22 *196:28 *543:14 0.000472319
23 *259:14 *543:20 0
24 *261:12 *543:20 0
25 *284:10 *543:20 4.70343e-05
26 *305:12 *2099:A 2.30292e-05
27 *490:89 *543:14 1.88904e-05
28 *495:100 *543:14 0.00076163
29 *497:80 *543:20 0
30 *513:174 *543:20 0
31 *518:171 *543:20 0
32 *538:38 *2099:A 0.000201502
*RES
1 *2094:X *543:14 7.38423 
2 *543:14 *543:20 24.4075 
3 *543:20 *1919:B 1.6 
4 *543:20 *2099:A 5.17 
5 *543:14 *2096:A 5.28837 
*END

*D_NET *544 0.0207607
*CONN
*I *2047:A I *D sky130_fd_sc_hd__clkbuf_4
*I *1825:A2 I *D sky130_fd_sc_hd__a22o_1
*I *1834:A I *D sky130_fd_sc_hd__xnor2_1
*I *1833:A I *D sky130_fd_sc_hd__nand2_1
*I *1823:A1 I *D sky130_fd_sc_hd__o22a_1
*I *1859:A1 I *D sky130_fd_sc_hd__a221o_1
*I *2073:X O *D sky130_fd_sc_hd__buf_2
*CAP
1 *2047:A 0
2 *1825:A2 0
3 *1834:A 0.00075668
4 *1833:A 0
5 *1823:A1 0
6 *1859:A1 9.04615e-05
7 *2073:X 0.000847106
8 *544:92 0.0023205
9 *544:71 0.00182737
10 *544:53 0.000700963
11 *544:34 0.0020716
12 *544:14 0.00239084
13 *544:14 *561:12 3.99879e-05
14 *544:34 *1920:B 4.99619e-05
15 *544:34 *560:40 0.000224662
16 *544:34 *561:143 0.000163199
17 *544:34 *561:223 0
18 *544:53 *561:119 0
19 *544:71 *561:143 6.95753e-05
20 *1801:A *544:71 5.83121e-06
21 *1820:B *1834:A 2.59926e-05
22 *1825:A1 *544:53 9.53428e-06
23 *1825:A1 *544:71 2.16917e-05
24 *1825:B1 *544:71 4.82863e-05
25 *1825:B2 *544:71 9.50342e-06
26 *1827:A *544:53 3.09233e-05
27 *1829:A3 *544:53 9.99851e-05
28 *1829:A3 *544:71 1.80209e-05
29 *1834:B *1834:A 0.00063775
30 *1845:A1 *1834:A 3.83194e-05
31 *1845:A2 *1834:A 8.40213e-05
32 *1845:A3 *1834:A 4.10051e-05
33 *1857:A1 *544:53 0.000101022
34 *1857:A1 *544:71 7.57202e-05
35 *1857:B1 *1859:A1 1.81253e-05
36 *1857:B1 *544:53 0
37 *1857:B2 *544:53 4.99619e-05
38 *1859:B1 *1859:A1 8.7152e-06
39 *1859:B1 *544:53 0.000130434
40 *1859:B2 *544:34 2.72165e-05
41 *1859:B2 *544:53 0.000112799
42 *1859:C1 *544:34 0
43 *1860:C1 *544:71 8.40213e-05
44 *1880:A1 *544:34 0
45 *1888:B1 *544:34 2.66935e-05
46 *1889:B1 *544:92 0.000150299
47 *1896:A *544:34 0
48 *1896:C *544:34 0.000535804
49 *1897:A2 *544:34 0.000373127
50 *1918:A3 *544:92 3.86529e-05
51 *1918:B1 *544:92 0
52 *1921:B1 *544:34 3.09164e-05
53 *1949:A1 *544:92 0.000133592
54 *1995:A *544:14 0.000362972
55 *2036:A *544:14 7.23533e-05
56 *2079:A *1834:A 3.86814e-05
57 *2081:A *544:92 0.000222114
58 *191:14 *1834:A 0.000106819
59 *191:14 *544:92 0.000185411
60 *196:36 *544:53 3.69766e-05
61 *215:12 *1834:A 2.75145e-05
62 *261:12 *544:34 4.94404e-05
63 *323:8 *544:14 0
64 *361:12 *544:14 0
65 *385:31 *544:14 3.07076e-05
66 *431:12 *544:14 0.000160635
67 *491:10 *1834:A 9.49541e-05
68 *491:10 *544:92 0.00020613
69 *491:16 *544:92 0.000937435
70 *495:83 *544:53 0
71 *496:95 *544:14 1.19928e-05
72 *497:43 *544:92 0.000916297
73 *501:217 *1834:A 0
74 *512:103 *544:71 2.82846e-05
75 *512:113 *544:71 0.00021894
76 *513:6 *544:14 2.30292e-05
77 *513:6 *544:34 2.75229e-05
78 *513:84 *544:71 0.000321793
79 *513:218 *544:14 8.57024e-05
80 *514:8 *544:14 6.20787e-05
81 *514:10 *544:34 2.03578e-05
82 *514:49 *544:34 0.000264469
83 *514:64 *544:34 2.04147e-05
84 *518:103 *544:92 0.000190654
85 *532:24 *1834:A 0.000362475
86 *533:12 *544:14 0
87 *533:26 *544:14 0.000275548
88 *533:26 *544:34 0.000859223
89 *533:59 *1859:A1 1.88602e-05
*RES
1 *2073:X *544:14 21.53 
2 *544:14 *544:34 38.1225 
3 *544:34 *1859:A1 5.1375 
4 *544:34 *544:53 10.2425 
5 *544:53 *544:71 12.78 
6 *544:71 *1823:A1 3.6 
7 *544:71 *544:92 22.5381 
8 *544:92 *1833:A 3.6 
9 *544:92 *1834:A 16.6149 
10 *544:53 *1825:A2 1.6 
11 *544:14 *2047:A 1.6 
*END

*D_NET *545 0.00407533
*CONN
*I *2098:A I *D sky130_fd_sc_hd__dlygate4sd1_1
*I *1950:A I *D sky130_fd_sc_hd__xnor2_1
*I *1957:A2 I *D sky130_fd_sc_hd__a21oi_1
*I *2097:A I *D sky130_fd_sc_hd__dlygate4sd1_1
*I *1958:A2 I *D sky130_fd_sc_hd__o22a_1
*I *2096:X O *D sky130_fd_sc_hd__dlygate4sd1_1
*CAP
1 *2098:A 3.10021e-05
2 *1950:A 5.02027e-05
3 *1957:A2 0
4 *2097:A 4.17677e-05
5 *1958:A2 0.00012125
6 *2096:X 0.00040172
7 *545:41 0.000353211
8 *545:25 4.17677e-05
9 *545:23 0.000521695
10 *545:10 0.000772658
11 *545:10 *560:27 0
12 *545:10 *560:40 0
13 *1914:A *545:10 1.22505e-05
14 *1914:A *545:23 0
15 *1914:B *545:10 2.46089e-05
16 *1950:B *1950:A 4.82863e-05
17 *1957:A1 *2097:A 4.60584e-05
18 *1957:B1 *2097:A 4.99619e-05
19 *1958:B1 *1958:A2 9.63353e-06
20 *1958:B2 *1958:A2 0.00011426
21 *1958:B2 *2097:A 3.00381e-05
22 *1958:B2 *545:23 0
23 *1958:B2 *545:41 0
24 *1960:B2 *1958:A2 2.36616e-05
25 *1960:C1 *1958:A2 4.85494e-05
26 *1960:C1 *545:23 8.97486e-05
27 *1961:B1 *1958:A2 0.000424525
28 *1961:B1 *545:23 0
29 *1961:B1 *545:41 0
30 *1963:B1 *1950:A 0.000188069
31 *2005:B1 *1950:A 2.05056e-05
32 *2005:B1 *2098:A 9.4087e-05
33 *188:66 *1958:A2 1.56428e-05
34 *191:89 *545:41 0
35 *196:62 *545:10 0
36 *336:16 *2097:A 4.58166e-05
37 *336:16 *545:41 0
38 *338:10 *545:41 0
39 *490:182 *1950:A 0.000272984
40 *490:182 *2098:A 0.000150653
41 *490:182 *545:41 0
42 *533:26 *545:10 3.07153e-05
*RES
1 *2096:X *545:10 9.6 
2 *545:10 *1958:A2 8.115 
3 *545:10 *545:23 4.44 
4 *545:23 *545:25 2 
5 *545:25 *2097:A 3.085 
6 *545:25 *1957:A2 1.6 
7 *545:23 *545:41 6.185 
8 *545:41 *1950:A 4.12 
9 *545:41 *2098:A 3.085 
*END

*D_NET *546 0.000976692
*CONN
*I *1959:A2 I *D sky130_fd_sc_hd__a32o_1
*I *2097:X O *D sky130_fd_sc_hd__dlygate4sd1_1
*CAP
1 *1959:A2 0.000292029
2 *2097:X 0.000292029
3 *1957:B1 *1959:A2 0.000301905
4 *1958:A1 *1959:A2 9.50342e-06
5 *2002:B2 *1959:A2 8.12265e-05
6 *2082:A *1959:A2 0
*RES
1 *2097:X *1959:A2 11.19 
*END

*D_NET *547 0.00125756
*CONN
*I *1963:A1 I *D sky130_fd_sc_hd__a21o_1
*I *2098:X O *D sky130_fd_sc_hd__dlygate4sd1_1
*CAP
1 *1963:A1 0.00020228
2 *2098:X 0.00020228
3 *1963:B1 *1963:A1 0.000272726
4 *2005:B1 *1963:A1 8.65905e-05
5 *191:89 *1963:A1 0.000493679
*RES
1 *2098:X *1963:A1 13.71 
*END

*D_NET *548 0.000639785
*CONN
*I *1974:B I *D sky130_fd_sc_hd__nand2_1
*I *2099:X O *D sky130_fd_sc_hd__dlygate4sd1_1
*CAP
1 *1974:B 0.000225849
2 *2099:X 0.000225849
3 *1974:B *555:16 0
4 *1974:B *561:12 4.99619e-05
5 *1972:B1 *1974:B 0
6 *1978:B *1974:B 0
7 *305:12 *1974:B 9.47454e-05
8 *367:10 *1974:B 0
9 *496:72 *1974:B 1.83756e-05
10 *497:80 *1974:B 2.50049e-05
11 *513:174 *1974:B 0
*RES
1 *2099:X *1974:B 11.325 
*END

*D_NET *549 0.00435243
*CONN
*I *2102:A I *D sky130_fd_sc_hd__dlygate4sd1_1
*I *1687:B1 I *D sky130_fd_sc_hd__a21o_1
*I *2101:A I *D sky130_fd_sc_hd__dlygate4sd1_1
*I *1667:A I *D sky130_fd_sc_hd__or4_4
*I *2100:X O *D sky130_fd_sc_hd__dlygate4sd1_1
*CAP
1 *2102:A 0
2 *1687:B1 0
3 *2101:A 2.06731e-05
4 *1667:A 0.000131758
5 *2100:X 0.00021262
6 *549:22 0.000407512
7 *549:16 0.000379414
8 *549:12 0.000336953
9 *1667:A *1666:A 0
10 *549:16 *559:32 0.000374246
11 *549:22 *559:32 0.000162325
12 *1683:B *549:12 0.000307049
13 *1686:B *549:16 1.68017e-05
14 *1709:A1 *549:12 8.05167e-05
15 *1709:A2 *549:16 0.000284969
16 *2089:A *1667:A 4.82919e-05
17 *43:24 *1667:A 4.99619e-05
18 *49:8 *1667:A 5.02217e-05
19 *49:42 *1667:A 2.15594e-05
20 *64:12 *2101:A 3.74161e-05
21 *64:12 *549:22 0.000459372
22 *67:12 *549:22 6.14433e-05
23 *471:39 *549:16 1.49369e-05
24 *471:39 *549:22 5.53249e-06
25 *501:28 *549:12 0.00025929
26 *501:30 *1667:A 0
27 *517:86 *549:12 0.000160641
28 *517:98 *549:12 0.000468933
29 *537:8 *549:16 0
*RES
1 *2100:X *549:12 13.925 
2 *549:12 *549:16 6.44 
3 *549:16 *549:22 8.135 
4 *549:22 *1667:A 8.195 
5 *549:22 *2101:A 2.05 
6 *549:16 *1687:B1 3.6 
7 *549:12 *2102:A 1.6 
*END

*D_NET *550 0.000253581
*CONN
*I *1666:A I *D sky130_fd_sc_hd__nor4_2
*I *2101:X O *D sky130_fd_sc_hd__dlygate4sd1_1
*CAP
1 *1666:A 8.61799e-05
2 *2101:X 8.61799e-05
3 *1666:B *1666:A 3.80022e-05
4 *1667:A *1666:A 0
5 *1682:B1 *1666:A 0
6 *43:24 *1666:A 4.55864e-06
7 *501:30 *1666:A 3.86607e-05
*RES
1 *2101:X *1666:A 8.835 
*END

*D_NET *551 0.000440733
*CONN
*I *1686:A I *D sky130_fd_sc_hd__and3_1
*I *2102:X O *D sky130_fd_sc_hd__dlygate4sd1_1
*CAP
1 *1686:A 4.94517e-05
2 *2102:X 4.94517e-05
3 *1686:C *1686:A 2.16917e-05
4 *1710:C1 *1686:A 4.82863e-05
5 *70:18 *1686:A 8.40269e-05
6 *501:28 *1686:A 9.30787e-05
7 *517:86 *1686:A 9.47454e-05
*RES
1 *2102:X *1686:A 9.12 
*END

*D_NET *552 0.000669522
*CONN
*I *1762:A I *D sky130_fd_sc_hd__nor2_1
*I *1763:A I *D sky130_fd_sc_hd__nand2_1
*I *2103:X O *D sky130_fd_sc_hd__dlygate4sd1_1
*CAP
1 *1762:A 0
2 *1763:A 0.00011919
3 *2103:X 6.38984e-05
4 *552:8 0.000183088
5 *1761:S *1763:A 0
6 *1762:B *1763:A 0
7 *2049:A *1763:A 0
8 *2049:A *552:8 0
9 *2103:A *552:8 0
10 *135:10 *552:8 3.39069e-05
11 *145:8 *1763:A 3.00381e-05
12 *516:29 *1763:A 0.000208484
13 *516:29 *552:8 3.09164e-05
*RES
1 *2103:X *552:8 4.98 
2 *552:8 *1763:A 6.45 
3 *552:8 *1762:A 3.6 
*END

*D_NET *553 0.00115755
*CONN
*I *1600:B1 I *D sky130_fd_sc_hd__a21oi_1
*I *2104:X O *D sky130_fd_sc_hd__dlygate4sd1_1
*CAP
1 *1600:B1 0.000209907
2 *2104:X 0.000209907
3 *1600:A1 *1600:B1 7.89689e-05
4 *490:89 *1600:B1 0.000127227
5 *510:133 *1600:B1 0.000481579
6 *520:76 *1600:B1 4.99619e-05
*RES
1 *2104:X *1600:B1 13.365 
*END

*D_NET *554 0.0023693
*CONN
*I *2107:A I *D sky130_fd_sc_hd__dlygate4sd1_1
*I *1598:A2 I *D sky130_fd_sc_hd__a211oi_2
*I *2105:X O *D sky130_fd_sc_hd__buf_1
*CAP
1 *2107:A 0
2 *1598:A2 0.000282836
3 *2105:X 0.00015213
4 *554:10 0.000434965
5 *1592:A2 *1598:A2 4.66108e-05
6 *1592:A3 *1598:A2 0.000119762
7 *1592:A4 *1598:A2 0.000447414
8 *2004:A2 *554:10 0.000158965
9 *2054:A *1598:A2 0.000244275
10 *2105:A *1598:A2 4.43871e-06
11 *2105:A *554:10 7.26551e-05
12 *369:19 *1598:A2 7.44453e-05
13 *493:45 *1598:A2 4.99619e-05
14 *497:47 *1598:A2 0.000139252
15 *497:47 *554:10 0.000141592
*RES
1 *2105:X *554:10 6.72 
2 *554:10 *1598:A2 11.565 
3 *554:10 *2107:A 3.6 
*END

*D_NET *555 0.010756
*CONN
*I *1920:B I *D sky130_fd_sc_hd__and4_1
*I *1921:A1 I *D sky130_fd_sc_hd__a22oi_1
*I *1976:B I *D sky130_fd_sc_hd__and4_1
*I *1975:B2 I *D sky130_fd_sc_hd__a22oi_1
*I *2015:A I *D sky130_fd_sc_hd__nand2_1
*I *2046:A I *D sky130_fd_sc_hd__clkbuf_4
*I *1925:A1 I *D sky130_fd_sc_hd__a31oi_1
*I *2074:X O *D sky130_fd_sc_hd__clkbuf_2
*CAP
1 *1920:B 0.000209119
2 *1921:A1 0
3 *1976:B 0
4 *1975:B2 2.45677e-05
5 *2015:A 2.72244e-05
6 *2046:A 0.000369117
7 *1925:A1 0.000277365
8 *2074:X 0.00133602
9 *555:81 0.000249036
10 *555:34 0.000646482
11 *555:32 0.000152449
12 *555:30 0.000511172
13 *555:20 0.000912128
14 *555:16 0.00192669
15 *1925:A1 *2031:A2 5.92269e-05
16 *2015:A *559:40 1.85674e-05
17 *555:16 *561:12 7.23533e-05
18 *555:30 *561:110 1.71013e-05
19 *555:30 *561:119 5.13155e-05
20 *1873:B *2046:A 4.82863e-05
21 *1873:C *2046:A 4.20934e-05
22 *1920:C *1920:B 8.49205e-05
23 *1921:B1 *1920:B 0.000110718
24 *1921:B1 *555:81 4.43871e-06
25 *1922:B1 *555:20 0.000270415
26 *1925:B1 *1925:A1 2.30292e-05
27 *1974:B *555:16 0
28 *1977:A *1975:B2 1.37328e-05
29 *1977:A *555:20 0.000275553
30 *2022:B *1925:A1 8.53113e-06
31 *2022:B *2046:A 0.000239136
32 *2023:A *1975:B2 4.00541e-06
33 *2023:A *2015:A 4.00541e-06
34 *2023:A *555:32 4.65607e-05
35 *2030:A *1975:B2 3.00381e-05
36 *2030:A *555:30 0.000275548
37 *306:10 *1920:B 2.0514e-05
38 *307:10 *555:16 1.7396e-05
39 *307:10 *555:81 2.58818e-05
40 *309:10 *555:20 1.13241e-05
41 *310:12 *555:16 0
42 *311:12 *1925:A1 0.000279787
43 *410:10 *2046:A 0
44 *495:29 *1925:A1 0.000338233
45 *495:29 *2046:A 0.000724372
46 *496:72 *1920:B 3.09164e-05
47 *496:72 *555:16 0.000179008
48 *496:72 *555:30 7.30547e-05
49 *496:72 *555:81 9.30787e-05
50 *496:95 *1920:B 0.000240746
51 *497:59 *1975:B2 5.30673e-05
52 *497:59 *555:32 3.59311e-05
53 *497:63 *555:30 6.1357e-05
54 *497:80 *1920:B 2.16833e-05
55 *497:80 *555:20 8.79923e-05
56 *510:121 *1925:A1 0
57 *513:6 *1920:B 9.80943e-06
58 *513:40 *2046:A 0
59 *514:10 *1920:B 1.26626e-05
60 *519:186 *1925:A1 4.82919e-05
61 *519:186 *2046:A 0
62 *544:34 *1920:B 4.99619e-05
*RES
1 *2074:X *555:16 24.04 
2 *555:16 *555:20 9.35 
3 *555:20 *555:30 9.64 
4 *555:30 *555:32 2.175 
5 *555:32 *555:34 2 
6 *555:34 *1925:A1 10.74 
7 *555:34 *2046:A 12.93 
8 *555:32 *2015:A 2.215 
9 *555:30 *1975:B2 3.01 
10 *555:20 *1976:B 1.6 
11 *555:16 *555:81 1.125 
12 *555:81 *1921:A1 3.6 
13 *555:81 *1920:B 8.64 
*END

*D_NET *556 0.00205018
*CONN
*I *1597:B1_N I *D sky130_fd_sc_hd__o21bai_1
*I *2107:X O *D sky130_fd_sc_hd__dlygate4sd1_1
*CAP
1 *1597:B1_N 0.000503336
2 *2107:X 0.000503336
3 *1594:A1 *1597:B1_N 0.000155491
4 *1594:A2 *1597:B1_N 0.000101325
5 *1594:C1 *1597:B1_N 0.000137571
6 *348:10 *1597:B1_N 0.000103592
7 *391:21 *1597:B1_N 9.27255e-06
8 *493:45 *1597:B1_N 0.000230429
9 *520:65 *1597:B1_N 7.06865e-05
10 *520:76 *1597:B1_N 4.82919e-05
11 *520:102 *1597:B1_N 7.30547e-05
12 *520:117 *1597:B1_N 0.000113797
*RES
1 *2107:X *1597:B1_N 15.495 
*END

*D_NET *557 0.00193116
*CONN
*I *1613:A1 I *D sky130_fd_sc_hd__a211oi_2
*I *1610:B I *D sky130_fd_sc_hd__nand3_1
*I *2108:X O *D sky130_fd_sc_hd__buf_6
*CAP
1 *1613:A1 0
2 *1610:B 0.000140477
3 *2108:X 0.000155903
4 *557:12 0.00029638
5 *557:12 *562:28 4.36573e-06
6 *557:12 *562:34 0.000334748
7 *1616:B2 *557:12 9.50342e-06
8 *439:10 *557:12 0.000130106
9 *439:16 *1610:B 6.54981e-05
10 *439:16 *557:12 0.000155952
11 *449:33 *1610:B 2.0514e-05
12 *453:10 *1610:B 0.000222627
13 *453:25 *1610:B 4.55864e-06
14 *491:54 *557:12 0.000122331
15 *496:30 *1610:B 4.00949e-05
16 *501:160 *1610:B 0.000113971
17 *501:160 *557:12 3.21271e-05
18 *538:28 *557:12 8.19982e-05
*RES
1 *2108:X *557:12 10.925 
2 *557:12 *1610:B 9.14 
3 *557:12 *1613:A1 1.6 
*END

*D_NET *558 0.00168408
*CONN
*I *1702:A1 I *D sky130_fd_sc_hd__a21oi_1
*I *1701:A I *D sky130_fd_sc_hd__and2_1
*I *2109:X O *D sky130_fd_sc_hd__buf_1
*CAP
1 *1702:A1 0
2 *1701:A 7.36526e-05
3 *2109:X 0.000526746
4 *558:22 0.000600398
5 *1701:B *1701:A 2.74169e-05
6 *1701:B *558:22 1.09281e-05
7 *1702:B1 *1701:A 8.52845e-05
8 *1702:B1 *558:22 3.59356e-06
9 *1703:A *558:22 4.77719e-05
10 *1703:C *558:22 7.03098e-05
11 *1739:A0 *558:22 8.35068e-05
12 *49:24 *558:22 6.88421e-05
13 *84:14 *558:22 2.47705e-05
14 *85:8 *558:22 5.73602e-05
15 *283:38 *1701:A 3.50152e-06
*RES
1 *2109:X *558:22 16.065 
2 *558:22 *1701:A 3.46 
3 *558:22 *1702:A1 1.6 
*END

*D_NET *559 0.0178647
*CONN
*I *2015:B I *D sky130_fd_sc_hd__nand2_1
*I *2031:A2 I *D sky130_fd_sc_hd__a31o_1
*I *2110:X O *D sky130_fd_sc_hd__dlygate4sd1_1
*CAP
1 *2015:B 0
2 *2031:A2 0.000526093
3 *2110:X 0.00131837
4 *559:40 0.0017467
5 *559:32 0.00286677
6 *559:20 0.00296453
7 *2031:A2 *561:12 9.43751e-05
8 *2031:A2 *561:14 5.6361e-05
9 *2031:A2 *561:31 0.000296134
10 *559:40 *561:75 0.000235224
11 *1633:A1 *559:32 8.4546e-05
12 *1653:A1 *559:32 7.23602e-05
13 *1665:C *559:32 4.92096e-05
14 *1699:B1 *559:32 9.37731e-05
15 *1703:B *559:32 0
16 *1709:B1 *559:32 0.000157595
17 *1718:A *559:20 5.33085e-05
18 *1747:A1 *559:20 0.000109198
19 *1754:A *559:20 0.000171285
20 *1772:C1 *559:20 0.000155056
21 *1777:A2 *559:20 4.88478e-05
22 *1780:B1 *559:20 3.04704e-05
23 *1925:A1 *2031:A2 5.92269e-05
24 *1974:A *2031:A2 3.95724e-05
25 *2015:A *559:40 1.85674e-05
26 *2019:B *559:32 2.14129e-05
27 *2020:C *559:40 2.30292e-05
28 *2021:A2 *2031:A2 4.43871e-06
29 *2021:A2 *559:40 0.000177231
30 *2021:B1 *559:40 2.8185e-05
31 *2022:B *2031:A2 5.16418e-05
32 *2022:B *559:40 0.00019637
33 *45:10 *559:32 0.000735301
34 *45:32 *559:32 0.000270409
35 *46:25 *559:32 0
36 *46:34 *559:32 0
37 *67:12 *559:32 0
38 *67:35 *559:20 2.33933e-05
39 *73:10 *559:32 4.99619e-05
40 *81:12 *559:32 4.19967e-05
41 *100:20 *559:20 7.39642e-05
42 *110:10 *559:20 0.000344839
43 *110:29 *559:20 2.36371e-05
44 *130:55 *559:20 0
45 *135:10 *559:20 0
46 *136:10 *559:20 0.00119587
47 *147:10 *559:20 0
48 *251:8 *559:40 0.000197264
49 *477:12 *559:40 0.00142221
50 *477:20 *559:40 4.66108e-05
51 *496:72 *2031:A2 0.000159741
52 *497:59 *559:40 4.2649e-05
53 *510:121 *2031:A2 5.84902e-05
54 *519:27 *559:32 0
55 *519:67 *559:20 0
56 *519:67 *559:32 0.000536502
57 *519:84 *559:20 0.000115326
58 *537:8 *559:20 0.000240055
59 *537:8 *559:32 0
60 *549:16 *559:32 0.000374246
61 *549:22 *559:32 0.000162325
*RES
1 *2110:X *559:20 37.0675 
2 *559:20 *559:32 35.5125 
3 *559:32 *559:40 24.045 
4 *559:40 *2031:A2 16.235 
5 *559:40 *2015:B 1.6 
*END

*D_NET *560 0.00762379
*CONN
*I *1897:B1 I *D sky130_fd_sc_hd__a22oi_1
*I *1896:D I *D sky130_fd_sc_hd__and4_1
*I *1913:A2 I *D sky130_fd_sc_hd__o22a_1
*I *1912:A2 I *D sky130_fd_sc_hd__a21oi_1
*I *2111:X O *D sky130_fd_sc_hd__buf_1
*CAP
1 *1897:B1 0.000186147
2 *1896:D 0
3 *1913:A2 0
4 *1912:A2 3.55506e-05
5 *2111:X 0.00111489
6 *560:40 0.00107952
7 *560:27 0.00110453
8 *560:12 0.0013616
9 *1828:B1 *560:12 9.64918e-05
10 *1828:B2 *560:12 2.05056e-05
11 *1830:A *560:12 8.49205e-05
12 *1830:B *560:12 4.66108e-05
13 *1879:A *560:40 0.000198293
14 *1888:B1 *560:40 0
15 *1896:B *1897:B1 8.40213e-05
16 *1896:C *560:40 0.000535804
17 *1897:A1 *1897:B1 0.000123225
18 *1897:B2 *1897:B1 2.16917e-05
19 *1912:B1 *560:12 0.000192218
20 *1912:B1 *560:27 4.51031e-05
21 *1913:B1 *560:40 1.33293e-05
22 *1913:B2 *560:40 5.30673e-05
23 *1914:A *560:27 9.54399e-05
24 *1914:A *560:40 1.61831e-05
25 *1914:B *560:40 2.86265e-06
26 *1916:B1 *560:40 0.00011577
27 *196:51 *560:40 0
28 *196:62 *560:40 0
29 *197:28 *560:12 0.000173266
30 *265:12 *560:40 0
31 *510:165 *560:12 2.50602e-05
32 *510:176 *560:27 1.03323e-05
33 *512:113 *560:12 1.66606e-06
34 *512:121 *560:12 5.48176e-05
35 *512:127 *560:12 7.47145e-05
36 *512:153 *560:12 9.37731e-05
37 *514:64 *560:40 0.000250609
38 *523:80 *560:12 8.71079e-05
39 *533:26 *560:40 0
40 *544:34 *560:40 0.000224662
41 *545:10 *560:27 0
42 *545:10 *560:40 0
*RES
1 *2111:X *560:12 23.81 
2 *560:12 *1912:A2 2.215 
3 *560:12 *560:27 7.3 
4 *560:27 *1913:A2 1.6 
5 *560:27 *560:40 21.94 
6 *560:40 *1896:D 1.6 
7 *560:40 *1897:B1 4.135 
*END

*D_NET *561 0.0284807
*CONN
*I *1886:A1 I *D sky130_fd_sc_hd__o22a_1
*I *1885:A1 I *D sky130_fd_sc_hd__a21oi_1
*I *1887:A1 I *D sky130_fd_sc_hd__a32o_1
*I *1803:C I *D sky130_fd_sc_hd__or4_1
*I *1865:A I *D sky130_fd_sc_hd__nand2_1
*I *1864:A I *D sky130_fd_sc_hd__or2_1
*I *1915:B2 I *D sky130_fd_sc_hd__a32o_1
*I *1858:B2 I *D sky130_fd_sc_hd__a32o_1
*I *1976:A I *D sky130_fd_sc_hd__and4_1
*I *2018:B2 I *D sky130_fd_sc_hd__a22o_1
*I *1655:B I *D sky130_fd_sc_hd__nor2_1
*I *1580:A I *D sky130_fd_sc_hd__inv_2
*I *1872:A I *D sky130_fd_sc_hd__nand2_1
*I *1926:A I *D sky130_fd_sc_hd__nand2_1
*I *1975:A1 I *D sky130_fd_sc_hd__a22oi_1
*I *2075:X O *D sky130_fd_sc_hd__buf_4
*CAP
1 *1886:A1 0.000111722
2 *1885:A1 0
3 *1887:A1 0
4 *1803:C 0.000250291
5 *1865:A 1.15106e-05
6 *1864:A 0.000148683
7 *1915:B2 0.00015124
8 *1858:B2 1.58384e-05
9 *1976:A 0
10 *2018:B2 0.000101475
11 *1655:B 0.000263994
12 *1580:A 0
13 *1872:A 0.000106123
14 *1926:A 0.000228587
15 *1975:A1 0.000158752
16 *2075:X 0.00139038
17 *561:223 0.000308805
18 *561:185 0.000553661
19 *561:166 0.000600187
20 *561:164 0.000408082
21 *561:160 0.000269578
22 *561:143 0.00168276
23 *561:119 0.00304722
24 *561:110 0.00143007
25 *561:75 0.0014018
26 *561:63 0.0013954
27 *561:33 0.000398709
28 *561:31 0.000653849
29 *561:14 0.000683918
30 *561:12 0.00156141
31 *1803:C *562:48 0
32 *561:143 *562:34 0.000199944
33 *561:160 *1915:A1 6.59891e-05
34 *561:160 *562:34 5.97296e-05
35 *1582:A *561:143 5.58206e-05
36 *1655:A *1655:B 6.17765e-05
37 *1661:A *1655:B 4.21973e-05
38 *1661:B *1655:B 8.49205e-05
39 *1669:A *1655:B 0
40 *1800:C *561:143 0.00026617
41 *1825:B1 *561:143 7.68414e-06
42 *1827:A *561:119 0
43 *1829:A3 *561:143 3.32916e-05
44 *1829:B2 *561:143 6.66464e-06
45 *1854:B *561:119 9.54399e-05
46 *1858:A1 *1858:B2 3.00355e-05
47 *1858:A1 *561:164 4.88555e-05
48 *1858:B1 *1803:C 0
49 *1858:B1 *1915:B2 0
50 *1858:B1 *561:185 0
51 *1859:A2 *561:143 2.00935e-05
52 *1859:B2 *561:223 0
53 *1859:C1 *561:143 0.000155497
54 *1860:C1 *561:143 0.000408216
55 *1865:B *1864:A 2.89963e-05
56 *1865:B *1865:A 5.4155e-06
57 *1872:B *1872:A 4.0668e-05
58 *1875:A *561:119 0
59 *1876:B *561:119 0
60 *1885:B1 *1886:A1 8.8266e-05
61 *1885:B1 *561:223 0.000122331
62 *1886:A2 *1886:A1 1.34503e-05
63 *1886:B2 *1886:A1 5.4155e-06
64 *1887:A2 *561:160 5.63183e-05
65 *1887:A2 *561:164 8.7152e-06
66 *1887:A3 *561:160 1.57505e-05
67 *1887:B1 *1915:B2 9.89207e-05
68 *1887:B1 *561:160 3.78462e-05
69 *1889:B1 *1915:B2 3.86529e-05
70 *1891:A *1803:C 8.53756e-05
71 *1893:A *1803:C 0.000270415
72 *1899:A2 *561:119 0.000101325
73 *1900:B *561:31 3.1835e-05
74 *1901:A2 *1872:A 3.95724e-05
75 *1913:B1 *1886:A1 0
76 *1915:A3 *1915:B2 2.46087e-05
77 *1925:B1 *1872:A 2.75145e-05
78 *1926:B *1926:A 4.66108e-05
79 *1929:A1 *1926:A 3.26889e-05
80 *1961:A3 *1803:C 5.29474e-05
81 *1961:A3 *561:143 9.46729e-05
82 *1961:A3 *561:164 0.000129148
83 *1961:B1 *1803:C 7.23602e-05
84 *1961:B1 *561:185 7.23533e-05
85 *1974:A *561:12 0.000200615
86 *1974:B *561:12 4.99619e-05
87 *1978:B *561:110 0
88 *2018:B1 *2018:B2 4.66108e-05
89 *2020:D *2018:B2 1.08758e-05
90 *2021:B2 *2018:B2 1.15688e-05
91 *2021:B2 *561:63 1.70935e-05
92 *2023:B *1975:A1 0
93 *2030:A *1975:A1 6.65973e-05
94 *2030:A *561:110 0.000181376
95 *2031:A2 *561:12 9.43751e-05
96 *2031:A2 *561:14 5.6361e-05
97 *2031:A2 *561:31 0.000296134
98 *2031:B1 *561:110 0
99 *2036:B *561:12 0
100 *2041:B1 *561:143 4.47125e-05
101 *2074:A *561:12 4.72538e-05
102 *2094:A *1858:B2 4.66108e-05
103 *2106:A *561:143 0.000101945
104 *2106:A *561:160 7.9642e-06
105 *197:28 *1915:B2 2.75538e-05
106 *197:30 *1915:B2 7.21296e-06
107 *197:30 *561:164 0
108 *232:12 *561:119 0
109 *233:12 *561:119 0
110 *234:10 *561:119 6.28765e-05
111 *254:12 *561:119 0
112 *259:14 *561:119 0
113 *285:12 *561:33 9.14049e-05
114 *286:8 *1872:A 4.82863e-05
115 *312:8 *1926:A 2.75229e-05
116 *326:36 *561:185 0.000646659
117 *337:10 *561:143 9.63396e-05
118 *384:12 *561:12 0.000107262
119 *413:6 *2018:B2 3.83194e-05
120 *431:12 *561:12 6.27438e-05
121 *475:73 *1655:B 0.000531088
122 *475:73 *561:75 0.00011852
123 *477:12 *561:75 0.000446464
124 *490:60 *2018:B2 0
125 *490:60 *561:33 0
126 *490:60 *561:63 0
127 *491:78 *1926:A 0.000559578
128 *491:78 *561:33 0.000176647
129 *491:78 *561:63 0.000184935
130 *495:29 *1975:A1 0
131 *496:53 *1975:A1 9.50342e-06
132 *496:53 *561:119 7.61837e-05
133 *496:72 *561:12 0.000151309
134 *496:72 *561:110 2.37234e-05
135 *497:47 *2018:B2 2.14129e-05
136 *497:59 *1975:A1 9.50342e-06
137 *497:59 *2018:B2 9.47454e-05
138 *510:98 *1926:A 6.00003e-05
139 *510:98 *561:31 0.00015639
140 *510:98 *561:33 3.21271e-05
141 *510:121 *561:31 0.00015639
142 *510:133 *2018:B2 1.91597e-05
143 *512:113 *561:143 9.02259e-05
144 *512:176 *1803:C 8.99218e-05
145 *513:174 *561:119 0
146 *514:74 *561:119 0
147 *514:80 *561:119 0
148 *514:111 *561:119 0
149 *518:120 *561:143 9.63396e-05
150 *518:120 *561:160 2.69648e-05
151 *518:171 *561:119 0.00026528
152 *518:171 *561:223 0.000122942
153 *518:202 *561:223 4.83541e-05
154 *519:198 *1926:A 0.000432899
155 *519:202 *1926:A 3.09164e-05
156 *520:126 *561:143 7.67415e-06
157 *523:14 *1655:B 0.000285323
158 *523:14 *561:75 6.55328e-05
159 *523:56 *561:143 3.1562e-06
160 *533:26 *561:143 1.69467e-05
161 *538:28 *1655:B 0.000307049
162 *543:20 *561:119 0
163 *544:14 *561:12 3.99879e-05
164 *544:34 *561:143 0.000163199
165 *544:34 *561:223 0
166 *544:53 *561:119 0
167 *544:71 *561:143 6.95753e-05
168 *555:16 *561:12 7.23533e-05
169 *555:30 *561:110 1.71013e-05
170 *555:30 *561:119 5.13155e-05
171 *559:40 *561:75 0.000235224
*RES
1 *2075:X *561:12 28.76 
2 *561:12 *561:14 1.485 
3 *561:14 *1975:A1 8.255 
4 *561:14 *561:31 10.745 
5 *561:31 *561:33 2.145 
6 *561:33 *1926:A 11.58 
7 *561:33 *1872:A 5.79 
8 *561:31 *561:63 3.555 
9 *561:63 *561:75 21.13 
10 *561:75 *1580:A 3.6 
11 *561:75 *1655:B 13.05 
12 *561:63 *2018:B2 6.03 
13 *561:12 *561:110 4.145 
14 *561:110 *1976:A 3.6 
15 *561:110 *561:119 24.33 
16 *561:119 *561:143 33.27 
17 *561:143 *1858:B2 4.05 
18 *561:143 *561:160 4.79 
19 *561:160 *561:164 5.2925 
20 *561:164 *561:166 0.795 
21 *561:166 *1915:B2 7.6275 
22 *561:166 *561:185 10.1675 
23 *561:185 *1864:A 3.79 
24 *561:185 *1865:A 1.96 
25 *561:164 *1803:C 9.4125 
26 *561:160 *1887:A1 1.6 
27 *561:119 *561:223 5.285 
28 *561:223 *1885:A1 1.6 
29 *561:223 *1886:A1 3.355 
*END

*D_NET *562 0.0187778
*CONN
*I *2045:A I *D sky130_fd_sc_hd__buf_4
*I *1915:A1 I *D sky130_fd_sc_hd__a32o_1
*I *1948:A1 I *D sky130_fd_sc_hd__a21o_1
*I *1960:A1 I *D sky130_fd_sc_hd__a221o_1
*I *2076:X O *D sky130_fd_sc_hd__clkbuf_2
*CAP
1 *2045:A 0.000187429
2 *1915:A1 0.000172176
3 *1948:A1 4.57974e-06
4 *1960:A1 0.00146596
5 *2076:X 0.000762585
6 *562:48 0.00206272
7 *562:34 0.0017854
8 *562:28 0.00262034
9 *562:14 0.00254931
10 *1591:C1 *562:48 2.0851e-06
11 *1594:B1 *562:34 8.82193e-05
12 *1598:A1 *562:34 5.12772e-05
13 *1607:A *562:28 4.82863e-05
14 *1609:A *562:34 0
15 *1614:A2 *562:28 2.73083e-05
16 *1614:A2 *562:34 4.09245e-05
17 *1616:B2 *562:34 5.46798e-05
18 *1623:A *562:28 0.0001032
19 *1623:B *562:28 7.4027e-05
20 *1624:A *562:28 8.58339e-06
21 *1624:B *2045:A 0
22 *1628:A *562:28 3.00381e-05
23 *1628:B *562:28 0.000118294
24 *1636:A *562:28 0
25 *1636:B *562:28 5.98073e-05
26 *1637:A1 *562:28 0
27 *1640:A *2045:A 0
28 *1803:C *562:48 0
29 *1858:A1 *562:48 0.000144128
30 *1858:A3 *1915:A1 2.61944e-05
31 *1858:A3 *562:34 3.59531e-06
32 *1858:A3 *562:48 0
33 *1858:B1 *562:34 1.16664e-05
34 *1858:B1 *562:48 0
35 *1887:A3 *1915:A1 8.49205e-05
36 *1887:B1 *1915:A1 3.9132e-05
37 *1891:B *1948:A1 6.71803e-06
38 *1891:B *562:48 5.53772e-05
39 *1892:A *1948:A1 1.88656e-05
40 *1892:A *562:48 0.000286157
41 *1914:A *1960:A1 3.09164e-05
42 *1915:A3 *1915:A1 2.09303e-05
43 *1958:B2 *1960:A1 8.34204e-05
44 *1961:A2 *562:34 0
45 *1961:A3 *562:48 0.000257639
46 *2043:B1 *1960:A1 4.20336e-05
47 *2094:A *562:34 0
48 *2094:A *562:48 2.8185e-05
49 *2114:A *562:34 8.78813e-05
50 *205:18 *1915:A1 2.24829e-05
51 *205:46 *1960:A1 0.00106262
52 *205:93 *1960:A1 0.000935475
53 *273:66 *562:34 3.40521e-05
54 *337:10 *562:34 0.000139966
55 *337:18 *562:34 1.86688e-05
56 *337:20 *562:34 8.08153e-06
57 *412:14 *562:34 5.92191e-05
58 *423:12 *562:34 0.000312778
59 *439:16 *562:28 9.64341e-05
60 *439:18 *562:28 0.000565995
61 *449:33 *562:28 0.000150991
62 *451:10 *562:34 0
63 *464:6 *562:28 0.000201508
64 *477:12 *562:28 0.000178496
65 *490:12 *562:14 8.8266e-05
66 *490:38 *562:28 0
67 *490:49 *562:28 0
68 *490:60 *562:28 0
69 *490:161 *1960:A1 5.86739e-05
70 *493:45 *562:34 5.20968e-05
71 *497:43 *1915:A1 6.0657e-05
72 *501:160 *562:34 2.52454e-05
73 *512:127 *562:48 0.000116636
74 *512:153 *562:48 7.12228e-06
75 *516:55 *562:34 0
76 *517:110 *562:48 0.000116158
77 *518:130 *562:34 0.000131
78 *519:159 *562:34 4.94404e-05
79 *521:18 *2045:A 0
80 *521:47 *562:28 7.5919e-05
81 *523:80 *562:48 0
82 *523:149 *562:28 0
83 *526:8 *562:48 0
84 *557:12 *562:28 4.36573e-06
85 *557:12 *562:34 0.000334748
86 *561:143 *562:34 0.000199944
87 *561:160 *1915:A1 6.59891e-05
88 *561:160 *562:34 5.97296e-05
*RES
1 *2076:X *562:14 16.275 
2 *562:14 *562:28 32.7475 
3 *562:28 *562:34 21.4425 
4 *562:34 *562:48 16.2475 
5 *562:48 *1960:A1 8.89843 
6 *562:48 *1948:A1 3.8325 
7 *562:34 *1915:A1 6.765 
8 *562:14 *2045:A 6.51 
*END
