*SPEF "ieee 1481-1999"
*DESIGN "alu8bit"
*DATE "13:38:45 Wednesday August 05, 2026"
*VENDOR "The OpenROAD Project"
*PROGRAM "OpenROAD"
*VERSION "edf00dff99f6c40d67a30c0e22a8191c5d2ed9d6"
*DESIGN_FLOW "NAME_SCOPE LOCAL" "PIN_CAP NONE"
*DIVIDER /
*DELIMITER :
*BUS_DELIMITER []
*T_UNIT 1 NS
*C_UNIT 1 PF
*R_UNIT 1 OHM
*L_UNIT 1 HENRY

*NAME_MAP
*3 inst[0]
*4 inst[1]
*5 inst[2]
*6 inst[3]
*7 op_a[0]
*8 op_a[1]
*9 op_a[2]
*10 op_a[3]
*11 op_a[4]
*12 op_a[5]
*13 op_a[6]
*14 op_a[7]
*15 op_b[0]
*16 op_b[1]
*17 op_b[2]
*18 op_b[3]
*19 op_b[4]
*20 op_b[5]
*21 op_b[6]
*22 op_b[7]
*23 op_out[0]
*24 op_out[1]
*25 op_out[2]
*26 op_out[3]
*27 op_out[4]
*28 op_out[5]
*29 op_out[6]
*30 op_out[7]
*31 _000_
*32 _001_
*33 _002_
*34 _003_
*35 _004_
*36 _005_
*37 _006_
*38 _007_
*39 _008_
*40 _009_
*41 _010_
*42 _011_
*43 _012_
*44 _013_
*45 _014_
*46 _015_
*47 _016_
*48 _017_
*49 _018_
*50 _019_
*51 _020_
*52 _021_
*53 _022_
*54 _023_
*55 _024_
*56 _025_
*57 _026_
*58 _027_
*59 _028_
*60 _029_
*61 _030_
*62 _031_
*63 _032_
*64 _033_
*65 _034_
*66 _035_
*67 _036_
*68 _037_
*69 _038_
*70 _039_
*71 _040_
*72 _041_
*73 _042_
*74 _043_
*75 _044_
*76 _045_
*77 _046_
*78 _047_
*79 _048_
*80 _049_
*81 _050_
*82 _051_
*83 _052_
*84 _053_
*85 _054_
*86 _055_
*87 _056_
*88 _057_
*89 _058_
*90 _059_
*91 _060_
*92 _061_
*93 _062_
*94 _063_
*95 _064_
*96 _065_
*97 _066_
*98 _067_
*99 _068_
*100 _069_
*101 _070_
*102 _071_
*103 _072_
*104 _073_
*105 _074_
*106 _075_
*107 _076_
*108 _077_
*109 _078_
*110 _079_
*111 _080_
*112 _081_
*113 _082_
*114 _083_
*115 _084_
*116 _085_
*117 _086_
*118 _087_
*119 _088_
*120 _089_
*121 _090_
*122 _091_
*123 _092_
*124 _093_
*125 _094_
*126 _095_
*127 _096_
*128 _097_
*129 _098_
*130 _099_
*131 _100_
*132 _101_
*133 _102_
*134 _103_
*135 _104_
*136 _105_
*137 _106_
*138 _107_
*139 _108_
*140 _109_
*141 _110_
*142 _111_
*143 _112_
*144 _113_
*145 _114_
*146 _115_
*147 _116_
*148 _117_
*149 _118_
*150 _119_
*151 _120_
*152 _121_
*153 _122_
*154 _123_
*155 _124_
*156 _125_
*157 _126_
*158 _127_
*159 _128_
*160 _129_
*161 _130_
*162 _131_
*163 _132_
*164 _133_
*165 _134_
*166 _135_
*167 _136_
*168 _137_
*169 _138_
*170 _139_
*171 _140_
*172 _141_
*173 _142_
*174 _143_
*175 _144_
*176 _145_
*177 _146_
*178 _147_
*179 _148_
*180 _149_
*181 _150_
*182 _151_
*183 _152_
*184 _153_
*185 _154_
*186 _155_
*187 _156_
*188 _157_
*189 _158_
*190 _159_
*191 _160_
*192 _161_
*193 _162_
*194 _163_
*195 _164_
*196 _165_
*197 _166_
*198 _167_
*199 _168_
*200 _169_
*201 _170_
*202 _171_
*203 _172_
*204 _173_
*205 _174_
*206 _175_
*207 _176_
*208 _177_
*209 _178_
*210 _179_
*211 _180_
*212 _181_
*213 _182_
*214 _183_
*215 _184_
*216 _185_
*217 _186_
*218 _187_
*219 _188_
*220 _189_
*221 _190_
*222 _191_
*223 _192_
*224 _193_
*225 _194_
*226 _195_
*227 _196_
*228 _197_
*229 _198_
*230 _199_
*231 _200_
*232 _201_
*233 _202_
*234 _203_
*235 _204_
*236 _205_
*237 _206_
*238 _207_
*239 _208_
*240 _209_
*241 _210_
*242 _211_
*243 _212_
*244 _213_
*245 _214_
*246 _215_
*247 _216_
*248 _217_
*249 _218_
*250 _219_
*251 _220_
*252 _221_
*253 _222_
*254 _223_
*255 _224_
*256 _225_
*257 _226_
*258 _227_
*259 _228_
*260 _229_
*261 _230_
*262 _231_
*263 _232_
*264 _233_
*265 _234_
*266 _235_
*267 _236_
*268 _237_
*269 _238_
*270 _239_
*271 _240_
*272 _241_
*273 _242_
*274 _243_
*275 _244_
*276 _245_
*277 _246_
*278 _247_
*279 _248_
*280 _249_
*281 _250_
*282 _251_
*283 _252_
*284 _253_
*285 _254_
*286 _255_
*287 _256_
*288 _257_
*289 _258_
*290 _259_
*291 _260_
*292 _261_
*293 _262_
*294 _263_
*295 _264_
*296 _265_
*297 _266_
*298 _267_
*299 _268_
*300 _269_
*301 _270_
*302 _271_
*303 _272_
*304 _273_
*305 _274_
*306 _275_
*307 _276_
*308 _277_
*309 _278_
*310 _279_
*311 _280_
*312 _281_
*313 _282_
*314 _283_
*315 _284_
*316 _285_
*317 _286_
*318 _287_
*319 _288_
*320 _289_
*321 _290_
*322 _291_
*323 _292_
*324 _293_
*325 _294_
*326 _295_
*327 _296_
*328 _297_
*329 _298_
*330 _299_
*331 _300_
*332 _301_
*333 _302_
*334 _303_
*335 _304_
*336 _305_
*337 _306_
*338 _307_
*339 _308_
*340 _309_
*341 _310_
*342 _311_
*343 _312_
*344 _313_
*345 _314_
*346 _315_
*347 _316_
*348 _317_
*349 _318_
*350 _319_
*351 _320_
*352 _321_
*353 _322_
*354 _323_
*355 _324_
*356 _325_
*357 _326_
*358 _327_
*359 _328_
*360 _329_
*361 _330_
*362 _331_
*363 _332_
*364 _333_
*365 _334_
*366 _335_
*367 _336_
*368 _337_
*369 _338_
*370 _339_
*371 _340_
*372 _341_
*373 _342_
*374 _343_
*375 _344_
*376 _345_
*377 _346_
*378 _347_
*379 _348_
*380 _349_
*381 _350_
*382 _351_
*383 _352_
*384 _353_
*385 _354_
*386 _355_
*387 _356_
*388 _357_
*389 _358_
*390 _359_
*391 _360_
*392 _361_
*393 _362_
*394 _363_
*395 _364_
*396 _365_
*397 _366_
*398 _367_
*399 _368_
*400 _369_
*401 _370_
*402 _371_
*403 _372_
*404 _373_
*405 _374_
*406 _375_
*407 _376_
*408 _377_
*409 _378_
*410 _379_
*411 _380_
*412 _381_
*413 _382_
*414 _383_
*415 _384_
*416 _385_
*417 _386_
*418 _387_
*419 _388_
*420 _389_
*421 _390_
*422 _391_
*423 _392_
*424 _393_
*425 _394_
*426 _395_
*427 _396_
*428 _397_
*429 _398_
*430 _399_
*431 _400_
*432 _401_
*433 _402_
*434 _403_
*435 _404_
*436 _405_
*437 _406_
*438 _407_
*439 _408_
*440 _409_
*441 _410_
*442 _411_
*443 _412_
*444 _413_
*445 _414_
*446 _415_
*447 _416_
*448 _417_
*449 _418_
*450 _419_
*451 _420_
*452 _421_
*453 _422_
*454 _423_
*455 _424_
*456 _425_
*457 _426_
*458 _427_
*459 _428_
*460 _429_
*461 _430_
*462 _431_
*463 _432_
*464 _433_
*465 _434_
*466 _435_
*467 _436_
*468 _437_
*469 _438_
*470 _439_
*471 _440_
*472 _441_
*473 _442_
*474 _443_
*475 _444_
*476 _445_
*477 _446_
*478 _447_
*479 _448_
*480 _449_
*481 _450_
*482 _451_
*483 _452_
*484 _453_
*485 _454_
*486 _455_
*487 _456_
*488 _457_
*489 net1
*490 net10
*491 net11
*492 net12
*493 net13
*494 net14
*495 net15
*496 net16
*497 net17
*498 net18
*499 net19
*500 net2
*501 net20
*502 net21
*503 net22
*504 net23
*505 net24
*506 net25
*507 net26
*508 net27
*509 net28
*510 net29
*511 net3
*512 net30
*513 net31
*514 net32
*515 net33
*516 net34
*517 net35
*518 net36
*519 net37
*520 net38
*521 net39
*522 net4
*523 net40
*524 net41
*525 net42
*526 net43
*527 net44
*528 net45
*529 net46
*530 net47
*531 net48
*532 net49
*533 net5
*534 net50
*535 net51
*536 net52
*537 net53
*538 net54
*539 net55
*540 net56
*541 net57
*542 net58
*543 net59
*544 net6
*545 net60
*546 net61
*547 net62
*548 net63
*549 net64
*550 net65
*551 net66
*552 net67
*553 net68
*554 net69
*555 net7
*556 net70
*557 net71
*558 net72
*559 net73
*560 net74
*561 net75
*562 net76
*563 net77
*564 net78
*565 net79
*566 net8
*567 net87
*568 net9
*569 net92
*570 FILLER_0_109
*571 FILLER_0_113
*572 FILLER_0_125
*573 FILLER_0_137
*574 FILLER_0_141
*575 FILLER_0_15
*576 FILLER_0_153
*577 FILLER_0_165
*578 FILLER_0_169
*579 FILLER_0_181
*580 FILLER_0_193
*581 FILLER_0_197
*582 FILLER_0_209
*583 FILLER_0_221
*584 FILLER_0_27
*585 FILLER_0_29
*586 FILLER_0_3
*587 FILLER_0_41
*588 FILLER_0_48
*589 FILLER_0_57
*590 FILLER_0_69
*591 FILLER_0_77
*592 FILLER_0_85
*593 FILLER_0_90
*594 FILLER_0_97
*595 FILLER_10_123
*596 FILLER_10_131
*597 FILLER_10_15
*598 FILLER_10_152
*599 FILLER_10_164
*600 FILLER_10_177
*601 FILLER_10_189
*602 FILLER_10_200
*603 FILLER_10_208
*604 FILLER_10_220
*605 FILLER_10_27
*606 FILLER_10_29
*607 FILLER_10_3
*608 FILLER_10_41
*609 FILLER_10_53
*610 FILLER_10_61
*611 FILLER_10_66
*612 FILLER_10_76
*613 FILLER_10_95
*614 FILLER_11_101
*615 FILLER_11_109
*616 FILLER_11_116
*617 FILLER_11_128
*618 FILLER_11_140
*619 FILLER_11_15
*620 FILLER_11_160
*621 FILLER_11_169
*622 FILLER_11_181
*623 FILLER_11_193
*624 FILLER_11_199
*625 FILLER_11_207
*626 FILLER_11_218
*627 FILLER_11_27
*628 FILLER_11_3
*629 FILLER_11_34
*630 FILLER_11_39
*631 FILLER_11_78
*632 FILLER_11_86
*633 FILLER_11_91
*634 FILLER_12_110
*635 FILLER_12_115
*636 FILLER_12_127
*637 FILLER_12_139
*638 FILLER_12_141
*639 FILLER_12_145
*640 FILLER_12_15
*641 FILLER_12_165
*642 FILLER_12_169
*643 FILLER_12_177
*644 FILLER_12_189
*645 FILLER_12_195
*646 FILLER_12_197
*647 FILLER_12_223
*648 FILLER_12_3
*649 FILLER_12_35
*650 FILLER_12_80
*651 FILLER_12_85
*652 FILLER_12_94
*653 FILLER_13_110
*654 FILLER_13_120
*655 FILLER_13_132
*656 FILLER_13_145
*657 FILLER_13_158
*658 FILLER_13_166
*659 FILLER_13_169
*660 FILLER_13_183
*661 FILLER_13_19
*662 FILLER_13_191
*663 FILLER_13_199
*664 FILLER_13_210
*665 FILLER_13_222
*666 FILLER_13_3
*667 FILLER_13_38
*668 FILLER_13_50
*669 FILLER_13_57
*670 FILLER_13_69
*671 FILLER_13_97
*672 FILLER_14_105
*673 FILLER_14_11
*674 FILLER_14_119
*675 FILLER_14_131
*676 FILLER_14_154
*677 FILLER_14_166
*678 FILLER_14_182
*679 FILLER_14_187
*680 FILLER_14_197
*681 FILLER_14_21
*682 FILLER_14_217
*683 FILLER_14_27
*684 FILLER_14_3
*685 FILLER_14_37
*686 FILLER_14_49
*687 FILLER_14_61
*688 FILLER_14_73
*689 FILLER_14_81
*690 FILLER_14_85
*691 FILLER_14_97
*692 FILLER_15_109
*693 FILLER_15_120
*694 FILLER_15_132
*695 FILLER_15_147
*696 FILLER_15_15
*697 FILLER_15_159
*698 FILLER_15_167
*699 FILLER_15_169
*700 FILLER_15_181
*701 FILLER_15_215
*702 FILLER_15_223
*703 FILLER_15_27
*704 FILLER_15_3
*705 FILLER_15_35
*706 FILLER_15_47
*707 FILLER_15_55
*708 FILLER_15_73
*709 FILLER_15_85
*710 FILLER_15_97
*711 FILLER_16_102
*712 FILLER_16_110
*713 FILLER_16_127
*714 FILLER_16_139
*715 FILLER_16_141
*716 FILLER_16_15
*717 FILLER_16_153
*718 FILLER_16_159
*719 FILLER_16_173
*720 FILLER_16_185
*721 FILLER_16_193
*722 FILLER_16_209
*723 FILLER_16_217
*724 FILLER_16_223
*725 FILLER_16_27
*726 FILLER_16_29
*727 FILLER_16_3
*728 FILLER_16_47
*729 FILLER_16_69
*730 FILLER_16_7
*731 FILLER_16_79
*732 FILLER_16_83
*733 FILLER_16_85
*734 FILLER_17_101
*735 FILLER_17_105
*736 FILLER_17_111
*737 FILLER_17_116
*738 FILLER_17_134
*739 FILLER_17_146
*740 FILLER_17_164
*741 FILLER_17_169
*742 FILLER_17_17
*743 FILLER_17_181
*744 FILLER_17_193
*745 FILLER_17_201
*746 FILLER_17_208
*747 FILLER_17_220
*748 FILLER_17_29
*749 FILLER_17_62
*750 FILLER_17_89
*751 FILLER_18_104
*752 FILLER_18_109
*753 FILLER_18_123
*754 FILLER_18_130
*755 FILLER_18_138
*756 FILLER_18_141
*757 FILLER_18_15
*758 FILLER_18_153
*759 FILLER_18_161
*760 FILLER_18_175
*761 FILLER_18_194
*762 FILLER_18_197
*763 FILLER_18_218
*764 FILLER_18_27
*765 FILLER_18_3
*766 FILLER_18_41
*767 FILLER_18_60
*768 FILLER_18_68
*769 FILLER_18_75
*770 FILLER_18_83
*771 FILLER_18_85
*772 FILLER_18_92
*773 FILLER_19_102
*774 FILLER_19_110
*775 FILLER_19_118
*776 FILLER_19_122
*777 FILLER_19_134
*778 FILLER_19_142
*779 FILLER_19_155
*780 FILLER_19_163
*781 FILLER_19_176
*782 FILLER_19_188
*783 FILLER_19_192
*784 FILLER_19_217
*785 FILLER_19_223
*786 FILLER_19_27
*787 FILLER_19_3
*788 FILLER_19_35
*789 FILLER_19_52
*790 FILLER_19_57
*791 FILLER_19_84
*792 FILLER_19_96
*793 FILLER_1_105
*794 FILLER_1_111
*795 FILLER_1_113
*796 FILLER_1_125
*797 FILLER_1_137
*798 FILLER_1_149
*799 FILLER_1_15
*800 FILLER_1_161
*801 FILLER_1_167
*802 FILLER_1_169
*803 FILLER_1_181
*804 FILLER_1_193
*805 FILLER_1_205
*806 FILLER_1_217
*807 FILLER_1_223
*808 FILLER_1_27
*809 FILLER_1_3
*810 FILLER_1_39
*811 FILLER_1_51
*812 FILLER_1_55
*813 FILLER_1_57
*814 FILLER_1_69
*815 FILLER_1_81
*816 FILLER_1_93
*817 FILLER_20_109
*818 FILLER_20_122
*819 FILLER_20_134
*820 FILLER_20_141
*821 FILLER_20_15
*822 FILLER_20_164
*823 FILLER_20_176
*824 FILLER_20_188
*825 FILLER_20_200
*826 FILLER_20_209
*827 FILLER_20_221
*828 FILLER_20_29
*829 FILLER_20_3
*830 FILLER_20_37
*831 FILLER_20_43
*832 FILLER_20_55
*833 FILLER_20_63
*834 FILLER_20_74
*835 FILLER_20_82
*836 FILLER_20_85
*837 FILLER_20_97
*838 FILLER_21_105
*839 FILLER_21_11
*840 FILLER_21_113
*841 FILLER_21_126
*842 FILLER_21_138
*843 FILLER_21_142
*844 FILLER_21_148
*845 FILLER_21_155
*846 FILLER_21_167
*847 FILLER_21_169
*848 FILLER_21_177
*849 FILLER_21_191
*850 FILLER_21_203
*851 FILLER_21_215
*852 FILLER_21_223
*853 FILLER_21_23
*854 FILLER_21_3
*855 FILLER_21_52
*856 FILLER_21_57
*857 FILLER_21_68
*858 FILLER_21_77
*859 FILLER_21_83
*860 FILLER_21_91
*861 FILLER_21_98
*862 FILLER_22_103
*863 FILLER_22_141
*864 FILLER_22_145
*865 FILLER_22_151
*866 FILLER_22_16
*867 FILLER_22_165
*868 FILLER_22_177
*869 FILLER_22_189
*870 FILLER_22_195
*871 FILLER_22_206
*872 FILLER_22_213
*873 FILLER_22_221
*874 FILLER_22_25
*875 FILLER_22_29
*876 FILLER_22_3
*877 FILLER_22_41
*878 FILLER_22_47
*879 FILLER_22_59
*880 FILLER_22_69
*881 FILLER_22_75
*882 FILLER_22_91
*883 FILLER_23_108
*884 FILLER_23_117
*885 FILLER_23_129
*886 FILLER_23_167
*887 FILLER_23_172
*888 FILLER_23_180
*889 FILLER_23_187
*890 FILLER_23_195
*891 FILLER_23_200
*892 FILLER_23_206
*893 FILLER_23_211
*894 FILLER_23_22
*895 FILLER_23_223
*896 FILLER_23_3
*897 FILLER_23_34
*898 FILLER_23_46
*899 FILLER_23_54
*900 FILLER_23_57
*901 FILLER_23_62
*902 FILLER_23_70
*903 FILLER_23_86
*904 FILLER_23_92
*905 FILLER_23_96
*906 FILLER_24_105
*907 FILLER_24_117
*908 FILLER_24_129
*909 FILLER_24_137
*910 FILLER_24_141
*911 FILLER_24_151
*912 FILLER_24_155
*913 FILLER_24_174
*914 FILLER_24_195
*915 FILLER_24_202
*916 FILLER_24_223
*917 FILLER_24_29
*918 FILLER_24_3
*919 FILLER_24_41
*920 FILLER_24_50
*921 FILLER_24_54
*922 FILLER_24_69
*923 FILLER_24_75
*924 FILLER_24_83
*925 FILLER_24_85
*926 FILLER_24_89
*927 FILLER_24_9
*928 FILLER_24_97
*929 FILLER_25_11
*930 FILLER_25_117
*931 FILLER_25_121
*932 FILLER_25_129
*933 FILLER_25_141
*934 FILLER_25_154
*935 FILLER_25_166
*936 FILLER_25_169
*937 FILLER_25_181
*938 FILLER_25_192
*939 FILLER_25_208
*940 FILLER_25_214
*941 FILLER_25_222
*942 FILLER_25_3
*943 FILLER_25_52
*944 FILLER_25_79
*945 FILLER_25_91
*946 FILLER_25_95
*947 FILLER_26_115
*948 FILLER_26_134
*949 FILLER_26_153
*950 FILLER_26_165
*951 FILLER_26_177
*952 FILLER_26_181
*953 FILLER_26_190
*954 FILLER_26_197
*955 FILLER_26_209
*956 FILLER_26_22
*957 FILLER_26_221
*958 FILLER_26_29
*959 FILLER_26_49
*960 FILLER_26_6
*961 FILLER_26_83
*962 FILLER_26_85
*963 FILLER_27_101
*964 FILLER_27_109
*965 FILLER_27_113
*966 FILLER_27_125
*967 FILLER_27_142
*968 FILLER_27_154
*969 FILLER_27_166
*970 FILLER_27_169
*971 FILLER_27_181
*972 FILLER_27_188
*973 FILLER_27_193
*974 FILLER_27_205
*975 FILLER_27_219
*976 FILLER_27_223
*977 FILLER_27_29
*978 FILLER_27_3
*979 FILLER_27_35
*980 FILLER_27_39
*981 FILLER_27_57
*982 FILLER_27_69
*983 FILLER_27_81
*984 FILLER_27_89
*985 FILLER_28_102
*986 FILLER_28_114
*987 FILLER_28_126
*988 FILLER_28_132
*989 FILLER_28_136
*990 FILLER_28_141
*991 FILLER_28_149
*992 FILLER_28_173
*993 FILLER_28_194
*994 FILLER_28_203
*995 FILLER_28_208
*996 FILLER_28_216
*997 FILLER_28_3
*998 FILLER_28_32
*999 FILLER_28_40
*1000 FILLER_28_53
*1001 FILLER_28_65
*1002 FILLER_28_76
*1003 FILLER_28_85
*1004 FILLER_29_105
*1005 FILLER_29_11
*1006 FILLER_29_111
*1007 FILLER_29_113
*1008 FILLER_29_125
*1009 FILLER_29_131
*1010 FILLER_29_143
*1011 FILLER_29_151
*1012 FILLER_29_167
*1013 FILLER_29_169
*1014 FILLER_29_188
*1015 FILLER_29_19
*1016 FILLER_29_200
*1017 FILLER_29_220
*1018 FILLER_29_3
*1019 FILLER_29_31
*1020 FILLER_29_46
*1021 FILLER_29_54
*1022 FILLER_29_57
*1023 FILLER_29_69
*1024 FILLER_29_81
*1025 FILLER_29_93
*1026 FILLER_2_109
*1027 FILLER_2_121
*1028 FILLER_2_133
*1029 FILLER_2_139
*1030 FILLER_2_141
*1031 FILLER_2_15
*1032 FILLER_2_153
*1033 FILLER_2_165
*1034 FILLER_2_177
*1035 FILLER_2_189
*1036 FILLER_2_195
*1037 FILLER_2_197
*1038 FILLER_2_209
*1039 FILLER_2_221
*1040 FILLER_2_27
*1041 FILLER_2_29
*1042 FILLER_2_3
*1043 FILLER_2_41
*1044 FILLER_2_53
*1045 FILLER_2_65
*1046 FILLER_2_77
*1047 FILLER_2_83
*1048 FILLER_2_85
*1049 FILLER_2_97
*1050 FILLER_30_104
*1051 FILLER_30_112
*1052 FILLER_30_120
*1053 FILLER_30_124
*1054 FILLER_30_137
*1055 FILLER_30_141
*1056 FILLER_30_151
*1057 FILLER_30_157
*1058 FILLER_30_162
*1059 FILLER_30_174
*1060 FILLER_30_186
*1061 FILLER_30_194
*1062 FILLER_30_197
*1063 FILLER_30_29
*1064 FILLER_30_55
*1065 FILLER_30_67
*1066 FILLER_30_81
*1067 FILLER_30_85
*1068 FILLER_30_93
*1069 FILLER_31_111
*1070 FILLER_31_113
*1071 FILLER_31_123
*1072 FILLER_31_129
*1073 FILLER_31_135
*1074 FILLER_31_139
*1075 FILLER_31_15
*1076 FILLER_31_160
*1077 FILLER_31_169
*1078 FILLER_31_183
*1079 FILLER_31_195
*1080 FILLER_31_211
*1081 FILLER_31_27
*1082 FILLER_31_3
*1083 FILLER_31_39
*1084 FILLER_31_57
*1085 FILLER_31_63
*1086 FILLER_31_87
*1087 FILLER_32_109
*1088 FILLER_32_11
*1089 FILLER_32_119
*1090 FILLER_32_139
*1091 FILLER_32_141
*1092 FILLER_32_153
*1093 FILLER_32_166
*1094 FILLER_32_172
*1095 FILLER_32_178
*1096 FILLER_32_185
*1097 FILLER_32_205
*1098 FILLER_32_217
*1099 FILLER_32_23
*1100 FILLER_32_27
*1101 FILLER_32_29
*1102 FILLER_32_3
*1103 FILLER_32_41
*1104 FILLER_32_51
*1105 FILLER_32_70
*1106 FILLER_32_75
*1107 FILLER_32_83
*1108 FILLER_32_85
*1109 FILLER_32_97
*1110 FILLER_33_105
*1111 FILLER_33_111
*1112 FILLER_33_113
*1113 FILLER_33_125
*1114 FILLER_33_13
*1115 FILLER_33_137
*1116 FILLER_33_149
*1117 FILLER_33_191
*1118 FILLER_33_203
*1119 FILLER_33_216
*1120 FILLER_33_23
*1121 FILLER_33_27
*1122 FILLER_33_3
*1123 FILLER_33_39
*1124 FILLER_33_48
*1125 FILLER_33_57
*1126 FILLER_33_69
*1127 FILLER_33_81
*1128 FILLER_33_93
*1129 FILLER_34_103
*1130 FILLER_34_115
*1131 FILLER_34_129
*1132 FILLER_34_14
*1133 FILLER_34_150
*1134 FILLER_34_160
*1135 FILLER_34_168
*1136 FILLER_34_173
*1137 FILLER_34_185
*1138 FILLER_34_193
*1139 FILLER_34_197
*1140 FILLER_34_209
*1141 FILLER_34_21
*1142 FILLER_34_221
*1143 FILLER_34_27
*1144 FILLER_34_29
*1145 FILLER_34_3
*1146 FILLER_34_41
*1147 FILLER_34_53
*1148 FILLER_34_65
*1149 FILLER_34_73
*1150 FILLER_34_79
*1151 FILLER_34_83
*1152 FILLER_34_85
*1153 FILLER_34_89
*1154 FILLER_35_108
*1155 FILLER_35_113
*1156 FILLER_35_150
*1157 FILLER_35_164
*1158 FILLER_35_169
*1159 FILLER_35_177
*1160 FILLER_35_185
*1161 FILLER_35_197
*1162 FILLER_35_209
*1163 FILLER_35_213
*1164 FILLER_35_217
*1165 FILLER_35_223
*1166 FILLER_35_26
*1167 FILLER_35_30
*1168 FILLER_35_51
*1169 FILLER_35_55
*1170 FILLER_35_57
*1171 FILLER_35_6
*1172 FILLER_35_82
*1173 FILLER_35_94
*1174 FILLER_36_105
*1175 FILLER_36_111
*1176 FILLER_36_121
*1177 FILLER_36_138
*1178 FILLER_36_161
*1179 FILLER_36_174
*1180 FILLER_36_184
*1181 FILLER_36_19
*1182 FILLER_36_195
*1183 FILLER_36_197
*1184 FILLER_36_201
*1185 FILLER_36_216
*1186 FILLER_36_29
*1187 FILLER_36_3
*1188 FILLER_36_47
*1189 FILLER_36_55
*1190 FILLER_36_63
*1191 FILLER_36_71
*1192 FILLER_36_83
*1193 FILLER_36_85
*1194 FILLER_36_89
*1195 FILLER_36_99
*1196 FILLER_37_107
*1197 FILLER_37_113
*1198 FILLER_37_15
*1199 FILLER_37_179
*1200 FILLER_37_191
*1201 FILLER_37_195
*1202 FILLER_37_197
*1203 FILLER_37_208
*1204 FILLER_37_220
*1205 FILLER_37_23
*1206 FILLER_37_29
*1207 FILLER_37_3
*1208 FILLER_37_36
*1209 FILLER_37_43
*1210 FILLER_37_55
*1211 FILLER_37_57
*1212 FILLER_37_69
*1213 FILLER_37_77
*1214 FILLER_37_83
*1215 FILLER_37_85
*1216 FILLER_37_90
*1217 FILLER_37_98
*1218 FILLER_3_105
*1219 FILLER_3_111
*1220 FILLER_3_113
*1221 FILLER_3_125
*1222 FILLER_3_137
*1223 FILLER_3_149
*1224 FILLER_3_15
*1225 FILLER_3_161
*1226 FILLER_3_167
*1227 FILLER_3_169
*1228 FILLER_3_181
*1229 FILLER_3_193
*1230 FILLER_3_205
*1231 FILLER_3_217
*1232 FILLER_3_223
*1233 FILLER_3_27
*1234 FILLER_3_3
*1235 FILLER_3_39
*1236 FILLER_3_51
*1237 FILLER_3_55
*1238 FILLER_3_57
*1239 FILLER_3_69
*1240 FILLER_3_81
*1241 FILLER_3_93
*1242 FILLER_4_109
*1243 FILLER_4_132
*1244 FILLER_4_148
*1245 FILLER_4_15
*1246 FILLER_4_160
*1247 FILLER_4_172
*1248 FILLER_4_184
*1249 FILLER_4_197
*1250 FILLER_4_209
*1251 FILLER_4_221
*1252 FILLER_4_27
*1253 FILLER_4_29
*1254 FILLER_4_3
*1255 FILLER_4_41
*1256 FILLER_4_53
*1257 FILLER_4_65
*1258 FILLER_4_77
*1259 FILLER_4_83
*1260 FILLER_4_85
*1261 FILLER_4_97
*1262 FILLER_5_123
*1263 FILLER_5_143
*1264 FILLER_5_15
*1265 FILLER_5_155
*1266 FILLER_5_166
*1267 FILLER_5_169
*1268 FILLER_5_181
*1269 FILLER_5_193
*1270 FILLER_5_205
*1271 FILLER_5_217
*1272 FILLER_5_223
*1273 FILLER_5_27
*1274 FILLER_5_3
*1275 FILLER_5_39
*1276 FILLER_5_51
*1277 FILLER_5_55
*1278 FILLER_5_57
*1279 FILLER_5_69
*1280 FILLER_5_77
*1281 FILLER_5_85
*1282 FILLER_5_97
*1283 FILLER_6_104
*1284 FILLER_6_114
*1285 FILLER_6_126
*1286 FILLER_6_134
*1287 FILLER_6_146
*1288 FILLER_6_15
*1289 FILLER_6_158
*1290 FILLER_6_170
*1291 FILLER_6_176
*1292 FILLER_6_184
*1293 FILLER_6_194
*1294 FILLER_6_197
*1295 FILLER_6_209
*1296 FILLER_6_221
*1297 FILLER_6_27
*1298 FILLER_6_29
*1299 FILLER_6_3
*1300 FILLER_6_41
*1301 FILLER_6_53
*1302 FILLER_6_65
*1303 FILLER_6_92
*1304 FILLER_7_109
*1305 FILLER_7_113
*1306 FILLER_7_121
*1307 FILLER_7_127
*1308 FILLER_7_139
*1309 FILLER_7_15
*1310 FILLER_7_151
*1311 FILLER_7_163
*1312 FILLER_7_187
*1313 FILLER_7_199
*1314 FILLER_7_211
*1315 FILLER_7_223
*1316 FILLER_7_27
*1317 FILLER_7_3
*1318 FILLER_7_39
*1319 FILLER_7_52
*1320 FILLER_7_64
*1321 FILLER_7_69
*1322 FILLER_7_81
*1323 FILLER_7_97
*1324 FILLER_8_109
*1325 FILLER_8_113
*1326 FILLER_8_130
*1327 FILLER_8_138
*1328 FILLER_8_141
*1329 FILLER_8_15
*1330 FILLER_8_153
*1331 FILLER_8_166
*1332 FILLER_8_178
*1333 FILLER_8_187
*1334 FILLER_8_195
*1335 FILLER_8_197
*1336 FILLER_8_203
*1337 FILLER_8_223
*1338 FILLER_8_27
*1339 FILLER_8_29
*1340 FILLER_8_3
*1341 FILLER_8_41
*1342 FILLER_8_45
*1343 FILLER_8_56
*1344 FILLER_8_72
*1345 FILLER_8_97
*1346 FILLER_9_101
*1347 FILLER_9_109
*1348 FILLER_9_113
*1349 FILLER_9_117
*1350 FILLER_9_134
*1351 FILLER_9_146
*1352 FILLER_9_15
*1353 FILLER_9_161
*1354 FILLER_9_167
*1355 FILLER_9_177
*1356 FILLER_9_189
*1357 FILLER_9_193
*1358 FILLER_9_203
*1359 FILLER_9_210
*1360 FILLER_9_218
*1361 FILLER_9_27
*1362 FILLER_9_3
*1363 FILLER_9_39
*1364 FILLER_9_48
*1365 FILLER_9_57
*1366 FILLER_9_67
*1367 FILLER_9_73
*1368 FILLER_9_85
*1369 PHY_EDGE_ROW_0_Left_38
*1370 PHY_EDGE_ROW_0_Right_0
*1371 PHY_EDGE_ROW_10_Left_48
*1372 PHY_EDGE_ROW_10_Right_10
*1373 PHY_EDGE_ROW_11_Left_49
*1374 PHY_EDGE_ROW_11_Right_11
*1375 PHY_EDGE_ROW_12_Left_50
*1376 PHY_EDGE_ROW_12_Right_12
*1377 PHY_EDGE_ROW_13_Left_51
*1378 PHY_EDGE_ROW_13_Right_13
*1379 PHY_EDGE_ROW_14_Left_52
*1380 PHY_EDGE_ROW_14_Right_14
*1381 PHY_EDGE_ROW_15_Left_53
*1382 PHY_EDGE_ROW_15_Right_15
*1383 PHY_EDGE_ROW_16_Left_54
*1384 PHY_EDGE_ROW_16_Right_16
*1385 PHY_EDGE_ROW_17_Left_55
*1386 PHY_EDGE_ROW_17_Right_17
*1387 PHY_EDGE_ROW_18_Left_56
*1388 PHY_EDGE_ROW_18_Right_18
*1389 PHY_EDGE_ROW_19_Left_57
*1390 PHY_EDGE_ROW_19_Right_19
*1391 PHY_EDGE_ROW_1_Left_39
*1392 PHY_EDGE_ROW_1_Right_1
*1393 PHY_EDGE_ROW_20_Left_58
*1394 PHY_EDGE_ROW_20_Right_20
*1395 PHY_EDGE_ROW_21_Left_59
*1396 PHY_EDGE_ROW_21_Right_21
*1397 PHY_EDGE_ROW_22_Left_60
*1398 PHY_EDGE_ROW_22_Right_22
*1399 PHY_EDGE_ROW_23_Left_61
*1400 PHY_EDGE_ROW_23_Right_23
*1401 PHY_EDGE_ROW_24_Left_62
*1402 PHY_EDGE_ROW_24_Right_24
*1403 PHY_EDGE_ROW_25_Left_63
*1404 PHY_EDGE_ROW_25_Right_25
*1405 PHY_EDGE_ROW_26_Left_64
*1406 PHY_EDGE_ROW_26_Right_26
*1407 PHY_EDGE_ROW_27_Left_65
*1408 PHY_EDGE_ROW_27_Right_27
*1409 PHY_EDGE_ROW_28_Left_66
*1410 PHY_EDGE_ROW_28_Right_28
*1411 PHY_EDGE_ROW_29_Left_67
*1412 PHY_EDGE_ROW_29_Right_29
*1413 PHY_EDGE_ROW_2_Left_40
*1414 PHY_EDGE_ROW_2_Right_2
*1415 PHY_EDGE_ROW_30_Left_68
*1416 PHY_EDGE_ROW_30_Right_30
*1417 PHY_EDGE_ROW_31_Left_69
*1418 PHY_EDGE_ROW_31_Right_31
*1419 PHY_EDGE_ROW_32_Left_70
*1420 PHY_EDGE_ROW_32_Right_32
*1421 PHY_EDGE_ROW_33_Left_71
*1422 PHY_EDGE_ROW_33_Right_33
*1423 PHY_EDGE_ROW_34_Left_72
*1424 PHY_EDGE_ROW_34_Right_34
*1425 PHY_EDGE_ROW_35_Left_73
*1426 PHY_EDGE_ROW_35_Right_35
*1427 PHY_EDGE_ROW_36_Left_74
*1428 PHY_EDGE_ROW_36_Right_36
*1429 PHY_EDGE_ROW_37_Left_75
*1430 PHY_EDGE_ROW_37_Right_37
*1431 PHY_EDGE_ROW_3_Left_41
*1432 PHY_EDGE_ROW_3_Right_3
*1433 PHY_EDGE_ROW_4_Left_42
*1434 PHY_EDGE_ROW_4_Right_4
*1435 PHY_EDGE_ROW_5_Left_43
*1436 PHY_EDGE_ROW_5_Right_5
*1437 PHY_EDGE_ROW_6_Left_44
*1438 PHY_EDGE_ROW_6_Right_6
*1439 PHY_EDGE_ROW_7_Left_45
*1440 PHY_EDGE_ROW_7_Right_7
*1441 PHY_EDGE_ROW_8_Left_46
*1442 PHY_EDGE_ROW_8_Right_8
*1443 PHY_EDGE_ROW_9_Left_47
*1444 PHY_EDGE_ROW_9_Right_9
*1445 TAP_TAPCELL_ROW_0_76
*1446 TAP_TAPCELL_ROW_0_77
*1447 TAP_TAPCELL_ROW_0_78
*1448 TAP_TAPCELL_ROW_0_79
*1449 TAP_TAPCELL_ROW_0_80
*1450 TAP_TAPCELL_ROW_0_81
*1451 TAP_TAPCELL_ROW_0_82
*1452 TAP_TAPCELL_ROW_10_114
*1453 TAP_TAPCELL_ROW_10_115
*1454 TAP_TAPCELL_ROW_10_116
*1455 TAP_TAPCELL_ROW_10_117
*1456 TAP_TAPCELL_ROW_11_118
*1457 TAP_TAPCELL_ROW_11_119
*1458 TAP_TAPCELL_ROW_11_120
*1459 TAP_TAPCELL_ROW_12_121
*1460 TAP_TAPCELL_ROW_12_122
*1461 TAP_TAPCELL_ROW_12_123
*1462 TAP_TAPCELL_ROW_12_124
*1463 TAP_TAPCELL_ROW_13_125
*1464 TAP_TAPCELL_ROW_13_126
*1465 TAP_TAPCELL_ROW_13_127
*1466 TAP_TAPCELL_ROW_14_128
*1467 TAP_TAPCELL_ROW_14_129
*1468 TAP_TAPCELL_ROW_14_130
*1469 TAP_TAPCELL_ROW_14_131
*1470 TAP_TAPCELL_ROW_15_132
*1471 TAP_TAPCELL_ROW_15_133
*1472 TAP_TAPCELL_ROW_15_134
*1473 TAP_TAPCELL_ROW_16_135
*1474 TAP_TAPCELL_ROW_16_136
*1475 TAP_TAPCELL_ROW_16_137
*1476 TAP_TAPCELL_ROW_16_138
*1477 TAP_TAPCELL_ROW_17_139
*1478 TAP_TAPCELL_ROW_17_140
*1479 TAP_TAPCELL_ROW_17_141
*1480 TAP_TAPCELL_ROW_18_142
*1481 TAP_TAPCELL_ROW_18_143
*1482 TAP_TAPCELL_ROW_18_144
*1483 TAP_TAPCELL_ROW_18_145
*1484 TAP_TAPCELL_ROW_19_146
*1485 TAP_TAPCELL_ROW_19_147
*1486 TAP_TAPCELL_ROW_19_148
*1487 TAP_TAPCELL_ROW_1_83
*1488 TAP_TAPCELL_ROW_1_84
*1489 TAP_TAPCELL_ROW_1_85
*1490 TAP_TAPCELL_ROW_20_149
*1491 TAP_TAPCELL_ROW_20_150
*1492 TAP_TAPCELL_ROW_20_151
*1493 TAP_TAPCELL_ROW_20_152
*1494 TAP_TAPCELL_ROW_21_153
*1495 TAP_TAPCELL_ROW_21_154
*1496 TAP_TAPCELL_ROW_21_155
*1497 TAP_TAPCELL_ROW_22_156
*1498 TAP_TAPCELL_ROW_22_157
*1499 TAP_TAPCELL_ROW_22_158
*1500 TAP_TAPCELL_ROW_22_159
*1501 TAP_TAPCELL_ROW_23_160
*1502 TAP_TAPCELL_ROW_23_161
*1503 TAP_TAPCELL_ROW_23_162
*1504 TAP_TAPCELL_ROW_24_163
*1505 TAP_TAPCELL_ROW_24_164
*1506 TAP_TAPCELL_ROW_24_165
*1507 TAP_TAPCELL_ROW_24_166
*1508 TAP_TAPCELL_ROW_25_167
*1509 TAP_TAPCELL_ROW_25_168
*1510 TAP_TAPCELL_ROW_25_169
*1511 TAP_TAPCELL_ROW_26_170
*1512 TAP_TAPCELL_ROW_26_171
*1513 TAP_TAPCELL_ROW_26_172
*1514 TAP_TAPCELL_ROW_26_173
*1515 TAP_TAPCELL_ROW_27_174
*1516 TAP_TAPCELL_ROW_27_175
*1517 TAP_TAPCELL_ROW_27_176
*1518 TAP_TAPCELL_ROW_28_177
*1519 TAP_TAPCELL_ROW_28_178
*1520 TAP_TAPCELL_ROW_28_179
*1521 TAP_TAPCELL_ROW_28_180
*1522 TAP_TAPCELL_ROW_29_181
*1523 TAP_TAPCELL_ROW_29_182
*1524 TAP_TAPCELL_ROW_29_183
*1525 TAP_TAPCELL_ROW_2_86
*1526 TAP_TAPCELL_ROW_2_87
*1527 TAP_TAPCELL_ROW_2_88
*1528 TAP_TAPCELL_ROW_2_89
*1529 TAP_TAPCELL_ROW_30_184
*1530 TAP_TAPCELL_ROW_30_185
*1531 TAP_TAPCELL_ROW_30_186
*1532 TAP_TAPCELL_ROW_30_187
*1533 TAP_TAPCELL_ROW_31_188
*1534 TAP_TAPCELL_ROW_31_189
*1535 TAP_TAPCELL_ROW_31_190
*1536 TAP_TAPCELL_ROW_32_191
*1537 TAP_TAPCELL_ROW_32_192
*1538 TAP_TAPCELL_ROW_32_193
*1539 TAP_TAPCELL_ROW_32_194
*1540 TAP_TAPCELL_ROW_33_195
*1541 TAP_TAPCELL_ROW_33_196
*1542 TAP_TAPCELL_ROW_33_197
*1543 TAP_TAPCELL_ROW_34_198
*1544 TAP_TAPCELL_ROW_34_199
*1545 TAP_TAPCELL_ROW_34_200
*1546 TAP_TAPCELL_ROW_34_201
*1547 TAP_TAPCELL_ROW_35_202
*1548 TAP_TAPCELL_ROW_35_203
*1549 TAP_TAPCELL_ROW_35_204
*1550 TAP_TAPCELL_ROW_36_205
*1551 TAP_TAPCELL_ROW_36_206
*1552 TAP_TAPCELL_ROW_36_207
*1553 TAP_TAPCELL_ROW_36_208
*1554 TAP_TAPCELL_ROW_37_209
*1555 TAP_TAPCELL_ROW_37_210
*1556 TAP_TAPCELL_ROW_37_211
*1557 TAP_TAPCELL_ROW_37_212
*1558 TAP_TAPCELL_ROW_37_213
*1559 TAP_TAPCELL_ROW_37_214
*1560 TAP_TAPCELL_ROW_37_215
*1561 TAP_TAPCELL_ROW_3_90
*1562 TAP_TAPCELL_ROW_3_91
*1563 TAP_TAPCELL_ROW_3_92
*1564 TAP_TAPCELL_ROW_4_93
*1565 TAP_TAPCELL_ROW_4_94
*1566 TAP_TAPCELL_ROW_4_95
*1567 TAP_TAPCELL_ROW_4_96
*1568 TAP_TAPCELL_ROW_5_97
*1569 TAP_TAPCELL_ROW_5_98
*1570 TAP_TAPCELL_ROW_5_99
*1571 TAP_TAPCELL_ROW_6_100
*1572 TAP_TAPCELL_ROW_6_101
*1573 TAP_TAPCELL_ROW_6_102
*1574 TAP_TAPCELL_ROW_6_103
*1575 TAP_TAPCELL_ROW_7_104
*1576 TAP_TAPCELL_ROW_7_105
*1577 TAP_TAPCELL_ROW_7_106
*1578 TAP_TAPCELL_ROW_8_107
*1579 TAP_TAPCELL_ROW_8_108
*1580 TAP_TAPCELL_ROW_8_109
*1581 TAP_TAPCELL_ROW_8_110
*1582 TAP_TAPCELL_ROW_9_111
*1583 TAP_TAPCELL_ROW_9_112
*1584 TAP_TAPCELL_ROW_9_113
*1585 _458_
*1586 _459_
*1587 _460_
*1588 _461_
*1589 _462_
*1590 _463_
*1591 _464_
*1592 _465_
*1593 _466_
*1594 _467_
*1595 _468_
*1596 _469_
*1597 _470_
*1598 _471_
*1599 _472_
*1600 _473_
*1601 _474_
*1602 _475_
*1603 _476_
*1604 _477_
*1605 _478_
*1606 _479_
*1607 _480_
*1608 _481_
*1609 _482_
*1610 _483_
*1611 _484_
*1612 _485_
*1613 _486_
*1614 _487_
*1615 _488_
*1616 _489_
*1617 _490_
*1618 _491_
*1619 _492_
*1620 _493_
*1621 _494_
*1622 _495_
*1623 _496_
*1624 _497_
*1625 _498_
*1626 _499_
*1627 _500_
*1628 _501_
*1629 _502_
*1630 _503_
*1631 _504_
*1632 _505_
*1633 _506_
*1634 _507_
*1635 _508_
*1636 _509_
*1637 _510_
*1638 _511_
*1639 _512_
*1640 _513_
*1641 _514_
*1642 _515_
*1643 _516_
*1644 _517_
*1645 _518_
*1646 _519_
*1647 _520_
*1648 _521_
*1649 _522_
*1650 _523_
*1651 _524_
*1652 _525_
*1653 _526_
*1654 _527_
*1655 _528_
*1656 _529_
*1657 _530_
*1658 _531_
*1659 _532_
*1660 _533_
*1661 _534_
*1662 _535_
*1663 _536_
*1664 _537_
*1665 _538_
*1666 _539_
*1667 _540_
*1668 _541_
*1669 _542_
*1670 _543_
*1671 _544_
*1672 _545_
*1673 _546_
*1674 _547_
*1675 _548_
*1676 _549_
*1677 _550_
*1678 _551_
*1679 _552_
*1680 _553_
*1681 _554_
*1682 _555_
*1683 _556_
*1684 _557_
*1685 _558_
*1686 _559_
*1687 _560_
*1688 _561_
*1689 _562_
*1690 _563_
*1691 _564_
*1692 _565_
*1693 _566_
*1694 _567_
*1695 _568_
*1696 _569_
*1697 _570_
*1698 _571_
*1699 _572_
*1700 _573_
*1701 _574_
*1702 _575_
*1703 _576_
*1704 _577_
*1705 _578_
*1706 _579_
*1707 _580_
*1708 _581_
*1709 _582_
*1710 _583_
*1711 _584_
*1712 _585_
*1713 _586_
*1714 _587_
*1715 _588_
*1716 _589_
*1717 _590_
*1718 _591_
*1719 _592_
*1720 _593_
*1721 _594_
*1722 _595_
*1723 _596_
*1724 _597_
*1725 _598_
*1726 _599_
*1727 _600_
*1728 _601_
*1729 _602_
*1730 _603_
*1731 _604_
*1732 _605_
*1733 _606_
*1734 _607_
*1735 _608_
*1736 _609_
*1737 _610_
*1738 _611_
*1739 _612_
*1740 _613_
*1741 _614_
*1742 _615_
*1743 _616_
*1744 _617_
*1745 _618_
*1746 _619_
*1747 _620_
*1748 _621_
*1749 _622_
*1750 _623_
*1751 _624_
*1752 _625_
*1753 _626_
*1754 _627_
*1755 _628_
*1756 _629_
*1757 _630_
*1758 _631_
*1759 _632_
*1760 _633_
*1761 _634_
*1762 _635_
*1763 _636_
*1764 _637_
*1765 _638_
*1766 _639_
*1767 _640_
*1768 _641_
*1769 _642_
*1770 _643_
*1771 _644_
*1772 _645_
*1773 _646_
*1774 _647_
*1775 _648_
*1776 _649_
*1777 _650_
*1778 _651_
*1779 _652_
*1780 _653_
*1781 _654_
*1782 _655_
*1783 _656_
*1784 _657_
*1785 _658_
*1786 _659_
*1787 _660_
*1788 _661_
*1789 _662_
*1790 _663_
*1791 _664_
*1792 _665_
*1793 _666_
*1794 _667_
*1795 _668_
*1796 _669_
*1797 _670_
*1798 _671_
*1799 _672_
*1800 _673_
*1801 _674_
*1802 _675_
*1803 _676_
*1804 _677_
*1805 _678_
*1806 _679_
*1807 _680_
*1808 _681_
*1809 _682_
*1810 _683_
*1811 _684_
*1812 _685_
*1813 _686_
*1814 _687_
*1815 _688_
*1816 _689_
*1817 _690_
*1818 _691_
*1819 _692_
*1820 _693_
*1821 _694_
*1822 _695_
*1823 _696_
*1824 _697_
*1825 _698_
*1826 _699_
*1827 _700_
*1828 _701_
*1829 _702_
*1830 _703_
*1831 _704_
*1832 _705_
*1833 _706_
*1834 _707_
*1835 _708_
*1836 _709_
*1837 _710_
*1838 _711_
*1839 _712_
*1840 _713_
*1841 _714_
*1842 _715_
*1843 _716_
*1844 _717_
*1845 _718_
*1846 _719_
*1847 _720_
*1848 _721_
*1849 _722_
*1850 _723_
*1851 _724_
*1852 _725_
*1853 _726_
*1854 _727_
*1855 _728_
*1856 _729_
*1857 _730_
*1858 _731_
*1859 _732_
*1860 _733_
*1861 _734_
*1862 _735_
*1863 _736_
*1864 _737_
*1865 _738_
*1866 _739_
*1867 _740_
*1868 _741_
*1869 _742_
*1870 _743_
*1871 _744_
*1872 _745_
*1873 _746_
*1874 _747_
*1875 _748_
*1876 _749_
*1877 _750_
*1878 _751_
*1879 _752_
*1880 _753_
*1881 _754_
*1882 _755_
*1883 _756_
*1884 _757_
*1885 _758_
*1886 _759_
*1887 _760_
*1888 _761_
*1889 _762_
*1890 _763_
*1891 _764_
*1892 _765_
*1893 _766_
*1894 _767_
*1895 _768_
*1896 _769_
*1897 _770_
*1898 _771_
*1899 _772_
*1900 _773_
*1901 _774_
*1902 _775_
*1903 _776_
*1904 _777_
*1905 _778_
*1906 _779_
*1907 _780_
*1908 _781_
*1909 _782_
*1910 _783_
*1911 _784_
*1912 _785_
*1913 _786_
*1914 _787_
*1915 _788_
*1916 _789_
*1917 _790_
*1918 _791_
*1919 _792_
*1920 _793_
*1921 _794_
*1922 _795_
*1923 _796_
*1924 _797_
*1925 _798_
*1926 _799_
*1927 _800_
*1928 _801_
*1929 _802_
*1930 _803_
*1931 _804_
*1932 _805_
*1933 _806_
*1934 _807_
*1935 _808_
*1936 _809_
*1937 _810_
*1938 _811_
*1939 _812_
*1940 _813_
*1941 _814_
*1942 _815_
*1943 _816_
*1944 _817_
*1945 _818_
*1946 _819_
*1947 _820_
*1948 _821_
*1949 _822_
*1950 _823_
*1951 _824_
*1952 _825_
*1953 _826_
*1954 _827_
*1955 _828_
*1956 _829_
*1957 _830_
*1958 _831_
*1959 _832_
*1960 _833_
*1961 _834_
*1962 _835_
*1963 _836_
*1964 _837_
*1965 _838_
*1966 _839_
*1967 _840_
*1968 _841_
*1969 _842_
*1970 _843_
*1971 _844_
*1972 _845_
*1973 _846_
*1974 _847_
*1975 _848_
*1976 _849_
*1977 _850_
*1978 _851_
*1979 _852_
*1980 _853_
*1981 _854_
*1982 _855_
*1983 _856_
*1984 _857_
*1985 _858_
*1986 _859_
*1987 _860_
*1988 _861_
*1989 _862_
*1990 _863_
*1991 _864_
*1992 _865_
*1993 _866_
*1994 _867_
*1995 _868_
*1996 _869_
*1997 _870_
*1998 _871_
*1999 _872_
*2000 _873_
*2001 _874_
*2002 _875_
*2003 _876_
*2004 _877_
*2005 _878_
*2006 _879_
*2007 _880_
*2008 _881_
*2009 _882_
*2010 _883_
*2011 _884_
*2012 _885_
*2013 _886_
*2014 _887_
*2015 _888_
*2016 _889_
*2017 _890_
*2018 _891_
*2019 _892_
*2020 _893_
*2021 _894_
*2022 _895_
*2023 _896_
*2024 _897_
*2025 _898_
*2026 _899_
*2027 _900_
*2028 _901_
*2029 _902_
*2030 _903_
*2031 _904_
*2032 _905_
*2033 _906_
*2034 _907_
*2035 _908_
*2036 _909_
*2037 _910_
*2038 _911_
*2039 _912_
*2040 _913_
*2041 _914_
*2042 _915_
*2043 _916_
*2044 _917_
*2045 _918_
*2046 _919_
*2047 _920_
*2048 _921_
*2049 _922_
*2050 _923_
*2051 clone10
*2052 clone8
*2053 fanout29
*2054 fanout33
*2055 fanout34
*2056 fanout35
*2057 fanout36
*2058 fanout37
*2059 fanout38
*2060 fanout39
*2061 fanout40
*2062 fanout41
*2063 fanout42
*2064 fanout43
*2065 fanout44
*2066 fanout45
*2067 fanout46
*2068 fanout47
*2069 fanout48
*2070 fanout49
*2071 fanout50
*2072 fanout51
*2073 fanout52
*2074 fanout53
*2075 fanout54
*2076 fanout55
*2077 fanout56
*2078 fanout57
*2079 fanout58
*2080 fanout59
*2081 fanout60
*2082 fanout61
*2083 fanout62
*2084 fanout63
*2085 fanout64
*2086 fanout65
*2087 fanout66
*2088 fanout67
*2089 fanout68
*2090 fanout69
*2091 input1
*2092 input10
*2093 input11
*2094 input12
*2095 input13
*2096 input14
*2097 input15
*2098 input16
*2099 input17
*2100 input18
*2101 input19
*2102 input2
*2103 input20
*2104 input3
*2105 input4
*2106 input5
*2107 input6
*2108 input7
*2109 input8
*2110 input9
*2111 max_cap30
*2112 max_cap31
*2113 output21
*2114 output22
*2115 output23
*2116 output24
*2117 output25
*2118 output26
*2119 output27
*2120 output28
*2121 rebuffer1
*2122 rebuffer18
*2123 rebuffer2
*2124 rebuffer23
*2125 rebuffer3
*2126 rebuffer4
*2127 rebuffer5
*2128 rebuffer6
*2129 rebuffer7
*2130 rebuffer9
*2131 wire32

*PORTS
inst[0] I
inst[1] I
inst[2] I
inst[3] I
op_a[0] I
op_a[1] I
op_a[2] I
op_a[3] I
op_a[4] I
op_a[5] I
op_a[6] I
op_a[7] I
op_b[0] I
op_b[1] I
op_b[2] I
op_b[3] I
op_b[4] I
op_b[5] I
op_b[6] I
op_b[7] I
op_out[0] O
op_out[1] O
op_out[2] O
op_out[3] O
op_out[4] O
op_out[5] O
op_out[6] O
op_out[7] O

*D_NET *3 0.00156933
*CONN
*P inst[0] I
*I *2091:A I *D sky130_fd_sc_hd__dlymetal6s2s_1
*CAP
1 inst[0] 0.000544266
2 *2091:A 0
3 *3:11 0.000544266
4 *3:11 op_out[1] 0
5 *3:11 *1594:A 7.27085e-05
6 *3:11 *6:15 0
7 *3:11 *326:12 0.000228001
8 *3:11 *500:56 7.33773e-05
9 *3:11 *511:51 0.000106708
*RES
1 inst[0] *3:11 28.6093 
2 *3:11 *2091:A 23 
*END

*D_NET *4 0.000987547
*CONN
*P inst[1] I
*I *2102:A I *D sky130_fd_sc_hd__dlymetal6s2s_1
*CAP
1 inst[1] 0.000493774
2 *2102:A 0.000493774
3 *2102:A op_out[0] 0
4 *2102:A *26:10 0
5 *2102:A *502:10 0
6 *2102:A *505:10 0
*RES
1 inst[1] *2102:A 48.73 
*END

*D_NET *5 0.00282773
*CONN
*P inst[2] I
*I *2104:A I *D sky130_fd_sc_hd__buf_2
*CAP
1 inst[2] 0.000741641
2 *2104:A 0
3 *5:13 0.000741641
4 *5:13 *2094:A 0
5 *5:13 *6:15 0.000619794
6 *5:13 *28:8 3.53115e-05
7 *5:13 *326:6 0.000185434
8 *5:13 *326:12 5.50049e-05
9 *5:13 *511:8 9.90162e-05
10 *5:13 *522:10 0.000310647
11 *5:13 *530:100 3.92407e-05
*RES
1 inst[2] *5:13 35.7764 
2 *5:13 *2104:A 23 
*END

*D_NET *6 0.00300626
*CONN
*P inst[3] I
*I *2105:A I *D sky130_fd_sc_hd__buf_1
*CAP
1 inst[3] 0.000781161
2 *2105:A 0
3 *6:15 0.000781161
4 *6:15 *2094:A 5.67058e-05
5 *6:15 *28:8 5.70419e-05
6 *6:15 *326:12 9.32275e-05
7 *6:15 *489:21 2.93747e-05
8 *6:15 *511:45 0.00016041
9 *6:15 *511:51 0.00042738
10 *3:11 *6:15 0
11 *5:13 *6:15 0.000619794
*RES
1 inst[3] *6:15 37.5993 
2 *6:15 *2105:A 23 
*END

*D_NET *7 0.000634708
*CONN
*P op_a[0] I
*I *2106:A I *D sky130_fd_sc_hd__clkbuf_1
*CAP
1 op_a[0] 0.000249746
2 *2106:A 0.000249746
3 *2106:A *2107:A 7.1481e-05
4 *2106:A *544:18 6.37358e-05
*RES
1 op_a[0] *2106:A 49.1059 
*END

*D_NET *8 0.000678892
*CONN
*P op_a[1] I
*I *2107:A I *D sky130_fd_sc_hd__clkbuf_2
*CAP
1 op_a[1] 0.000263951
2 *2107:A 0.000263951
3 *2107:A *2108:A 0
4 *2107:A *544:18 7.95085e-05
5 *2106:A *2107:A 7.1481e-05
*RES
1 op_a[1] *2107:A 48.8397 
*END

*D_NET *9 0.000565926
*CONN
*P op_a[2] I
*I *2108:A I *D sky130_fd_sc_hd__clkbuf_1
*CAP
1 op_a[2] 0.000248409
2 *2108:A 0.000248409
3 *2108:A *2109:A 6.91091e-05
4 *2108:A *385:23 0
5 *2107:A *2108:A 0
*RES
1 op_a[2] *2108:A 48.4016 
*END

*D_NET *10 0.000781006
*CONN
*P op_a[3] I
*I *2109:A I *D sky130_fd_sc_hd__buf_1
*CAP
1 op_a[3] 0.000264162
2 *2109:A 0.000264162
3 *2109:A *383:36 0.000183572
4 *2109:A *385:23 0
5 *2108:A *2109:A 6.91091e-05
*RES
1 op_a[3] *2109:A 49.4581 
*END

*D_NET *11 0.000918438
*CONN
*P op_a[4] I
*I *2110:A I *D sky130_fd_sc_hd__clkbuf_1
*CAP
1 op_a[4] 0.000444527
2 *2110:A 0.000444527
3 *2110:A *2092:A 0
4 *2110:A *2096:A 0
5 *2110:A *490:6 2.93845e-05
*RES
1 op_a[4] *2110:A 47.3214 
*END

*D_NET *12 0.000931334
*CONN
*P op_a[5] I
*I *2092:A I *D sky130_fd_sc_hd__clkbuf_2
*CAP
1 op_a[5] 0.000465667
2 *2092:A 0.000465667
3 *2092:A *2095:A 0
4 *2110:A *2092:A 0
*RES
1 op_a[5] *2092:A 47.4457 
*END

*D_NET *13 0.000980411
*CONN
*P op_a[6] I
*I *2093:A I *D sky130_fd_sc_hd__buf_1
*CAP
1 op_a[6] 0.000490205
2 *2093:A 0.000490205
3 *2093:A op_out[2] 0
4 *2093:A *2103:A 0
5 *2093:A *504:10 0
*RES
1 op_a[6] *2093:A 48.73 
*END

*D_NET *14 0.00120097
*CONN
*P op_a[7] I
*I *2094:A I *D sky130_fd_sc_hd__clkbuf_4
*CAP
1 op_a[7] 0.000544628
2 *2094:A 0.000544628
3 *2094:A op_out[5] 0
4 *2094:A *511:45 5.50106e-05
5 *5:13 *2094:A 0
6 *6:15 *2094:A 5.67058e-05
*RES
1 op_a[7] *2094:A 49.9521 
*END

*D_NET *15 0.000931334
*CONN
*P op_b[0] I
*I *2095:A I *D sky130_fd_sc_hd__clkbuf_2
*CAP
1 op_b[0] 0.000465667
2 *2095:A 0.000465667
3 *2092:A *2095:A 0
*RES
1 op_b[0] *2095:A 47.4457 
*END

*D_NET *16 0.000911302
*CONN
*P op_b[1] I
*I *2096:A I *D sky130_fd_sc_hd__buf_1
*CAP
1 op_b[1] 0.000440959
2 *2096:A 0.000440959
3 *2096:A *490:6 2.93845e-05
4 *2110:A *2096:A 0
*RES
1 op_b[1] *2096:A 47.3214 
*END

*D_NET *17 0.000860826
*CONN
*P op_b[2] I
*I *2097:A I *D sky130_fd_sc_hd__clkbuf_1
*CAP
1 op_b[2] 0.000430413
2 *2097:A 0.000430413
*RES
1 op_b[2] *2097:A 47.4664 
*END

*D_NET *18 0.000622368
*CONN
*P op_b[3] I
*I *2098:A I *D sky130_fd_sc_hd__clkbuf_1
*CAP
1 op_b[3] 0.000311184
2 *2098:A 0.000311184
*RES
1 op_b[3] *2098:A 49.8062 
*END

*D_NET *19 0.000720349
*CONN
*P op_b[4] I
*I *2099:A I *D sky130_fd_sc_hd__buf_6
*CAP
1 op_b[4] 0.000360174
2 *2099:A 0
3 *19:17 0.000360174
*RES
1 op_b[4] *19:17 27.987 
2 *19:17 *2099:A 23 
*END

*D_NET *20 0.00117589
*CONN
*P op_b[5] I
*I *2100:A I *D sky130_fd_sc_hd__clkbuf_2
*CAP
1 op_b[5] 0.000452918
2 *2100:A 0.000452918
3 *2100:A *21:17 2.12457e-05
4 *2100:A *497:12 0.000154677
5 *2100:A *498:12 3.92407e-05
6 *2100:A *534:23 5.48871e-05
*RES
1 op_b[5] *2100:A 49.5266 
*END

*D_NET *21 0.000713005
*CONN
*P op_b[6] I
*I *2101:A I *D sky130_fd_sc_hd__buf_1
*CAP
1 op_b[6] 0.00034588
2 *2101:A 0
3 *21:17 0.00034588
4 *2100:A *21:17 2.12457e-05
*RES
1 op_b[6] *21:17 27.8627 
2 *21:17 *2101:A 23 
*END

*D_NET *22 0.000980411
*CONN
*P op_b[7] I
*I *2103:A I *D sky130_fd_sc_hd__buf_1
*CAP
1 op_b[7] 0.000490205
2 *2103:A 0.000490205
3 *2093:A *2103:A 0
*RES
1 op_b[7] *2103:A 48.73 
*END

*D_NET *23 0.00167526
*CONN
*P op_out[0] O
*I *2113:X O *D sky130_fd_sc_hd__buf_8
*CAP
1 op_out[0] 0.000509433
2 *2113:X 7.99371e-05
3 *23:8 0.00058937
4 op_out[0] op_out[1] 0
5 op_out[0] *502:10 3.70094e-05
6 *23:8 *2113:A 0.00014196
7 *23:8 *326:12 0.000317553
8 *2102:A op_out[0] 0
*RES
1 *2113:X *23:8 41.48 
2 *23:8 op_out[0] 11.0821 
*END

*D_NET *24 0.00221414
*CONN
*P op_out[1] O
*I *2114:X O *D sky130_fd_sc_hd__buf_2
*CAP
1 op_out[1] 0.000756136
2 *2114:X 0.000180159
3 *24:8 0.000936295
4 op_out[1] *1586:A 0
5 op_out[1] *187:10 9.28078e-06
6 op_out[1] *201:10 1.31913e-05
7 op_out[1] *491:20 9.55052e-05
8 op_out[1] *491:26 5.43589e-05
9 op_out[1] *502:10 0
10 op_out[1] *511:51 0
11 *24:8 *1816:D_N 2.98648e-05
12 *24:8 *2114:A 0.000139352
13 op_out[0] op_out[1] 0
14 *3:11 op_out[1] 0
*RES
1 *2114:X *24:8 40.5271 
2 *24:8 op_out[1] 15.5564 
*END

*D_NET *25 0.000960449
*CONN
*P op_out[2] O
*I *2115:X O *D sky130_fd_sc_hd__buf_2
*CAP
1 op_out[2] 0.000480224
2 *2115:X 0.000480224
3 op_out[2] op_out[4] 0
4 *2093:A op_out[2] 0
*RES
1 *2115:X op_out[2] 48.5021 
*END

*D_NET *26 0.00129117
*CONN
*P op_out[3] O
*I *2116:X O *D sky130_fd_sc_hd__buf_2
*CAP
1 op_out[3] 2.40452e-05
2 *2116:X 0.000477315
3 *26:10 0.00050136
4 *26:10 op_out[4] 0.00026851
5 *26:10 *491:6 1.99429e-05
6 *2102:A *26:10 0
*RES
1 *2116:X *26:10 49.5275 
2 *26:10 op_out[3] 0.548929 
*END

*D_NET *27 0.00116514
*CONN
*P op_out[4] O
*I *2117:X O *D sky130_fd_sc_hd__buf_4
*CAP
1 op_out[4] 0.000439647
2 *2117:X 0.000439647
3 op_out[4] *491:6 1.73399e-05
4 op_out[2] op_out[4] 0
5 *26:10 op_out[4] 0.00026851
*RES
1 *2117:X op_out[4] 49.9521 
*END

*D_NET *28 0.00176364
*CONN
*P op_out[5] O
*I *2118:X O *D sky130_fd_sc_hd__clkbuf_4
*CAP
1 op_out[5] 0.000485703
2 *2118:X 0.000342475
3 *28:8 0.000828178
4 op_out[5] *511:45 4.6318e-06
5 *28:8 *511:8 1.02949e-05
6 *2094:A op_out[5] 0
7 *5:13 *28:8 3.53115e-05
8 *6:15 *28:8 5.70419e-05
*RES
1 *2118:X *28:8 42.9093 
2 *28:8 op_out[5] 10.5021 
*END

*D_NET *29 0.000847049
*CONN
*P op_out[6] O
*I *2119:X O *D sky130_fd_sc_hd__clkbuf_4
*CAP
1 op_out[6] 0.000173655
2 *2119:X 0.00016133
3 *29:10 0.000334985
4 op_out[6] op_out[7] 6.23091e-05
5 *29:10 op_out[7] 0.00011477
6 *29:10 *508:10 0
*RES
1 *2119:X *29:10 49.4904 
2 *29:10 op_out[6] 0.672 
*END

*D_NET *30 0.000734469
*CONN
*P op_out[7] O
*I *2120:X O *D sky130_fd_sc_hd__buf_2
*CAP
1 op_out[7] 0.000259626
2 *2120:X 0.000259626
3 op_out[7] *2050:C1 0
4 op_out[7] *508:10 3.81391e-05
5 op_out[6] op_out[7] 6.23091e-05
6 *29:10 op_out[7] 0.00011477
*RES
1 *2120:X op_out[7] 48.4875 
*END

*D_NET *31 0.00222672
*CONN
*I *1659:B1 I *D sky130_fd_sc_hd__o211a_1
*I *1658:B1 I *D sky130_fd_sc_hd__o21ai_1
*I *1656:X O *D sky130_fd_sc_hd__a211o_1
*CAP
1 *1659:B1 0
2 *1658:B1 0.000138791
3 *1656:X 0.000191753
4 *31:19 0.000212624
5 *31:6 0.000543168
6 *1658:B1 *1658:A1 5.50049e-05
7 *1658:B1 *1658:A2 9.00923e-05
8 *1658:B1 *33:6 3.7122e-06
9 *1658:B1 *551:33 0.000161605
10 *31:6 *1658:A2 6.17437e-06
11 *31:6 *551:33 0.000182981
12 *31:19 *32:10 7.03766e-05
13 *31:19 *241:26 0.000136486
14 *31:19 *475:10 0.000100778
15 *31:19 *475:12 3.70094e-05
16 *31:19 *475:51 7.80035e-05
17 *31:19 *475:68 0.0001782
18 *31:19 *517:14 3.99563e-05
*RES
1 *1656:X *31:6 26.9564 
2 *31:6 *1658:B1 26.48 
3 *31:6 *31:19 35.4271 
4 *31:19 *1659:B1 23 
*END

*D_NET *32 0.00129266
*CONN
*I *1660:B1 I *D sky130_fd_sc_hd__o211ai_2
*I *1657:X O *D sky130_fd_sc_hd__a211o_1
*CAP
1 *1660:B1 0
2 *1657:X 0.000399233
3 *32:10 0.000399233
4 *32:10 *1659:A2 9.58714e-05
5 *32:10 *1659:C1 5.40241e-05
6 *32:10 *294:55 7.96152e-06
7 *32:10 *517:8 1.58321e-05
8 *32:10 *517:14 0.000151644
9 *32:10 *518:25 9.84851e-05
10 *31:19 *32:10 7.03766e-05
*RES
1 *1657:X *32:10 44.815 
2 *32:10 *1660:B1 38 
*END

*D_NET *33 0.00341615
*CONN
*I *1706:B1 I *D sky130_fd_sc_hd__a21o_1
*I *1658:Y O *D sky130_fd_sc_hd__o21ai_1
*CAP
1 *1706:B1 0
2 *1658:Y 0.00117863
3 *33:12 0.000127957
4 *33:6 0.00130658
5 *33:6 *1670:A1 2.64616e-05
6 *33:6 *1670:A2 2.64616e-05
7 *33:6 *1670:B1 2.18506e-05
8 *33:6 *1670:C1 0.000185434
9 *33:6 *45:12 4.14733e-05
10 *33:6 *45:48 9.88574e-06
11 *33:6 *484:35 0.000477634
12 *33:6 *551:33 5.85822e-06
13 *33:12 *48:12 4.21594e-06
14 *33:12 *82:10 0
15 *33:12 *283:26 0
16 *1658:B1 *33:6 3.7122e-06
*RES
1 *1658:Y *33:6 38.8671 
2 *33:6 *33:12 31.9057 
3 *33:12 *1706:B1 23 
*END

*D_NET *34 0.00385617
*CONN
*I *1666:C1 I *D sky130_fd_sc_hd__a221o_1
*I *1665:B1 I *D sky130_fd_sc_hd__a21oi_1
*I *1661:A_N I *D sky130_fd_sc_hd__and2b_1
*I *1659:X O *D sky130_fd_sc_hd__o211a_1
*CAP
1 *1666:C1 2.58337e-05
2 *1665:B1 0
3 *1661:A_N 9.53207e-06
4 *1659:X 0.000473623
5 *34:14 0.000181557
6 *34:8 0.000197859
7 *34:6 0.000473623
8 *1661:A_N *1661:B 2.30292e-05
9 *1661:A_N *40:10 5.67058e-05
10 *1666:C1 *1699:C 1.69668e-05
11 *1666:C1 *39:29 6.16531e-05
12 *34:6 *1666:A1 0.000137651
13 *34:6 *1705:B 5.3304e-05
14 *34:6 *39:10 0.000113213
15 *34:6 *39:12 1.35237e-05
16 *34:6 *294:55 0.00108799
17 *34:6 *551:14 0.000151601
18 *34:14 *1661:B 5.29672e-05
19 *34:14 *1665:A1 0.000234719
20 *34:14 *1699:C 6.95872e-05
21 *34:14 *39:29 0.000374922
22 *34:14 *40:10 4.63098e-05
*RES
1 *1659:X *34:6 37.4379 
2 *34:6 *34:8 15 
3 *34:8 *34:14 21.4421 
4 *34:14 *1661:A_N 23.6214 
5 *34:14 *1665:B1 23 
6 *34:8 *1666:C1 38.8493 
*END

*D_NET *35 0.00527302
*CONN
*I *1666:B1 I *D sky130_fd_sc_hd__a221o_1
*I *1661:B I *D sky130_fd_sc_hd__and2b_1
*I *1665:A1 I *D sky130_fd_sc_hd__a21oi_1
*I *1660:Y O *D sky130_fd_sc_hd__o211ai_2
*CAP
1 *1666:B1 0
2 *1661:B 0.000339287
3 *1665:A1 0.000295939
4 *1660:Y 0.000433324
5 *35:12 0.000718798
6 *35:10 0.000226896
7 *35:6 0.000576648
8 *1661:B *39:29 0.000119467
9 *1661:B *40:10 3.98818e-05
10 *1665:A1 *39:29 5.54011e-05
11 *1665:A1 *485:10 0.000118174
12 *35:6 *241:26 0.000784552
13 *35:6 *485:25 0.000180212
14 *35:6 *493:21 0.000528008
15 *35:6 *551:6 5.10686e-05
16 *35:10 *1699:C 0
17 *35:10 *80:10 0
18 *35:10 *484:35 1.7992e-05
19 *35:10 *485:10 0.000196549
20 *35:12 *39:29 8.57765e-05
21 *35:12 *485:10 0.000194327
22 *1661:A_N *1661:B 2.30292e-05
23 *34:14 *1661:B 5.29672e-05
24 *34:14 *1665:A1 0.000234719
*RES
1 *1660:Y *35:6 35.5321 
2 *35:6 *35:10 18.3143 
3 *35:10 *35:12 2.61 
4 *35:12 *1665:A1 43.51 
5 *35:12 *1661:B 44.815 
6 *35:10 *1666:B1 38 
*END

*D_NET *36 0.000525327
*CONN
*I *1705:A I *D sky130_fd_sc_hd__xnor2_1
*I *1661:X O *D sky130_fd_sc_hd__and2b_1
*CAP
1 *1705:A 0
2 *1661:X 0.000262663
3 *36:10 0.000262663
*RES
1 *1661:X *36:10 41.8321 
2 *36:10 *1705:A 38 
*END

*D_NET *37 0.00116731
*CONN
*I *1676:A I *D sky130_fd_sc_hd__or4_1
*I *1662:Y O *D sky130_fd_sc_hd__nor2_1
*CAP
1 *1676:A 0
2 *1662:Y 0.000337416
3 *37:12 0.000337416
4 *37:12 *1663:B 0.000191596
5 *37:12 *1676:B 9.24795e-06
6 *37:12 *38:19 0.000168975
7 *37:12 *45:48 4.27622e-05
8 *37:12 *45:56 7.98989e-05
*RES
1 *1662:Y *37:12 30.83 
2 *37:12 *1676:A 23 
*END

*D_NET *38 0.0101866
*CONN
*I *1880:C I *D sky130_fd_sc_hd__and3_1
*I *1881:B1 I *D sky130_fd_sc_hd__a21oi_1
*I *1907:C I *D sky130_fd_sc_hd__and3_1
*I *1676:B I *D sky130_fd_sc_hd__or4_1
*I *1663:Y O *D sky130_fd_sc_hd__nor2_4
*CAP
1 *1880:C 0
2 *1881:B1 0
3 *1907:C 0
4 *1676:B 0.000222332
5 *1663:Y 0
6 *38:46 0.000189912
7 *38:34 0.000410536
8 *38:27 0.000755846
9 *38:19 0.00282225
10 *38:4 0.00206811
11 *1676:B *1663:B 0.000265445
12 *38:19 *1617:B 9.84851e-05
13 *38:19 *1617:C 3.53115e-05
14 *38:19 *1620:B1 5.67058e-05
15 *38:19 *1620:C1 5.67058e-05
16 *38:19 *1662:B 0.000352426
17 *38:19 *2129:A 0.000180218
18 *38:19 *439:10 5.9761e-05
19 *38:19 *444:30 0.000201382
20 *38:19 *450:10 8.56254e-05
21 *38:19 *519:58 0.00043937
22 *38:19 *519:62 0.000291287
23 *38:19 *521:89 5.3304e-05
24 *38:19 *562:10 0.000128539
25 *38:27 *1907:B 3.08952e-05
26 *38:27 *2028:A2 0
27 *38:27 *285:14 6.48142e-05
28 *38:27 *410:8 0
29 *38:27 *415:10 6.28591e-05
30 *38:27 *492:73 0
31 *38:27 *517:58 2.76611e-06
32 *38:27 *519:25 0
33 *38:27 *521:89 3.47781e-05
34 *38:27 *529:31 0.000528149
35 *38:34 *1881:A2 2.12126e-06
36 *38:34 *521:83 1.54983e-05
37 *38:34 *521:89 0.000170388
38 *38:46 *1862:A 7.8211e-05
39 *38:46 *1881:A2 9.2946e-05
40 *38:46 *256:12 0.000132653
41 *38:46 *521:83 1.87407e-05
42 *37:12 *1676:B 9.24795e-06
43 *37:12 *38:19 0.000168975
*RES
1 *1663:Y *38:4 23 
2 *38:4 *1676:B 26.8529 
3 *38:4 *38:19 33.8886 
4 *38:19 *38:27 45.8671 
5 *38:27 *1907:C 23 
6 *38:19 *38:34 3.08643 
7 *38:34 *38:46 34.06 
8 *38:46 *1881:B1 23 
9 *38:34 *1880:C 23 
*END

*D_NET *39 0.00301067
*CONN
*I *1666:B2 I *D sky130_fd_sc_hd__a221o_1
*I *1665:A2 I *D sky130_fd_sc_hd__a21oi_1
*I *1705:B I *D sky130_fd_sc_hd__xnor2_1
*I *1664:Y O *D sky130_fd_sc_hd__nand2_1
*CAP
1 *1666:B2 0
2 *1665:A2 0
3 *1705:B 0.000378267
4 *1664:Y 0.000318399
5 *39:29 0.000211196
6 *39:12 0.000612802
7 *39:10 0.000341738
8 *1705:B *1666:A1 9.72057e-06
9 *1705:B *80:10 0.000176484
10 *39:10 *1666:A1 7.01424e-05
11 *39:10 *1666:A2 1.46586e-05
12 *1661:B *39:29 0.000119467
13 *1665:A1 *39:29 5.54011e-05
14 *1666:C1 *39:29 6.16531e-05
15 *34:6 *1705:B 5.3304e-05
16 *34:6 *39:10 0.000113213
17 *34:6 *39:12 1.35237e-05
18 *34:14 *39:29 0.000374922
19 *35:12 *39:29 8.57765e-05
*RES
1 *1664:Y *39:10 28.7379 
2 *39:10 *39:12 0.435 
3 *39:12 *1705:B 31.265 
4 *39:12 *39:29 35.8414 
5 *39:29 *1665:A2 23 
6 *39:10 *1666:B2 23 
*END

*D_NET *40 0.000758158
*CONN
*I *1697:A I *D sky130_fd_sc_hd__xnor2_1
*I *1665:Y O *D sky130_fd_sc_hd__a21oi_1
*CAP
1 *1697:A 0
2 *1665:Y 0.00030763
3 *40:10 0.00030763
4 *40:10 *1699:C 0
5 *1661:A_N *40:10 5.67058e-05
6 *1661:B *40:10 3.98818e-05
7 *34:14 *40:10 4.63098e-05
*RES
1 *1665:Y *40:10 42.9404 
2 *40:10 *1697:A 38 
*END

*D_NET *41 0.0017621
*CONN
*I *1671:A2 I *D sky130_fd_sc_hd__a311o_1
*I *1670:A3 I *D sky130_fd_sc_hd__a311oi_2
*I *1667:B I *D sky130_fd_sc_hd__nand2_1
*I *1666:X O *D sky130_fd_sc_hd__a221o_1
*CAP
1 *1671:A2 0.000139456
2 *1670:A3 0
3 *1667:B 3.80122e-05
4 *1666:X 5.4232e-05
5 *41:19 0.000232746
6 *41:8 0.000185534
7 *1667:B *485:25 5.3304e-05
8 *1671:A2 *1671:A3 0.000151898
9 *1671:A2 *2121:A 4.67488e-05
10 *1671:A2 *42:8 5.62433e-05
11 *1671:A2 *62:8 9.41704e-05
12 *1671:A2 *484:35 2.46345e-05
13 *1671:A2 *485:25 1.14452e-05
14 *41:8 *484:35 0.000141879
15 *41:8 *546:73 7.03766e-05
16 *41:19 *484:35 0.000231212
17 *41:19 *485:25 0.000218962
18 *41:19 *546:73 1.12487e-05
*RES
1 *1666:X *41:8 39.9057 
2 *41:8 *1667:B 38.6214 
3 *41:8 *41:19 3.31429 
4 *41:19 *1670:A3 38 
5 *41:19 *1671:A2 41.3557 
*END

*D_NET *42 0.00106992
*CONN
*I *1687:B I *D sky130_fd_sc_hd__xnor2_1
*I *1667:Y O *D sky130_fd_sc_hd__nand2_1
*CAP
1 *1687:B 4.64503e-05
2 *1667:Y 0.000241013
3 *42:8 0.000287464
4 *1687:B *1687:A 8.22426e-05
5 *1687:B *46:10 7.59794e-05
6 *42:8 *1671:A3 9.21347e-06
7 *42:8 *49:14 7.70058e-05
8 *42:8 *80:10 0
9 *42:8 *484:35 0.000194309
10 *42:8 *546:73 0
11 *1671:A2 *42:8 5.62433e-05
*RES
1 *1667:Y *42:8 43.075 
2 *42:8 *1687:B 39.5743 
*END

*D_NET *43 0.00405587
*CONN
*I *1669:A2 I *D sky130_fd_sc_hd__a21oi_1
*I *1692:B1 I *D sky130_fd_sc_hd__a21o_1
*I *1672:C I *D sky130_fd_sc_hd__and3_1
*I *1668:X O *D sky130_fd_sc_hd__or2_1
*CAP
1 *1669:A2 2.34823e-05
2 *1692:B1 0.000359656
3 *1672:C 6.59685e-05
4 *1668:X 0.000338641
5 *43:12 0.000677481
6 *43:6 0.000613979
7 *1672:C *1673:A 8.62783e-05
8 *1672:C *2112:A 6.35797e-06
9 *1672:C *49:14 3.83778e-05
10 *1692:B1 *1692:A1 2.77574e-05
11 *1692:B1 *1692:A2 0.000140985
12 *1692:B1 *1716:A1 3.34129e-05
13 *43:6 *44:8 0.000139352
14 *43:6 *62:14 0.000223698
15 *43:6 *64:10 2.4754e-05
16 *43:6 *471:10 0.000190058
17 *43:6 *471:20 1.21972e-05
18 *43:6 *544:30 0.000117923
19 *43:12 *1673:A 7.93144e-05
20 *43:12 *1677:A1 2.61526e-05
21 *43:12 *1677:B1 0.000178517
22 *43:12 *1692:A1 0.000308946
23 *43:12 *1692:A2 0.000180224
24 *43:12 *44:8 1.24376e-05
25 *43:12 *49:14 1.83667e-05
26 *43:12 *49:42 2.3529e-05
27 *43:12 *52:10 2.93747e-05
28 *43:12 *471:20 1.21972e-05
29 *43:12 *513:23 5.50049e-05
30 *43:12 *536:24 1.14452e-05
*RES
1 *1668:X *43:6 31.7207 
2 *43:6 *43:12 22.0636 
3 *43:12 *1672:C 39.4293 
4 *43:12 *1692:B1 43.5721 
5 *43:6 *1669:A2 23.4971 
*END

*D_NET *44 0.00353057
*CONN
*I *1671:B1 I *D sky130_fd_sc_hd__a311o_1
*I *1670:B1 I *D sky130_fd_sc_hd__a311oi_2
*I *1669:Y O *D sky130_fd_sc_hd__a21oi_1
*CAP
1 *1671:B1 0
2 *1670:B1 9.80865e-05
3 *1669:Y 6.47432e-05
4 *44:10 0.000491691
5 *44:8 0.000458348
6 *1670:B1 *1670:C1 0.000222289
7 *1670:B1 *45:12 0.00010018
8 *1670:B1 *45:48 0
9 *1670:B1 *241:39 0.000191157
10 *44:8 *64:10 9.41704e-05
11 *44:10 *1663:B 6.16531e-05
12 *44:10 *1670:C1 1.14452e-05
13 *44:10 *62:14 0.000153482
14 *44:10 *241:39 0.000833543
15 *44:10 *478:10 0.000154147
16 *44:10 *565:52 0.000421998
17 *33:6 *1670:B1 2.18506e-05
18 *43:6 *44:8 0.000139352
19 *43:12 *44:8 1.24376e-05
*RES
1 *1669:Y *44:8 39.5743 
2 *44:8 *44:10 12.1179 
3 *44:10 *1670:B1 41.7079 
4 *44:10 *1671:B1 38 
*END

*D_NET *45 0.00609526
*CONN
*I *1676:C I *D sky130_fd_sc_hd__or4_1
*I *1675:A I *D sky130_fd_sc_hd__nor2_1
*I *1707:A I *D sky130_fd_sc_hd__or3_4
*I *1699:A I *D sky130_fd_sc_hd__or3_4
*I *1670:Y O *D sky130_fd_sc_hd__a311oi_2
*CAP
1 *1676:C 0
2 *1675:A 0
3 *1707:A 0
4 *1699:A 0
5 *1670:Y 0
6 *45:68 0.000143471
7 *45:56 0.000262451
8 *45:48 0.00124033
9 *45:26 0.000277737
10 *45:12 0.000665316
11 *45:4 0.00150893
12 *45:12 *1670:A1 5.50049e-05
13 *45:12 *1670:A2 5.3304e-05
14 *45:12 *1670:C1 7.42621e-05
15 *45:12 *82:10 8.43466e-05
16 *45:12 *484:35 0.000223692
17 *45:26 *49:14 2.18506e-05
18 *45:26 *49:24 0.000103679
19 *45:26 *82:10 7.74714e-05
20 *45:26 *484:35 0.000194356
21 *45:48 *1663:A 0
22 *45:48 *1689:A1 0.000125268
23 *45:48 *62:14 0
24 *45:48 *63:10 0.000101564
25 *45:48 *241:39 0
26 *45:48 *477:20 0.000118736
27 *45:48 *539:125 0
28 *45:48 *544:32 0
29 *45:48 *551:107 0
30 *45:56 *1663:B 2.87723e-05
31 *45:56 *49:42 1.4345e-05
32 *45:56 *50:8 6.74169e-05
33 *45:56 *64:14 1.24376e-05
34 *45:68 *1663:B 9.12699e-05
35 *45:68 *1676:D 2.81041e-05
36 *45:68 *49:42 0.000107292
37 *45:68 *52:10 6.38845e-05
38 *45:68 *64:14 1.41129e-05
39 *45:68 *542:84 6.16531e-05
40 *1670:B1 *45:12 0.00010018
41 *1670:B1 *45:48 0
42 *33:6 *45:12 4.14733e-05
43 *33:6 *45:48 9.88574e-06
44 *37:12 *45:48 4.27622e-05
45 *37:12 *45:56 7.98989e-05
*RES
1 *1670:Y *45:4 23 
2 *45:4 *45:12 8.90714 
3 *45:12 *45:26 34.8886 
4 *45:26 *1699:A 23 
5 *45:12 *1707:A 23 
6 *45:4 *45:48 49.4921 
7 *45:48 *45:56 3.19 
8 *45:56 *45:68 33.5421 
9 *45:68 *1675:A 23 
10 *45:56 *1676:C 23 
*END

*D_NET *46 0.00213437
*CONN
*I *2121:A I *D sky130_fd_sc_hd__dlygate4sd1_1
*I *1706:A1 I *D sky130_fd_sc_hd__a21o_1
*I *1698:A1 I *D sky130_fd_sc_hd__a21o_1
*I *1671:X O *D sky130_fd_sc_hd__a311o_1
*CAP
1 *2121:A 0.000164123
2 *1706:A1 0
3 *1698:A1 0.000215421
4 *1671:X 2.00578e-05
5 *46:10 0.00047534
6 *46:6 0.0004441
7 *1698:A1 *1698:A2 5.98028e-05
8 *1698:A1 *81:8 0.00010018
9 *2121:A *1687:A 2.4754e-05
10 *2121:A *62:8 7.13697e-05
11 *2121:A *556:8 0.000302812
12 *46:6 *1687:A 0
13 *46:10 *1687:A 2.31987e-05
14 *46:10 *1698:A2 3.22879e-05
15 *46:10 *62:8 5.50106e-05
16 *46:10 *82:18 2.31797e-05
17 *1671:A2 *2121:A 4.67488e-05
18 *1687:B *46:10 7.59794e-05
*RES
1 *1671:X *46:6 23.4971 
2 *46:6 *46:10 5.28214 
3 *46:10 *1698:A1 26.5007 
4 *46:10 *1706:A1 23 
5 *46:6 *2121:A 26.9564 
*END

*D_NET *47 0.000725985
*CONN
*I *1673:D I *D sky130_fd_sc_hd__nor4_1
*I *1674:D I *D sky130_fd_sc_hd__or4_4
*I *1672:X O *D sky130_fd_sc_hd__and3_1
*CAP
1 *1673:D 0
2 *1674:D 0
3 *1672:X 0.000114856
4 *47:14 7.43629e-05
5 *47:8 0.000189219
6 *47:8 *1673:A 0.000138444
7 *47:8 *539:85 0
8 *47:14 *283:12 0.000138727
9 *47:14 *471:26 7.03766e-05
*RES
1 *1672:X *47:8 25.0714 
2 *47:8 *47:14 31.9057 
3 *47:14 *1674:D 23 
4 *47:8 *1673:D 23 
*END

*D_NET *48 0.00241216
*CONN
*I *2112:A I *D sky130_fd_sc_hd__buf_1
*I *1698:A2 I *D sky130_fd_sc_hd__a21o_1
*I *1706:A2 I *D sky130_fd_sc_hd__a21o_1
*I *1673:Y O *D sky130_fd_sc_hd__nor4_1
*CAP
1 *2112:A 0.000107227
2 *1698:A2 9.8936e-05
3 *1706:A2 0
4 *1673:Y 4.0654e-05
5 *48:12 0.000510447
6 *48:6 0.000559392
7 *1698:A2 *1687:A 1.37232e-05
8 *1698:A2 *81:8 3.22879e-05
9 *1698:A2 *82:18 0.000153145
10 *2112:A *1672:A 1.94812e-05
11 *2112:A *1673:A 2.93845e-05
12 *2112:A *471:20 0.000141052
13 *2112:A *471:26 8.60475e-05
14 *2112:A *539:104 3.91386e-05
15 *48:6 *1673:A 2.18409e-05
16 *48:6 *1673:C 9.75779e-05
17 *48:6 *471:26 0.000139352
18 *48:12 *49:14 0
19 *48:12 *82:10 4.43717e-05
20 *48:12 *283:12 0.000175438
21 *48:12 *283:26 0
22 *1672:C *2112:A 6.35797e-06
23 *1698:A1 *1698:A2 5.98028e-05
24 *33:12 *48:12 4.21594e-06
25 *46:10 *1698:A2 3.22879e-05
*RES
1 *1673:Y *48:6 24.5743 
2 *48:6 *48:12 38.2443 
3 *48:12 *1706:A2 23 
4 *48:12 *1698:A2 26.9979 
5 *48:6 *2112:A 26.3764 
*END

*D_NET *49 0.00420867
*CONN
*I *1676:D I *D sky130_fd_sc_hd__or4_1
*I *1675:B I *D sky130_fd_sc_hd__nor2_1
*I *1707:B I *D sky130_fd_sc_hd__or3_4
*I *1699:B I *D sky130_fd_sc_hd__or3_4
*I *1674:X O *D sky130_fd_sc_hd__or4_4
*CAP
1 *1676:D 1.58436e-05
2 *1675:B 0
3 *1707:B 0
4 *1699:B 0
5 *1674:X 4.09526e-05
6 *49:42 0.000369246
7 *49:24 9.92668e-05
8 *49:14 0.000986717
9 *49:8 0.00128181
10 *1676:D *64:14 5.50049e-05
11 *49:8 *1692:A2 5.3304e-05
12 *49:14 *1673:A 1.80023e-05
13 *49:14 *82:10 0.000240898
14 *49:14 *539:85 0.000114083
15 *49:14 *556:10 0
16 *49:14 *556:21 0
17 *49:42 *64:14 0.000195851
18 *49:42 *64:24 6.17437e-06
19 *49:42 *536:24 5.7618e-05
20 *49:42 *539:85 0.000241355
21 *1672:C *49:14 3.83778e-05
22 *42:8 *49:14 7.70058e-05
23 *43:12 *49:14 1.83667e-05
24 *43:12 *49:42 2.3529e-05
25 *45:26 *49:14 2.18506e-05
26 *45:26 *49:24 0.000103679
27 *45:56 *49:42 1.4345e-05
28 *45:68 *1676:D 2.81041e-05
29 *45:68 *49:42 0.000107292
30 *48:12 *49:14 0
*RES
1 *1674:X *49:8 38.6214 
2 *49:8 *49:14 30.805 
3 *49:14 *49:24 32.6929 
4 *49:24 *1699:B 23 
5 *49:14 *1707:B 23 
6 *49:8 *49:42 23.2443 
7 *49:42 *1675:B 23 
8 *49:42 *1676:D 23.6214 
*END

*D_NET *50 0.00684378
*CONN
*I *1896:A2 I *D sky130_fd_sc_hd__a211o_1
*I *1689:A1 I *D sky130_fd_sc_hd__a21oi_1
*I *1675:Y O *D sky130_fd_sc_hd__nor2_1
*CAP
1 *1896:A2 0
2 *1689:A1 0.000327257
3 *1675:Y 0.00018896
4 *50:35 0.000565605
5 *50:31 0.00137269
6 *50:8 0.0013233
7 *1689:A1 *1663:A 0
8 *1689:A1 *51:8 4.6318e-06
9 *1689:A1 *62:14 6.10573e-05
10 *1689:A1 *63:10 1.14452e-05
11 *1689:A1 *471:10 5.50049e-05
12 *1689:A1 *565:52 0.000250512
13 *50:8 *64:14 0.000137651
14 *50:31 *1613:A 0.000139764
15 *50:31 *1637:B1 3.7122e-06
16 *50:31 *1682:A 6.34418e-05
17 *50:31 *51:8 9.39159e-05
18 *50:31 *51:12 9.67842e-05
19 *50:31 *57:10 1.01436e-05
20 *50:31 *443:8 0.000135037
21 *50:31 *446:8 1.32939e-05
22 *50:31 *515:10 2.1522e-05
23 *50:31 *515:12 3.18322e-05
24 *50:31 *565:52 0.00015414
25 *50:35 *294:39 0.00037951
26 *50:35 *518:50 0.000561346
27 *50:35 *519:88 0.000212864
28 *50:35 *524:121 0.000215801
29 *50:35 *550:14 0.000219873
30 *45:48 *1689:A1 0.000125268
31 *45:56 *50:8 6.74169e-05
*RES
1 *1675:Y *50:8 40.5271 
2 *50:8 *1689:A1 44.235 
3 *50:8 *50:31 45.1421 
4 *50:31 *50:35 31.3436 
5 *50:35 *1896:A2 23 
*END

*D_NET *51 0.00218925
*CONN
*I *1681:A1 I *D sky130_fd_sc_hd__a21o_1
*I *1682:B I *D sky130_fd_sc_hd__and3_1
*I *1678:A I *D sky130_fd_sc_hd__nand2_1
*I *1676:X O *D sky130_fd_sc_hd__or4_1
*CAP
1 *1681:A1 9.59121e-05
2 *1682:B 0
3 *1678:A 0
4 *1676:X 0.000128897
5 *51:20 0.00035717
6 *51:12 0.000509614
7 *51:8 0.000377252
8 *1681:A1 *1682:A 8.16356e-05
9 *1681:A1 *1683:B 2.64506e-05
10 *1681:A1 *57:10 2.01531e-05
11 *51:8 *1663:A 0
12 *51:8 *1682:A 5.6652e-05
13 *51:8 *57:10 6.7177e-06
14 *51:12 *57:10 4.08664e-05
15 *51:20 *52:23 8.51329e-05
16 *51:20 *57:10 9.41704e-05
17 *51:20 *61:22 0.000113293
18 *51:20 *536:20 0
19 *1689:A1 *51:8 4.6318e-06
20 *50:31 *51:8 9.39159e-05
21 *50:31 *51:12 9.67842e-05
*RES
1 *1676:X *51:8 40.9621 
2 *51:8 *51:12 17.0507 
3 *51:12 *51:20 35.7379 
4 *51:20 *1678:A 23 
5 *51:12 *1682:B 23 
6 *51:8 *1681:A1 40.2579 
*END

*D_NET *52 0.00244056
*CONN
*I *1681:A2 I *D sky130_fd_sc_hd__a21o_1
*I *1678:B I *D sky130_fd_sc_hd__nand2_1
*I *1682:C I *D sky130_fd_sc_hd__and3_1
*I *1677:X O *D sky130_fd_sc_hd__a21o_1
*CAP
1 *1681:A2 0.000235232
2 *1678:B 0
3 *1682:C 0.000140801
4 *1677:X 0.000260254
5 *52:23 0.000373554
6 *52:10 0.000539377
7 *1681:A2 *1686:A1 8.06804e-06
8 *1681:A2 *1686:B1 5.67058e-05
9 *1681:A2 *53:10 5.67058e-05
10 *1681:A2 *59:8 0.000218836
11 *1682:C *57:10 2.37237e-05
12 *1682:C *61:22 7.44354e-05
13 *52:10 *536:22 0
14 *52:10 *539:85 0
15 *52:10 *542:84 0.000114848
16 *52:10 *546:119 2.24608e-05
17 *52:23 *536:20 0
18 *52:23 *542:84 0.000137163
19 *43:12 *52:10 2.93747e-05
20 *45:68 *52:10 6.38845e-05
21 *51:20 *52:23 8.51329e-05
*RES
1 *1677:X *52:10 42.9921 
2 *52:10 *1682:C 40.3614 
3 *52:10 *52:23 18.6664 
4 *52:23 *1678:B 23 
5 *52:23 *1681:A2 28.0957 
*END

*D_NET *53 0.00116774
*CONN
*I *1679:A I *D sky130_fd_sc_hd__inv_2
*I *1680:B I *D sky130_fd_sc_hd__and2_1
*I *1678:Y O *D sky130_fd_sc_hd__nand2_1
*CAP
1 *1679:A 0.000146835
2 *1680:B 0
3 *1678:Y 0.000184279
4 *53:10 0.000331114
5 *1679:A *515:33 0.0002499
6 *1679:A *542:84 5.50049e-05
7 *1679:A *565:52 1.94693e-05
8 *53:10 *515:33 3.70187e-05
9 *53:10 *542:84 8.74165e-05
10 *1681:A2 *53:10 5.67058e-05
*RES
1 *1678:Y *53:10 41.0036 
2 *53:10 *1680:B 38 
3 *53:10 *1679:A 41.9357 
*END

*D_NET *54 0.000383505
*CONN
*I *1722:A0 I *D sky130_fd_sc_hd__mux2_1
*I *1679:Y O *D sky130_fd_sc_hd__inv_2
*CAP
1 *1722:A0 0
2 *1679:Y 0.000141663
3 *54:10 0.000141663
4 *54:10 *515:33 0
5 *54:10 *536:20 0
6 *54:10 *542:84 0.00010018
*RES
1 *1679:Y *54:10 40.2993 
2 *54:10 *1722:A0 38 
*END

*D_NET *55 0.00012672
*CONN
*I *1683:A I *D sky130_fd_sc_hd__nor2_1
*I *1680:X O *D sky130_fd_sc_hd__and2_1
*CAP
1 *1683:A 3.6708e-05
2 *1680:X 3.6708e-05
3 *1683:A *515:20 5.3304e-05
*RES
1 *1680:X *1683:A 46.6214 
*END

*D_NET *56 0.000467543
*CONN
*I *1686:B1 I *D sky130_fd_sc_hd__o21ai_2
*I *1681:X O *D sky130_fd_sc_hd__a21o_1
*CAP
1 *1686:B1 0.000147991
2 *1681:X 0.000147991
3 *1686:B1 *59:8 0.000114856
4 *1681:A2 *1686:B1 5.67058e-05
*RES
1 *1681:X *1686:B1 49.0036 
*END

*D_NET *57 0.00169716
*CONN
*I *1683:B I *D sky130_fd_sc_hd__nor2_1
*I *1686:A1 I *D sky130_fd_sc_hd__o21ai_2
*I *1682:X O *D sky130_fd_sc_hd__and3_1
*CAP
1 *1683:B 0.000141915
2 *1686:A1 0.000219917
3 *1682:X 0.000141184
4 *57:10 0.000503017
5 *1683:B *548:18 0
6 *1683:B *565:52 0.000261257
7 *1686:A1 *59:8 7.84515e-05
8 *57:10 *61:22 1.24376e-05
9 *57:10 *565:52 0.000108681
10 *1681:A1 *1683:B 2.64506e-05
11 *1681:A1 *57:10 2.01531e-05
12 *1681:A2 *1686:A1 8.06804e-06
13 *1682:C *57:10 2.37237e-05
14 *50:31 *57:10 1.01436e-05
15 *51:8 *57:10 6.7177e-06
16 *51:12 *57:10 4.08664e-05
17 *51:20 *57:10 9.41704e-05
*RES
1 *1682:X *57:10 41.1279 
2 *57:10 *1686:A1 40.9 
3 *57:10 *1683:B 41.6664 
*END

*D_NET *58 0.000405056
*CONN
*I *1721:A I *D sky130_fd_sc_hd__xnor2_1
*I *1683:Y O *D sky130_fd_sc_hd__nor2_1
*CAP
1 *1721:A 0
2 *1683:Y 0.000140664
3 *58:10 0.000140664
4 *58:10 *60:16 3.92407e-05
5 *58:10 *515:20 1.39431e-05
6 *58:10 *546:119 2.96909e-05
7 *58:10 *548:18 0
8 *58:10 *565:52 4.08537e-05
*RES
1 *1683:Y *58:10 40.8793 
2 *58:10 *1721:A 38 
*END

*D_NET *59 0.00100314
*CONN
*I *1686:A2 I *D sky130_fd_sc_hd__o21ai_2
*I *1684:Y O *D sky130_fd_sc_hd__nor2_1
*CAP
1 *1686:A2 0
2 *1684:Y 0.000279352
3 *59:8 0.000279352
4 *59:8 *1684:B 3.22879e-05
5 *1681:A2 *59:8 0.000218836
6 *1686:A1 *59:8 7.84515e-05
7 *1686:B1 *59:8 0.000114856
*RES
1 *1684:Y *59:8 29.3593 
2 *59:8 *1686:A2 23 
*END

*D_NET *60 0.000751736
*CONN
*I *1727:A I *D sky130_fd_sc_hd__nand2_1
*I *1721:B I *D sky130_fd_sc_hd__xnor2_1
*I *1685:X O *D sky130_fd_sc_hd__or2_1
*CAP
1 *1727:A 0
2 *1721:B 0
3 *1685:X 6.93138e-05
4 *60:16 0.00015087
5 *60:8 0.000220184
6 *60:8 *1685:A 0
7 *60:8 *1727:B 5.50049e-05
8 *60:8 *102:10 2.18409e-05
9 *60:8 *512:51 0.00010018
10 *60:16 *512:51 2.18506e-05
11 *60:16 *546:119 0
12 *60:16 *548:18 7.32496e-05
13 *58:10 *60:16 3.92407e-05
*RES
1 *1685:X *60:8 25.0714 
2 *60:8 *60:16 33.5836 
3 *60:16 *1721:B 23 
4 *60:8 *1727:A 23 
*END

*D_NET *61 0.00948044
*CONN
*I *1718:A1 I *D sky130_fd_sc_hd__a31o_1
*I *1740:A1 I *D sky130_fd_sc_hd__a21o_1
*I *1745:A I *D sky130_fd_sc_hd__xnor2_1
*I *1713:D_N I *D sky130_fd_sc_hd__or4b_4
*I *1686:Y O *D sky130_fd_sc_hd__o21ai_2
*CAP
1 *1718:A1 6.4145e-05
2 *1740:A1 0.000179521
3 *1745:A 0.000155753
4 *1713:D_N 0.000306246
5 *1686:Y 0.000111819
6 *61:62 0.000451688
7 *61:49 0.000641138
8 *61:26 0.000797277
9 *61:22 0.000957892
10 *61:8 0.000856043
11 *1713:D_N *1713:A 6.81306e-05
12 *1713:D_N *1713:B 2.91677e-05
13 *1713:D_N *70:24 0.000179473
14 *1713:D_N *88:8 8.62783e-05
15 *1718:A1 *1718:B1 5.50049e-05
16 *1740:A1 *1704:B 5.37348e-06
17 *1740:A1 *1740:A2 5.3304e-05
18 *1740:A1 *75:12 0.000139647
19 *1740:A1 *79:6 2.07355e-05
20 *1740:A1 *116:14 6.79006e-05
21 *1745:A *1691:B 0.000126696
22 *1745:A *539:49 0.000362923
23 *61:8 *542:84 0.000190227
24 *61:8 *546:119 0.000187057
25 *61:22 *1694:A2 0.000254057
26 *61:22 *1694:B1 9.41704e-05
27 *61:22 *1746:S 6.8137e-05
28 *61:22 *69:6 0.000116946
29 *61:22 *83:14 0.000137651
30 *61:22 *539:62 0.000665244
31 *61:22 *561:6 0.00024763
32 *61:26 *88:8 7.39034e-05
33 *61:26 *539:37 0
34 *61:26 *539:49 0
35 *61:49 *1691:B 3.7122e-06
36 *61:49 *64:24 0.000288463
37 *61:49 *539:49 0.000255636
38 *61:62 *75:12 0.000617867
39 *61:62 *94:10 0.000108681
40 *61:62 *116:14 0.000254733
41 *1682:C *61:22 7.44354e-05
42 *51:20 *61:22 0.000113293
43 *57:10 *61:22 1.24376e-05
*RES
1 *1686:Y *61:8 40.61 
2 *61:8 *61:22 35.0307 
3 *61:22 *61:26 18.3143 
4 *61:26 *1713:D_N 44.1521 
5 *61:26 *61:49 21.5043 
6 *61:49 *1745:A 27.8057 
7 *61:49 *61:62 23.2443 
8 *61:62 *1740:A1 41.48 
9 *61:62 *1718:A1 39.0979 
*END

*D_NET *62 0.00362928
*CONN
*I *1689:A2 I *D sky130_fd_sc_hd__a21oi_1
*I *1687:Y O *D sky130_fd_sc_hd__xnor2_1
*CAP
1 *1689:A2 0
2 *1687:Y 0.000370001
3 *62:14 0.000490944
4 *62:8 0.000860946
5 *62:14 *1670:C1 6.48142e-05
6 *62:14 *63:10 1.89075e-05
7 *62:14 *471:10 8.56352e-05
8 *62:14 *477:20 0.00042963
9 *62:14 *478:10 0.000163352
10 *62:14 *539:110 0.000113153
11 *62:14 *565:52 0.000373109
12 *1671:A2 *62:8 9.41704e-05
13 *1689:A1 *62:14 6.10573e-05
14 *2121:A *62:8 7.13697e-05
15 *43:6 *62:14 0.000223698
16 *44:10 *62:14 0.000153482
17 *45:48 *62:14 0
18 *46:10 *62:8 5.50106e-05
*RES
1 *1687:Y *62:8 42.4329 
2 *62:8 *62:14 29.645 
3 *62:14 *1689:A2 23 
*END

*D_NET *63 0.000808841
*CONN
*I *1689:B1 I *D sky130_fd_sc_hd__a21oi_1
*I *1688:Y O *D sky130_fd_sc_hd__a21oi_1
*CAP
1 *1689:B1 0
2 *1688:Y 0.000224301
3 *63:10 0.000224301
4 *63:10 *477:20 0.000109332
5 *63:10 *539:110 0.000110922
6 *63:10 *539:125 8.06804e-06
7 *1689:A1 *63:10 1.14452e-05
8 *45:48 *63:10 0.000101564
9 *62:14 *63:10 1.89075e-05
*RES
1 *1688:Y *63:10 42.5364 
2 *63:10 *1689:B1 38 
*END

*D_NET *64 0.00834562
*CONN
*I *1690:B I *D sky130_fd_sc_hd__or2_1
*I *1720:A0 I *D sky130_fd_sc_hd__mux2_4
*I *1691:B I *D sky130_fd_sc_hd__xnor2_1
*I *1689:Y O *D sky130_fd_sc_hd__a21oi_1
*CAP
1 *1690:B 0
2 *1720:A0 0
3 *1691:B 0.000328337
4 *1689:Y 0.000261294
5 *64:41 0.000207394
6 *64:24 0.00144585
7 *64:14 0.00114898
8 *64:10 0.000500158
9 *1691:B *120:10 0.000180212
10 *1691:B *539:49 0.000142039
11 *64:10 *1663:B 5.79413e-06
12 *64:10 *546:119 0.000168313
13 *64:10 *565:52 0.000182585
14 *64:14 *539:85 5.50049e-05
15 *64:24 *1693:B 5.50106e-05
16 *64:24 *1717:A3 0.000519691
17 *64:24 *70:22 0.000219383
18 *64:24 *120:10 0.000406844
19 *64:24 *534:66 9.78729e-06
20 *64:24 *534:74 0.000604473
21 *64:24 *539:68 0.0001074
22 *64:24 *539:85 7.73692e-05
23 *64:41 *75:12 0.000380333
24 *64:41 *94:10 0.000380333
25 *1676:D *64:14 5.50049e-05
26 *1745:A *1691:B 0.000126696
27 *43:6 *64:10 2.4754e-05
28 *44:8 *64:10 9.41704e-05
29 *45:56 *64:14 1.24376e-05
30 *45:68 *64:14 1.41129e-05
31 *49:42 *64:14 0.000195851
32 *49:42 *64:24 6.17437e-06
33 *50:8 *64:14 0.000137651
34 *61:49 *1691:B 3.7122e-06
35 *61:49 *64:24 0.000288463
*RES
1 *1689:Y *64:10 42.1843 
2 *64:10 *64:14 20.3857 
3 *64:14 *64:24 22.3714 
4 *64:24 *1691:B 30.6643 
5 *64:24 *64:41 36.1729 
6 *64:41 *1720:A0 23 
7 *64:14 *1690:B 23 
*END

*D_NET *65 0.00182033
*CONN
*I *1716:A1 I *D sky130_fd_sc_hd__a21o_1
*I *1690:X O *D sky130_fd_sc_hd__or2_1
*CAP
1 *1716:A1 0.000224847
2 *1690:X 0.000246179
3 *65:10 0.000471026
4 *1716:A1 *1674:B 0.000224605
5 *1716:A1 *1692:A1 9.84851e-05
6 *1716:A1 *1716:B1 5.18223e-05
7 *65:10 *1693:A 9.84851e-05
8 *65:10 *283:12 0.000238194
9 *65:10 *471:26 4.96264e-05
10 *65:10 *471:41 6.33614e-05
11 *65:10 *539:68 2.02872e-05
12 *1692:B1 *1716:A1 3.34129e-05
*RES
1 *1690:X *65:10 42.8886 
2 *65:10 *1716:A1 43.5721 
*END

*D_NET *66 0.00234096
*CONN
*I *1713:A I *D sky130_fd_sc_hd__or4b_4
*I *1715:A I *D sky130_fd_sc_hd__or3b_1
*I *1719:A I *D sky130_fd_sc_hd__xor2_1
*I *1691:Y O *D sky130_fd_sc_hd__xnor2_1
*CAP
1 *1713:A 9.09143e-05
2 *1715:A 0
3 *1719:A 0
4 *1691:Y 0.000178818
5 *66:25 0.00013983
6 *66:19 0.000822802
7 *66:12 0.000592057
8 *66:10 0.000178818
9 *66:10 *1745:B 4.16661e-05
10 *66:10 *93:10 3.70187e-05
11 *66:10 *539:49 9.84794e-05
12 *66:19 *94:10 8.82055e-05
13 *66:25 *70:32 0
14 *66:25 *75:12 0
15 *66:25 *89:25 4.21594e-06
16 *1713:D_N *1713:A 6.81306e-05
*RES
1 *1691:Y *66:10 41.3557 
2 *66:10 *66:12 15 
3 *66:12 *1719:A 23 
4 *66:12 *66:19 10.15 
5 *66:19 *66:25 32.61 
6 *66:25 *1715:A 23 
7 *66:19 *1713:A 25.0714 
*END

*D_NET *67 0.0050905
*CONN
*I *1761:A I *D sky130_fd_sc_hd__or3_1
*I *1738:A1 I *D sky130_fd_sc_hd__o21ai_1
*I *1694:A2 I *D sky130_fd_sc_hd__a21o_1
*I *1693:C I *D sky130_fd_sc_hd__and3_1
*I *1692:X O *D sky130_fd_sc_hd__a21o_1
*CAP
1 *1761:A 0.00013017
2 *1738:A1 0
3 *1694:A2 0.000204877
4 *1693:C 9.81451e-05
5 *1692:X 7.00224e-05
6 *67:32 0.000426546
7 *67:19 0.000572459
8 *67:8 0.000239373
9 *1693:C *68:8 0.000136743
10 *1693:C *534:74 4.21378e-05
11 *1693:C *539:68 0.000124236
12 *1694:A2 *1694:A1 9.67842e-05
13 *1694:A2 *1694:B1 9.67842e-05
14 *1694:A2 *471:41 0.000181125
15 *1694:A2 *539:62 9.41704e-05
16 *1761:A *1761:C 9.67842e-05
17 *1761:A *136:8 9.82009e-05
18 *1761:A *512:25 0.00010404
19 *1761:A *512:36 2.18409e-05
20 *1761:A *531:72 0.000222104
21 *67:8 *1673:B 1.14452e-05
22 *67:8 *1716:B1 0.000193388
23 *67:8 *531:72 2.55642e-05
24 *67:8 *531:74 0.000154147
25 *67:19 *1695:A_N 0.000108681
26 *67:19 *1716:B1 2.55642e-05
27 *67:19 *531:72 0.000133316
28 *67:32 *1695:A_N 0.000231212
29 *67:32 *2111:A 1.12487e-05
30 *67:32 *512:12 0.000186687
31 *67:32 *512:25 4.6318e-06
32 *67:32 *531:72 0.000694011
33 *61:22 *1694:A2 0.000254057
*RES
1 *1692:X *67:8 40.61 
2 *67:8 *1693:C 40.3614 
3 *67:8 *67:19 1.90571 
4 *67:19 *1694:A2 43.8829 
5 *67:19 *67:32 9.30071 
6 *67:32 *1738:A1 38 
7 *67:32 *1761:A 42.5364 
*END

*D_NET *68 0.00297669
*CONN
*I *1695:A_N I *D sky130_fd_sc_hd__nand2b_1
*I *1716:B1 I *D sky130_fd_sc_hd__a21o_1
*I *1693:X O *D sky130_fd_sc_hd__and3_1
*CAP
1 *1695:A_N 0.000328545
2 *1716:B1 0.000282731
3 *1693:X 0.00016251
4 *68:8 0.000773787
5 *1695:A_N *2111:A 0.000319013
6 *1695:A_N *92:8 0.000126343
7 *1695:A_N *512:12 1.21972e-05
8 *1716:B1 *1673:B 5.30621e-05
9 *1716:B1 *69:31 0.00011965
10 *1716:B1 *92:8 3.92407e-05
11 *68:8 *534:74 1.21972e-05
12 *1693:C *68:8 0.000136743
13 *1716:A1 *1716:B1 5.18223e-05
14 *67:8 *1716:B1 0.000193388
15 *67:19 *1695:A_N 0.000108681
16 *67:19 *1716:B1 2.55642e-05
17 *67:32 *1695:A_N 0.000231212
*RES
1 *1693:X *68:8 40.0507 
2 *68:8 *1716:B1 44.9186 
3 *68:8 *1695:A_N 45.7471 
*END

*D_NET *69 0.00282771
*CONN
*I *1716:A2 I *D sky130_fd_sc_hd__a21o_1
*I *1695:B I *D sky130_fd_sc_hd__nand2b_1
*I *1694:X O *D sky130_fd_sc_hd__a21o_1
*CAP
1 *1716:A2 0
2 *1695:B 0
3 *1694:X 0.000319418
4 *69:31 0.000419447
5 *69:16 0.000258995
6 *69:6 0.00099786
7 *69:6 *561:6 8.11489e-05
8 *69:16 *534:60 0.000169385
9 *69:16 *561:6 0.000103405
10 *69:31 *2111:A 5.15635e-05
11 *69:31 *70:22 2.67179e-05
12 *69:31 *92:8 0.000163178
13 *1716:B1 *69:31 0.00011965
14 *61:22 *69:6 0.000116946
*RES
1 *1694:X *69:6 27.4329 
2 *69:6 *69:16 34.4588 
3 *69:16 *1695:B 23 
4 *69:6 *69:31 37.6021 
5 *69:31 *1716:A2 23 
*END

*D_NET *70 0.00348393
*CONN
*I *1713:C I *D sky130_fd_sc_hd__or4b_4
*I *1715:B I *D sky130_fd_sc_hd__or3b_1
*I *1695:Y O *D sky130_fd_sc_hd__nand2b_1
*CAP
1 *1713:C 0
2 *1715:B 0
3 *1695:Y 0.000305744
4 *70:32 0.000374638
5 *70:24 0.000532897
6 *70:22 0.000419122
7 *70:12 0.000566607
8 *70:12 *83:14 4.80445e-06
9 *70:12 *90:10 3.6228e-05
10 *70:12 *120:10 0.000133658
11 *70:12 *121:12 0
12 *70:12 *534:60 0.00021179
13 *70:12 *561:23 0.000121336
14 *70:22 *83:14 1.13013e-05
15 *70:22 *91:8 8.50366e-05
16 *70:24 *1713:B 9.77405e-05
17 *70:32 *87:10 0.000149725
18 *70:32 *89:25 0
19 *70:32 *90:10 7.73333e-06
20 *1713:D_N *70:24 0.000179473
21 *64:24 *70:22 0.000219383
22 *66:25 *70:32 0
23 *69:31 *70:22 2.67179e-05
*RES
1 *1695:Y *70:12 44.8979 
2 *70:12 *70:22 49.0807 
3 *70:22 *70:24 3.00357 
4 *70:24 *70:32 36.4214 
5 *70:32 *1715:B 23 
6 *70:24 *1713:C 23 
*END

*D_NET *71 0.000568821
*CONN
*I *1697:B I *D sky130_fd_sc_hd__xnor2_1
*I *1696:Y O *D sky130_fd_sc_hd__xnor2_1
*CAP
1 *1697:B 0
2 *1696:Y 0.000249153
3 *71:8 0.000249153
4 *71:8 *72:8 7.05156e-05
*RES
1 *1696:Y *71:8 27.93 
2 *71:8 *1697:B 23 
*END

*D_NET *72 0.00201096
*CONN
*I *1699:C I *D sky130_fd_sc_hd__or3_4
*I *1697:Y O *D sky130_fd_sc_hd__xnor2_1
*CAP
1 *1699:C 0.000540379
2 *1697:Y 0.000161207
3 *72:8 0.000701585
4 *1699:C *1707:C 9.16763e-05
5 *1699:C *80:10 0.000302339
6 *1699:C *484:35 5.67058e-05
7 *1666:C1 *1699:C 1.69668e-05
8 *34:14 *1699:C 6.95872e-05
9 *35:10 *1699:C 0
10 *40:10 *1699:C 0
11 *71:8 *72:8 7.05156e-05
*RES
1 *1697:Y *72:8 40.5271 
2 *72:8 *1699:C 49.4757 
*END

*D_NET *73 0.00311889
*CONN
*I *1703:A1 I *D sky130_fd_sc_hd__a21o_1
*I *1701:C I *D sky130_fd_sc_hd__and3_1
*I *1700:A I *D sky130_fd_sc_hd__nand2_1
*I *1702:A1 I *D sky130_fd_sc_hd__a21oi_1
*I *1698:X O *D sky130_fd_sc_hd__a21o_1
*CAP
1 *1703:A1 0
2 *1701:C 0
3 *1700:A 0.000179774
4 *1702:A1 4.7555e-05
5 *1698:X 0.000313576
6 *73:31 0.000439577
7 *73:18 0.000360632
8 *73:12 0.00036685
9 *1700:A *1700:B 0.000155098
10 *1700:A *1711:B 3.80033e-05
11 *1702:A1 *74:46 3.76761e-05
12 *1702:A1 *84:44 8.62783e-05
13 *73:12 *1701:A 0
14 *73:12 *1710:C 3.52821e-06
15 *73:12 *1711:B 0
16 *73:12 *81:8 9.58484e-05
17 *73:12 *81:17 0.000292916
18 *73:12 *81:25 5.50106e-05
19 *73:12 *82:24 0.000225611
20 *73:12 *85:6 0.000146822
21 *73:18 *1711:B 6.17437e-06
22 *73:18 *74:46 2.8183e-05
23 *73:18 *84:44 5.24393e-05
24 *73:18 *85:6 1.56542e-05
25 *73:31 *1700:B 6.21178e-05
26 *73:31 *1701:A 7.4416e-05
27 *73:31 *1703:B1 2.02872e-05
28 *73:31 *1711:B 1.48605e-05
*RES
1 *1698:X *73:12 31.1821 
2 *73:12 *73:18 16.4707 
3 *73:18 *1702:A1 39.2014 
4 *73:18 *73:31 18.5629 
5 *73:31 *1700:A 26.2936 
6 *73:31 *1701:C 23 
7 *73:12 *1703:A1 23 
*END

*D_NET *74 0.00317018
*CONN
*I *1702:A2 I *D sky130_fd_sc_hd__a21oi_1
*I *1703:A2 I *D sky130_fd_sc_hd__a21o_1
*I *1700:B I *D sky130_fd_sc_hd__nand2_1
*I *1701:B I *D sky130_fd_sc_hd__and3_1
*I *1699:X O *D sky130_fd_sc_hd__or3_4
*CAP
1 *1702:A2 0
2 *1703:A2 0
3 *1700:B 0.000106532
4 *1701:B 8.45451e-05
5 *1699:X 0.000272249
6 *74:46 0.00013926
7 *74:14 0.000460153
8 *74:8 0.000680585
9 *1700:B *1701:A 0
10 *1700:B *1711:B 0.000168417
11 *1700:B *77:10 6.12496e-06
12 *1701:B *1740:B1 0
13 *1701:B *76:8 6.07611e-06
14 *1701:B *77:10 0
15 *1701:B *78:10 6.07611e-06
16 *1701:B *84:18 0
17 *74:8 *1709:B1 0.000100061
18 *74:8 *84:8 0.000108296
19 *74:8 *283:26 0.000183353
20 *74:14 *77:10 0
21 *74:14 *84:8 4.18888e-05
22 *74:14 *84:18 0.000269775
23 *74:14 *283:26 0.000142636
24 *74:46 *1709:B1 2.24366e-06
25 *74:46 *81:25 3.87236e-05
26 *74:46 *84:44 1.44813e-05
27 *74:46 *283:26 5.56279e-05
28 *1700:A *1700:B 0.000155098
29 *1702:A1 *74:46 3.76761e-05
30 *73:18 *74:46 2.8183e-05
31 *73:31 *1700:B 6.21178e-05
*RES
1 *1699:X *74:8 30.3121 
2 *74:8 *74:14 21.3904 
3 *74:14 *1701:B 39.3775 
4 *74:14 *1700:B 41.4904 
5 *74:8 *74:46 33.2314 
6 *74:46 *1703:A2 23 
7 *74:8 *1702:A2 23 
*END

*D_NET *75 0.00351726
*CONN
*I *1742:A0 I *D sky130_fd_sc_hd__mux2_4
*I *1700:Y O *D sky130_fd_sc_hd__nand2_1
*CAP
1 *1742:A0 0
2 *1700:Y 0
3 *75:12 0.000901656
4 *75:6 0.000901656
5 *75:12 *76:8 8.41115e-05
6 *75:12 *88:8 0
7 *75:12 *89:8 8.51329e-05
8 *75:12 *89:25 0
9 *75:12 *94:10 4.98747e-05
10 *75:12 *116:14 0.000159501
11 *75:12 *539:37 0
12 *75:12 *539:49 0
13 *75:12 *561:36 0.000197479
14 *75:12 *564:10 0
15 *1740:A1 *75:12 0.000139647
16 *61:62 *75:12 0.000617867
17 *64:41 *75:12 0.000380333
18 *66:25 *75:12 0
*RES
1 *1700:Y *75:6 38 
2 *75:6 *75:12 38.0757 
3 *75:12 *1742:A0 23 
*END

*D_NET *76 0.0016556
*CONN
*I *2130:A I *D sky130_fd_sc_hd__dlygate4sd3_1
*I *1712:D I *D sky130_fd_sc_hd__or4_4
*I *1704:A I *D sky130_fd_sc_hd__nor2_1
*I *1701:X O *D sky130_fd_sc_hd__and3_1
*CAP
1 *2130:A 0
2 *1712:D 0
3 *1704:A 0
4 *1701:X 0.000102452
5 *76:34 0.000287785
6 *76:21 0.000470539
7 *76:12 0.000194853
8 *76:8 0.000114551
9 *76:8 *78:10 0
10 *76:8 *564:10 4.6318e-06
11 *76:12 *1704:B 5.50049e-05
12 *76:21 *1704:B 0.000110861
13 *76:21 *1714:A2 5.67058e-05
14 *76:21 *1740:A2 0
15 *76:34 *1712:B 8.48502e-06
16 *76:34 *1714:A2 8.52481e-05
17 *76:34 *85:31 2.93431e-05
18 *76:34 *87:10 4.49561e-05
19 *76:34 *564:10 0
20 *1701:B *76:8 6.07611e-06
21 *75:12 *76:8 8.41115e-05
*RES
1 *1701:X *76:8 40.2579 
2 *76:8 *76:12 15.6214 
3 *76:12 *1704:A 23 
4 *76:12 *76:21 3.97714 
5 *76:21 *1712:D 23 
6 *76:21 *76:34 35.2614 
7 *76:34 *2130:A 23 
*END

*D_NET *77 0.00207649
*CONN
*I *1712:B I *D sky130_fd_sc_hd__or4_4
*I *1704:B I *D sky130_fd_sc_hd__nor2_1
*I *1702:Y O *D sky130_fd_sc_hd__a21oi_1
*CAP
1 *1712:B 0.000106369
2 *1704:B 0.000272271
3 *1702:Y 0.000308163
4 *77:12 0.000378641
5 *77:10 0.000308163
6 *1704:B *1714:A2 2.93747e-05
7 *1704:B *1740:A2 5.90675e-06
8 *1704:B *79:6 1.32314e-05
9 *1712:B *1712:C 2.08774e-05
10 *1712:B *1714:A2 5.12254e-05
11 *1712:B *85:31 1.24376e-05
12 *77:10 *1714:A2 1.22803e-05
13 *77:10 *78:10 5.31444e-05
14 *77:10 *84:18 5.50106e-05
15 *77:10 *84:44 9.70354e-05
16 *77:10 *283:32 0.000166513
17 *1700:B *77:10 6.12496e-06
18 *1701:B *77:10 0
19 *1740:A1 *1704:B 5.37348e-06
20 *74:14 *77:10 0
21 *76:12 *1704:B 5.50049e-05
22 *76:21 *1704:B 0.000110861
23 *76:34 *1712:B 8.48502e-06
*RES
1 *1702:Y *77:10 44.4007 
2 *77:10 *77:12 15 
3 *77:12 *1704:B 28.5721 
4 *77:12 *1712:B 25.0714 
*END

*D_NET *78 0.000594534
*CONN
*I *1714:A1 I *D sky130_fd_sc_hd__a21o_1
*I *1703:X O *D sky130_fd_sc_hd__a21o_1
*CAP
1 *1714:A1 0
2 *1703:X 0.000215379
3 *78:10 0.000215379
4 *78:10 *1711:B 9.84794e-05
5 *78:10 *1714:A2 0
6 *78:10 *564:10 6.07611e-06
7 *1701:B *78:10 6.07611e-06
8 *76:8 *78:10 0
9 *77:10 *78:10 5.31444e-05
*RES
1 *1703:X *78:10 41.3557 
2 *78:10 *1714:A1 38 
*END

*D_NET *79 0.00170814
*CONN
*I *1718:A2 I *D sky130_fd_sc_hd__a31o_1
*I *1741:A I *D sky130_fd_sc_hd__xnor2_1
*I *1704:Y O *D sky130_fd_sc_hd__nor2_1
*CAP
1 *1718:A2 0
2 *1741:A 0.000184511
3 *1704:Y 7.31671e-05
4 *79:21 0.000135248
5 *79:6 0.000392925
6 *1741:A *1740:A2 4.02485e-05
7 *1741:A *1740:B1 2.93747e-05
8 *1741:A *1741:B 0.000185428
9 *1741:A *116:8 0.000267167
10 *79:6 *1740:A2 1.59094e-05
11 *79:6 *116:8 4.08664e-05
12 *79:21 *1740:B1 6.25829e-05
13 *79:21 *86:10 0
14 *79:21 *86:23 0
15 *79:21 *116:14 0.000246748
16 *1704:B *79:6 1.32314e-05
17 *1740:A1 *79:6 2.07355e-05
*RES
1 *1704:Y *79:6 24.5743 
2 *79:6 *1741:A 28.2821 
3 *79:6 *79:21 33.3143 
4 *79:21 *1718:A2 23 
*END

*D_NET *80 0.0016159
*CONN
*I *1707:C I *D sky130_fd_sc_hd__or3_4
*I *1705:Y O *D sky130_fd_sc_hd__xnor2_1
*CAP
1 *1707:C 4.51221e-05
2 *1705:Y 0.000477579
3 *80:10 0.000522701
4 *80:10 *484:35 0
5 *1699:C *1707:C 9.16763e-05
6 *1699:C *80:10 0.000302339
7 *1705:B *80:10 0.000176484
8 *35:10 *80:10 0
9 *42:8 *80:10 0
*RES
1 *1705:Y *80:10 46.9279 
2 *80:10 *1707:C 39.2014 
*END

*D_NET *81 0.00190044
*CONN
*I *1710:B I *D sky130_fd_sc_hd__and3_1
*I *1709:A1 I *D sky130_fd_sc_hd__a21oi_1
*I *1708:A I *D sky130_fd_sc_hd__and2_1
*I *1706:X O *D sky130_fd_sc_hd__a21o_1
*CAP
1 *1710:B 2.34823e-05
2 *1709:A1 0
3 *1708:A 0
4 *1706:X 0.000154091
5 *81:25 0.000148607
6 *81:17 0.00031791
7 *81:8 0.000299912
8 *81:8 *82:18 6.44251e-05
9 *81:17 *82:18 0.000100069
10 *81:17 *83:8 5.56279e-05
11 *81:25 *1709:B1 6.78755e-06
12 *81:25 *82:37 0.000114566
13 *81:25 *84:44 0
14 *1698:A1 *81:8 0.00010018
15 *1698:A2 *81:8 3.22879e-05
16 *73:12 *81:8 9.58484e-05
17 *73:12 *81:17 0.000292916
18 *73:12 *81:25 5.50106e-05
19 *74:46 *81:25 3.87236e-05
*RES
1 *1706:X *81:8 26.9771 
2 *81:8 *1708:A 23 
3 *81:8 *81:17 4.32929 
4 *81:17 *81:25 33.2314 
5 *81:25 *1709:A1 23 
6 *81:17 *1710:B 23.4971 
*END

*D_NET *82 0.0036551
*CONN
*I *1708:B I *D sky130_fd_sc_hd__and2_1
*I *1709:A2 I *D sky130_fd_sc_hd__a21oi_1
*I *1710:C I *D sky130_fd_sc_hd__and3_1
*I *1707:X O *D sky130_fd_sc_hd__or3_4
*CAP
1 *1708:B 0
2 *1709:A2 0
3 *1710:C 1.42521e-05
4 *1707:X 0.000233621
5 *82:37 0.000116706
6 *82:24 0.000269675
7 *82:20 0.000138716
8 *82:18 0.000626221
9 *82:10 0.000859842
10 *82:18 *546:81 3.54728e-05
11 *82:24 *1710:A 5.56279e-05
12 *82:37 *1709:B1 0.00017336
13 *1698:A2 *82:18 0.000153145
14 *33:12 *82:10 0
15 *45:12 *82:10 8.43466e-05
16 *45:26 *82:10 7.74714e-05
17 *46:10 *82:18 2.31797e-05
18 *48:12 *82:10 4.43717e-05
19 *49:14 *82:10 0.000240898
20 *73:12 *1710:C 3.52821e-06
21 *73:12 *82:24 0.000225611
22 *81:8 *82:18 6.44251e-05
23 *81:17 *82:18 0.000100069
24 *81:25 *82:37 0.000114566
*RES
1 *1707:X *82:10 43.5929 
2 *82:10 *82:18 38.9693 
3 *82:18 *82:20 15 
4 *82:20 *82:24 3.02429 
5 *82:24 *1710:C 23.2279 
6 *82:24 *82:37 32.2579 
7 *82:37 *1709:A2 23 
8 *82:20 *1708:B 23 
*END

*D_NET *83 0.00283568
*CONN
*I *1746:A0 I *D sky130_fd_sc_hd__mux2_4
*I *1708:X O *D sky130_fd_sc_hd__and2_1
*CAP
1 *1746:A0 0
2 *1708:X 4.60886e-05
3 *83:14 0.000749428
4 *83:8 0.000795516
5 *83:14 *1714:A2 0
6 *83:14 *1746:S 9.5877e-05
7 *83:14 *87:10 0.00023335
8 *83:14 *90:10 0.000369929
9 *83:14 *91:8 0.000133649
10 *83:14 *534:60 7.56417e-05
11 *83:14 *546:81 8.50457e-05
12 *83:14 *561:6 4.17736e-05
13 *61:22 *83:14 0.000137651
14 *70:12 *83:14 4.80445e-06
15 *70:22 *83:14 1.13013e-05
16 *81:17 *83:8 5.56279e-05
*RES
1 *1708:X *83:8 38.6214 
2 *83:8 *83:14 32.5657 
3 *83:14 *1746:A0 23 
*END

*D_NET *84 0.00390548
*CONN
*I *1714:A2 I *D sky130_fd_sc_hd__a21o_1
*I *1712:C I *D sky130_fd_sc_hd__or4_4
*I *1740:B1 I *D sky130_fd_sc_hd__a21o_1
*I *1711:A I *D sky130_fd_sc_hd__nor2_1
*I *1709:Y O *D sky130_fd_sc_hd__a21oi_1
*CAP
1 *1714:A2 9.6102e-05
2 *1712:C 1.95528e-05
3 *1740:B1 0.000263674
4 *1711:A 0
5 *1709:Y 0.000109808
6 *84:44 0.000322456
7 *84:18 0.000767625
8 *84:8 0.00082056
9 *1714:A2 *85:31 6.16531e-05
10 *1740:B1 *1740:A2 5.50049e-05
11 *1740:B1 *86:10 2.87738e-05
12 *1740:B1 *116:14 1.12487e-05
13 *84:44 *85:31 0.000111852
14 *84:44 *283:32 0.000164291
15 *1701:B *1740:B1 0
16 *1701:B *84:18 0
17 *1702:A1 *84:44 8.62783e-05
18 *1704:B *1714:A2 2.93747e-05
19 *1712:B *1712:C 2.08774e-05
20 *1712:B *1714:A2 5.12254e-05
21 *1741:A *1740:B1 2.93747e-05
22 *73:18 *84:44 5.24393e-05
23 *74:8 *84:8 0.000108296
24 *74:14 *84:8 4.18888e-05
25 *74:14 *84:18 0.000269775
26 *74:46 *84:44 1.44813e-05
27 *76:21 *1714:A2 5.67058e-05
28 *76:34 *1714:A2 8.52481e-05
29 *77:10 *1714:A2 1.22803e-05
30 *77:10 *84:18 5.50106e-05
31 *77:10 *84:44 9.70354e-05
32 *78:10 *1714:A2 0
33 *79:21 *1740:B1 6.25829e-05
34 *81:25 *84:44 0
35 *83:14 *1714:A2 0
*RES
1 *1709:Y *84:8 25.5479 
2 *84:8 *84:18 25.0671 
3 *84:18 *1711:A 38 
4 *84:18 *1740:B1 42.7021 
5 *84:8 *84:44 20.075 
6 *84:44 *1712:C 38.2434 
7 *84:44 *1714:A2 40.7757 
*END

*D_NET *85 0.00210106
*CONN
*I *1712:A I *D sky130_fd_sc_hd__or4_4
*I *1711:B I *D sky130_fd_sc_hd__nor2_1
*I *1710:X O *D sky130_fd_sc_hd__and3_1
*CAP
1 *1712:A 0
2 *1711:B 0.000373477
3 *1710:X 9.2149e-05
4 *85:31 0.00017039
5 *85:6 0.000636017
6 *1711:B *1701:A 8.56334e-05
7 *1711:B *1703:B1 2.64616e-05
8 *1711:B *86:10 1.32314e-05
9 *1700:A *1711:B 3.80033e-05
10 *1700:B *1711:B 0.000168417
11 *1712:B *85:31 1.24376e-05
12 *1714:A2 *85:31 6.16531e-05
13 *73:12 *1711:B 0
14 *73:12 *85:6 0.000146822
15 *73:18 *1711:B 6.17437e-06
16 *73:18 *85:6 1.56542e-05
17 *73:31 *1711:B 1.48605e-05
18 *76:34 *85:31 2.93431e-05
19 *78:10 *1711:B 9.84794e-05
20 *84:44 *85:31 0.000111852
*RES
1 *1710:X *85:6 25.0507 
2 *85:6 *1711:B 32.1764 
3 *85:6 *85:31 32.8793 
4 *85:31 *1712:A 23 
*END

*D_NET *86 0.00286968
*CONN
*I *1745:B I *D sky130_fd_sc_hd__xnor2_1
*I *1718:A3 I *D sky130_fd_sc_hd__a31o_1
*I *1740:A2 I *D sky130_fd_sc_hd__a21o_1
*I *1711:Y O *D sky130_fd_sc_hd__nor2_1
*CAP
1 *1745:B 0.000399623
2 *1718:A3 8.22316e-05
3 *1740:A2 0.000159224
4 *1711:Y 0.000403857
5 *86:23 0.000630615
6 *86:10 0.000711841
7 *1718:A3 *93:10 2.93845e-05
8 *1740:A2 *1741:B 6.17437e-06
9 *1745:B *93:10 0.000192681
10 *1745:B *116:14 0
11 *86:23 *116:14 0
12 *1704:B *1740:A2 5.90675e-06
13 *1711:B *86:10 1.32314e-05
14 *1740:A1 *1740:A2 5.3304e-05
15 *1740:B1 *1740:A2 5.50049e-05
16 *1740:B1 *86:10 2.87738e-05
17 *1741:A *1740:A2 4.02485e-05
18 *66:10 *1745:B 4.16661e-05
19 *76:21 *1740:A2 0
20 *79:6 *1740:A2 1.59094e-05
21 *79:21 *86:10 0
22 *79:21 *86:23 0
*RES
1 *1711:Y *86:10 43.6136 
2 *86:10 *1740:A2 41.0243 
3 *86:10 *86:23 2.61 
4 *86:23 *1718:A3 39.5743 
5 *86:23 *1745:B 46.2443 
*END

*D_NET *87 0.0016929
*CONN
*I *1713:B I *D sky130_fd_sc_hd__or4b_4
*I *1712:X O *D sky130_fd_sc_hd__or4_4
*CAP
1 *1713:B 0.000108353
2 *1712:X 0.000352272
3 *87:10 0.000460625
4 *87:10 *89:25 0
5 *87:10 *90:10 0.000216712
6 *1713:D_N *1713:B 2.91677e-05
7 *70:24 *1713:B 9.77405e-05
8 *70:32 *87:10 0.000149725
9 *76:34 *87:10 4.49561e-05
10 *83:14 *87:10 0.00023335
*RES
1 *1712:X *87:10 47.57 
2 *87:10 *1713:B 39.5743 
*END

*D_NET *88 0.000734891
*CONN
*I *1717:A2 I *D sky130_fd_sc_hd__a311oi_4
*I *1713:X O *D sky130_fd_sc_hd__or4b_4
*CAP
1 *1717:A2 4.75819e-05
2 *1713:X 0.000132145
3 *88:8 0.000179727
4 *1717:A2 *1717:A3 0.000140935
5 *1717:A2 *120:10 7.43209e-05
6 *88:8 *539:49 0
7 *1713:D_N *88:8 8.62783e-05
8 *61:26 *88:8 7.39034e-05
9 *75:12 *88:8 0
*RES
1 *1713:X *88:8 40.2579 
2 *88:8 *1717:A2 39.5743 
*END

*D_NET *89 0.00122916
*CONN
*I *1715:C_N I *D sky130_fd_sc_hd__or3b_1
*I *1718:B1 I *D sky130_fd_sc_hd__a31o_1
*I *1714:X O *D sky130_fd_sc_hd__a21o_1
*CAP
1 *1715:C_N 0
2 *1718:B1 0.000134036
3 *1714:X 7.89749e-05
4 *89:25 0.000280327
5 *89:10 0.000414363
6 *89:8 7.89749e-05
7 *89:8 *564:10 4.334e-05
8 *89:25 *564:10 5.47927e-05
9 *1718:A1 *1718:B1 5.50049e-05
10 *66:25 *89:25 4.21594e-06
11 *70:32 *89:25 0
12 *75:12 *89:8 8.51329e-05
13 *75:12 *89:25 0
14 *87:10 *89:25 0
*RES
1 *1714:X *89:8 40.2579 
2 *89:8 *89:10 15 
3 *89:10 *1718:B1 25.0507 
4 *89:10 *89:25 35.4893 
5 *89:25 *1715:C_N 23 
*END

*D_NET *90 0.00143635
*CONN
*I *1717:A1 I *D sky130_fd_sc_hd__a311oi_4
*I *1715:X O *D sky130_fd_sc_hd__or3b_1
*CAP
1 *1717:A1 0
2 *1715:X 0.000402874
3 *90:10 0.000402874
4 *70:12 *90:10 3.6228e-05
5 *70:32 *90:10 7.73333e-06
6 *83:14 *90:10 0.000369929
7 *87:10 *90:10 0.000216712
*RES
1 *1715:X *90:10 45.6021 
2 *90:10 *1717:A1 38 
*END

*D_NET *91 0.00152849
*CONN
*I *1717:A3 I *D sky130_fd_sc_hd__a311oi_4
*I *1716:X O *D sky130_fd_sc_hd__a21o_1
*CAP
1 *1717:A3 0.000183563
2 *1716:X 8.22651e-05
3 *91:8 0.000265828
4 *1717:A3 *120:10 4.75713e-05
5 *1717:A3 *534:66 6.99492e-05
6 *1717:A2 *1717:A3 0.000140935
7 *64:24 *1717:A3 0.000519691
8 *70:22 *91:8 8.50366e-05
9 *83:14 *91:8 0.000133649
*RES
1 *1716:X *91:8 39.9057 
2 *91:8 *1717:A3 43.8829 
*END

*D_NET *92 0.00122315
*CONN
*I *2111:A I *D sky130_fd_sc_hd__buf_6
*I *2128:A I *D sky130_fd_sc_hd__buf_6
*I *1717:Y O *D sky130_fd_sc_hd__a311oi_4
*CAP
1 *2111:A 0.000187312
2 *2128:A 0
3 *1717:Y 6.58813e-05
4 *92:8 0.000253193
5 *2111:A *512:12 6.17437e-06
6 *1695:A_N *2111:A 0.000319013
7 *1695:A_N *92:8 0.000126343
8 *1716:B1 *92:8 3.92407e-05
9 *67:32 *2111:A 1.12487e-05
10 *69:31 *2111:A 5.15635e-05
11 *69:31 *92:8 0.000163178
*RES
1 *1717:Y *92:8 40.2579 
2 *92:8 *2128:A 38 
3 *92:8 *2111:A 42.4121 
*END

*D_NET *93 0.000917428
*CONN
*I *1719:B I *D sky130_fd_sc_hd__xor2_1
*I *1718:X O *D sky130_fd_sc_hd__a31o_1
*CAP
1 *1719:B 0
2 *1718:X 0.000329172
3 *93:10 0.000329172
4 *1718:A3 *93:10 2.93845e-05
5 *1745:B *93:10 0.000192681
6 *66:10 *93:10 3.70187e-05
*RES
1 *1718:X *93:10 44.6493 
2 *93:10 *1719:B 38 
*END

*D_NET *94 0.00196004
*CONN
*I *1720:A1 I *D sky130_fd_sc_hd__mux2_4
*I *1719:X O *D sky130_fd_sc_hd__xor2_1
*CAP
1 *1720:A1 0
2 *1719:X 0.000373482
3 *94:10 0.000373482
4 *94:10 *116:14 0.000585981
5 *61:62 *94:10 0.000108681
6 *64:41 *94:10 0.000380333
7 *66:19 *94:10 8.82055e-05
8 *75:12 *94:10 4.98747e-05
*RES
1 *1719:X *94:10 48.4193 
2 *94:10 *1720:A1 38 
*END

*D_NET *95 0.00281969
*CONN
*I *1737:B I *D sky130_fd_sc_hd__xor2_1
*I *1756:A I *D sky130_fd_sc_hd__nor2_1
*I *1752:B1_N I *D sky130_fd_sc_hd__o21bai_1
*I *1720:X O *D sky130_fd_sc_hd__mux2_4
*CAP
1 *1737:B 0.000194506
2 *1756:A 0
3 *1752:B1_N 0
4 *1720:X 0.000326713
5 *95:23 0.000506973
6 *95:10 0.00063918
7 *1737:B *1737:A 0.000250056
8 *1737:B *1756:B 5.50049e-05
9 *1737:B *112:10 2.93845e-05
10 *1737:B *131:10 3.22879e-05
11 *95:10 *121:12 0.000196188
12 *95:10 *534:50 0
13 *95:10 *534:60 0
14 *95:10 *561:23 0.000226306
15 *95:10 *565:33 0
16 *95:23 *1737:A 0.000139754
17 *95:23 *121:12 6.74097e-05
18 *95:23 *128:12 0
19 *95:23 *534:46 6.68793e-05
20 *95:23 *565:12 6.25829e-05
21 *95:23 *565:33 2.64616e-05
*RES
1 *1720:X *95:10 45.6021 
2 *95:10 *1752:B1_N 38 
3 *95:10 *95:23 21.4421 
4 *95:23 *1756:A 23 
5 *95:23 *1737:B 28.4064 
*END

*D_NET *96 0.000677095
*CONN
*I *1722:A1 I *D sky130_fd_sc_hd__mux2_1
*I *1721:Y O *D sky130_fd_sc_hd__xnor2_1
*CAP
1 *1722:A1 0.000182327
2 *1721:Y 3.90016e-05
3 *96:8 0.000221329
4 *1722:A1 *512:36 3.06338e-05
5 *1722:A1 *512:51 3.12477e-05
6 *96:8 *515:33 8.62783e-05
7 *96:8 *546:119 8.62783e-05
*RES
1 *1721:Y *96:8 39.2014 
2 *96:8 *1722:A1 40.5271 
*END

*D_NET *97 0.00707322
*CONN
*I *1785:A I *D sky130_fd_sc_hd__nor2_1
*I *1723:A I *D sky130_fd_sc_hd__inv_2
*I *1725:B I *D sky130_fd_sc_hd__and2_1
*I *1724:B I *D sky130_fd_sc_hd__nor2_1
*I *1722:X O *D sky130_fd_sc_hd__mux2_1
*CAP
1 *1785:A 0.00018933
2 *1723:A 0
3 *1725:B 0.000209975
4 *1724:B 4.63867e-05
5 *1722:X 0.000195604
6 *97:42 0.000175783
7 *97:25 0.000585084
8 *97:21 0.000443062
9 *97:10 0.000527133
10 *97:8 0.000621944
11 *1724:B *1782:A 1.32314e-05
12 *1725:B *543:142 4.03039e-05
13 *1785:A *130:31 2.96154e-05
14 *1785:A *155:14 0.000105721
15 *1785:A *283:85 0.000456486
16 *1785:A *542:109 4.92689e-05
17 *97:8 *512:36 0.000268873
18 *97:10 *1735:B1 0.000138727
19 *97:10 *283:85 0.000989364
20 *97:10 *531:122 4.51431e-05
21 *97:10 *542:63 0.000709532
22 *97:10 *542:109 1.01436e-05
23 *97:21 *283:85 0.000167452
24 *97:21 *542:109 0.000157309
25 *97:25 *109:12 0.000175903
26 *97:25 *543:142 2.43944e-05
27 *97:42 *1786:A2 0.000169674
28 *97:42 *156:12 0.000275482
29 *97:42 *158:16 0.000117254
30 *97:42 *497:29 0.000135037
*RES
1 *1722:X *97:8 41.0036 
2 *97:8 *97:10 13.5264 
3 *97:10 *1724:B 38.6214 
4 *97:10 *97:21 2.25786 
5 *97:21 *97:25 18.0036 
6 *97:25 *1725:B 26.0243 
7 *97:25 *97:42 35.2407 
8 *97:42 *1723:A 23 
9 *97:21 *1785:A 44.1314 
*END

*D_NET *98 0.000834089
*CONN
*I *1787:A1 I *D sky130_fd_sc_hd__o211a_1
*I *1723:Y O *D sky130_fd_sc_hd__inv_2
*CAP
1 *1787:A1 8.79065e-05
2 *1723:Y 0.000129652
3 *98:10 0.000217558
4 *1787:A1 *283:93 0.00018536
5 *98:10 *136:14 0.00013455
6 *98:10 *497:29 5.79559e-05
7 *98:10 *498:45 2.11066e-05
*RES
1 *1723:Y *98:10 40.5271 
2 *98:10 *1787:A1 40.0507 
*END

*D_NET *99 0.00161215
*CONN
*I *1782:A I *D sky130_fd_sc_hd__or2_1
*I *1735:B1 I *D sky130_fd_sc_hd__a211oi_4
*I *1724:Y O *D sky130_fd_sc_hd__nor2_1
*CAP
1 *1782:A 0.000160177
2 *1735:B1 0.000196157
3 *1724:Y 0
4 *99:4 0.000356333
5 *1735:B1 *110:10 0.000351513
6 *1735:B1 *151:27 0.000112087
7 *1735:B1 *531:122 6.60494e-05
8 *1735:B1 *542:63 0.000140958
9 *1782:A *542:55 7.69167e-05
10 *1724:B *1782:A 1.32314e-05
11 *97:10 *1735:B1 0.000138727
*RES
1 *1724:Y *99:4 23 
2 *99:4 *1735:B1 36.2661 
3 *99:4 *1782:A 25.9207 
*END

*D_NET *100 0.00561111
*CONN
*I *1782:B I *D sky130_fd_sc_hd__or2_1
*I *1766:A1 I *D sky130_fd_sc_hd__o32a_1
*I *1757:A1 I *D sky130_fd_sc_hd__o31a_1
*I *1754:A1 I *D sky130_fd_sc_hd__o31a_1
*I *1736:A I *D sky130_fd_sc_hd__nor2_1
*I *1725:X O *D sky130_fd_sc_hd__and2_1
*CAP
1 *1782:B 0
2 *1766:A1 5.25054e-05
3 *1757:A1 4.32279e-05
4 *1754:A1 0
5 *1736:A 0
6 *1725:X 4.05245e-05
7 *100:64 0.000224939
8 *100:36 0.00074887
9 *100:21 0.0002398
10 *100:8 0.00112057
11 *100:6 0.000493092
12 *1757:A1 *135:18 0.000141869
13 *1757:A1 *534:23 0.00014411
14 *1766:A1 *1748:B 2.64616e-05
15 *1766:A1 *123:8 5.3304e-05
16 *1766:A1 *135:18 5.94125e-05
17 *1766:A1 *534:23 5.24393e-05
18 *100:8 *531:21 0.000149925
19 *100:21 *124:6 2.02872e-05
20 *100:21 *129:8 0.000100069
21 *100:21 *531:21 0
22 *100:21 *531:25 0.0003731
23 *100:21 *565:12 0.000166513
24 *100:21 *565:73 0.000274543
25 *100:36 *1736:B 0.000210517
26 *100:36 *1766:A2 3.47781e-05
27 *100:36 *1766:A3 4.2573e-05
28 *100:36 *1766:B1 2.64616e-05
29 *100:36 *123:8 9.41704e-05
30 *100:64 *110:14 5.44107e-05
31 *100:64 *158:16 7.14493e-05
32 *100:64 *159:18 0.000195847
33 *100:64 *542:55 0.000355345
*RES
1 *1725:X *100:6 23.6214 
2 *100:6 *100:8 4.43286 
3 *100:8 *1736:A 23 
4 *100:8 *100:21 37.3536 
5 *100:21 *1754:A1 23 
6 *100:8 *100:36 25.0879 
7 *100:36 *1757:A1 39.9057 
8 *100:36 *1766:A1 39.4707 
9 *100:6 *100:64 36.2143 
10 *100:64 *1782:B 23 
*END

*D_NET *101 0.000521314
*CONN
*I *1727:B I *D sky130_fd_sc_hd__nand2_1
*I *1726:Y O *D sky130_fd_sc_hd__nand2_1
*CAP
1 *1727:B 6.09953e-05
2 *1726:Y 5.26353e-05
3 *101:8 0.000113631
4 *1727:B *102:10 8.48502e-06
5 *1727:B *548:10 6.17437e-06
6 *101:8 *516:23 0.000141879
7 *101:8 *548:18 8.25099e-05
8 *60:8 *1727:B 5.50049e-05
*RES
1 *1726:Y *101:8 39.9057 
2 *101:8 *1727:B 39.0979 
*END

*D_NET *102 0.000910742
*CONN
*I *1728:A1 I *D sky130_fd_sc_hd__mux2_4
*I *1727:Y O *D sky130_fd_sc_hd__nand2_1
*CAP
1 *1728:A1 0
2 *1727:Y 0.000221848
3 *102:10 0.000221848
4 *102:10 *512:51 5.50049e-05
5 *102:10 *516:108 0.000163352
6 *102:10 *548:10 5.50106e-05
7 *102:10 *548:38 0.000163352
8 *1727:B *102:10 8.48502e-06
9 *60:8 *102:10 2.18409e-05
*RES
1 *1727:Y *102:10 42.3086 
2 *102:10 *1728:A1 38 
*END

*D_NET *103 0.00251517
*CONN
*I *1731:B I *D sky130_fd_sc_hd__xnor2_2
*I *1730:B I *D sky130_fd_sc_hd__and2_1
*I *1781:A1 I *D sky130_fd_sc_hd__o211a_1
*I *1729:A I *D sky130_fd_sc_hd__inv_2
*I *1728:X O *D sky130_fd_sc_hd__mux2_4
*CAP
1 *1731:B 0
2 *1730:B 0
3 *1781:A1 0
4 *1729:A 4.64566e-05
5 *1728:X 0
6 *103:43 0.000240246
7 *103:27 0.000206461
8 *103:10 0.000336337
9 *103:8 0.000302417
10 *103:4 0.000459243
11 *1729:A *534:116 4.06849e-05
12 *103:8 *273:23 0.00011081
13 *103:10 *273:23 6.17437e-06
14 *103:10 *534:116 6.52495e-05
15 *103:27 *1778:B1 1.24376e-05
16 *103:27 *105:8 5.21024e-05
17 *103:27 *151:6 0.000227208
18 *103:27 *151:27 0
19 *103:27 *153:10 5.9259e-05
20 *103:27 *273:27 0
21 *103:27 *294:24 5.50049e-05
22 *103:27 *536:20 0
23 *103:27 *543:14 2.9938e-05
24 *103:43 *1776:B 0.00021777
25 *103:43 *1867:A2 0
26 *103:43 *546:119 4.73689e-05
27 *103:43 *548:38 0
*RES
1 *1728:X *103:4 23 
2 *103:4 *103:8 3.97714 
3 *103:8 *103:10 2.05071 
4 *103:10 *1729:A 24.0979 
5 *103:10 *103:27 35.2821 
6 *103:27 *1781:A1 23 
7 *103:8 *1730:B 23 
8 *103:4 *103:43 35.075 
9 *103:43 *1731:B 23 
*END

*D_NET *104 0.00218103
*CONN
*I *1780:A1 I *D sky130_fd_sc_hd__o211a_1
*I *1729:Y O *D sky130_fd_sc_hd__inv_2
*CAP
1 *1780:A1 8.81721e-05
2 *1729:Y 0.000504452
3 *104:10 0.000592624
4 *1780:A1 *2053:A 1.21972e-05
5 *1780:A1 *108:8 9.17998e-05
6 *1780:A1 *510:39 0.000135037
7 *104:10 *1761:C 0.000124412
8 *104:10 *130:14 1.12487e-05
9 *104:10 *510:39 0.000223886
10 *104:10 *534:116 3.38825e-05
11 *104:10 *542:63 0.000363318
*RES
1 *1729:Y *104:10 47.0314 
2 *104:10 *1780:A1 40.0507 
*END

*D_NET *105 0.00231297
*CONN
*I *1734:B1 I *D sky130_fd_sc_hd__a21o_1
*I *1735:C1 I *D sky130_fd_sc_hd__a211oi_4
*I *1730:X O *D sky130_fd_sc_hd__and2_1
*CAP
1 *1734:B1 0.000274583
2 *1735:C1 0
3 *1730:X 0.000358602
4 *105:10 0.000274583
5 *105:8 0.000358602
6 *1734:B1 *1734:A1 9.0308e-05
7 *1734:B1 *1734:A2 6.32777e-05
8 *1734:B1 *531:122 0.000531178
9 *105:8 *2080:A 4.67998e-05
10 *105:8 *151:27 0
11 *105:8 *273:27 0.000262936
12 *105:8 *510:12 0
13 *105:8 *536:20 0
14 *103:27 *105:8 5.21024e-05
*RES
1 *1730:X *105:8 45.54 
2 *105:8 *105:10 15 
3 *105:10 *1735:C1 23 
4 *105:10 *1734:B1 30.9543 
*END

*D_NET *106 0.00345623
*CONN
*I *1734:A1 I *D sky130_fd_sc_hd__a21o_1
*I *1735:A2 I *D sky130_fd_sc_hd__a211oi_4
*I *1776:A I *D sky130_fd_sc_hd__or2_1
*I *1733:A I *D sky130_fd_sc_hd__nand2_1
*I *1731:Y O *D sky130_fd_sc_hd__xnor2_2
*CAP
1 *1734:A1 7.72725e-05
2 *1735:A2 0
3 *1776:A 0
4 *1733:A 0.00045848
5 *1731:Y 0
6 *106:36 0.000379348
7 *106:23 0.000126213
8 *106:17 0.000682302
9 *106:4 0.000712493
10 *1733:A *2053:A 6.2685e-05
11 *1733:A *107:46 5.3304e-05
12 *1733:A *108:8 1.24376e-05
13 *1733:A *510:12 3.22879e-05
14 *1733:A *510:39 0
15 *1733:A *510:50 0
16 *1734:A1 *1734:A2 0.000238401
17 *1734:A1 *531:122 3.97681e-05
18 *106:23 *1776:B 0.000259046
19 *106:23 *107:23 3.77305e-05
20 *106:23 *515:42 7.78737e-05
21 *106:23 *546:119 4.51431e-05
22 *106:36 *1731:A 3.22879e-05
23 *106:36 *107:12 0
24 *106:36 *107:23 3.88504e-05
25 *106:36 *548:53 0
26 *1734:B1 *1734:A1 9.0308e-05
*RES
1 *1731:Y *106:4 23 
2 *106:4 *1733:A 30.3329 
3 *106:4 *106:17 3.00357 
4 *106:17 *106:23 34.0186 
5 *106:23 *1776:A 23 
6 *106:17 *106:36 34.3086 
7 *106:36 *1735:A2 23 
8 *106:36 *1734:A1 26.1693 
*END

*D_NET *107 0.00619786
*CONN
*I *1791:A I *D sky130_fd_sc_hd__nand2_1
*I *1734:A2 I *D sky130_fd_sc_hd__a21o_1
*I *1733:B I *D sky130_fd_sc_hd__nand2_1
*I *1776:B I *D sky130_fd_sc_hd__or2_1
*I *1735:A1 I *D sky130_fd_sc_hd__a211oi_4
*I *1732:X O *D sky130_fd_sc_hd__or2_1
*CAP
1 *1791:A 0
2 *1734:A2 0.000281599
3 *1733:B 0
4 *1776:B 0.000115231
5 *1735:A1 0
6 *1732:X 4.55529e-05
7 *107:74 0.000452118
8 *107:46 0.000668198
9 *107:23 0.000952046
10 *107:12 0.00020089
11 *107:10 0.00060579
12 *107:6 0.00078959
13 *1734:A2 *531:122 1.40958e-05
14 *1776:B *294:24 5.50049e-05
15 *1776:B *543:23 5.3304e-05
16 *1776:B *548:38 0
17 *107:6 *542:109 2.93747e-05
18 *107:10 *1732:B 3.56537e-05
19 *107:10 *109:8 0
20 *107:10 *515:42 0.000145942
21 *107:10 *548:53 0
22 *107:12 *515:42 2.22183e-05
23 *107:12 *548:53 0
24 *107:23 *548:53 0
25 *107:46 *2053:A 1.94812e-05
26 *107:46 *2080:A 8.55142e-05
27 *107:46 *283:85 2.24608e-05
28 *107:46 *510:20 2.52219e-05
29 *107:46 *536:20 2.05503e-05
30 *107:46 *546:142 2.60267e-05
31 *107:74 *1803:A 4.21594e-06
32 *107:74 *219:40 0.00032159
33 *107:74 *219:57 3.70187e-05
34 *107:74 *516:108 3.83778e-05
35 *107:74 *516:112 9.21347e-06
36 *107:74 *542:109 0.0002132
37 *107:74 *544:32 0
38 *1733:A *107:46 5.3304e-05
39 *1734:A1 *1734:A2 0.000238401
40 *1734:B1 *1734:A2 6.32777e-05
41 *103:43 *1776:B 0.00021777
42 *106:23 *1776:B 0.000259046
43 *106:23 *107:23 3.77305e-05
44 *106:36 *107:12 0
45 *106:36 *107:23 3.88504e-05
*RES
1 *1732:X *107:6 23.6214 
2 *107:6 *107:10 21.1314 
3 *107:10 *107:12 0.849286 
4 *107:12 *1735:A1 38 
5 *107:12 *107:23 3.05536 
6 *107:23 *1776:B 42.1118 
7 *107:23 *107:46 33.4582 
8 *107:46 *1733:B 23 
9 *107:10 *1734:A2 44.0486 
10 *107:6 *107:74 38.6793 
11 *107:74 *1791:A 23 
*END

*D_NET *108 0.00176988
*CONN
*I *1777:A I *D sky130_fd_sc_hd__nand2_1
*I *1778:B2 I *D sky130_fd_sc_hd__a221o_1
*I *1733:Y O *D sky130_fd_sc_hd__nand2_1
*CAP
1 *1777:A 7.06535e-05
2 *1778:B2 0.000134144
3 *1733:Y 0.000210046
4 *108:8 0.000414844
5 *1777:A *136:14 0.000119607
6 *1777:A *156:12 0.000135011
7 *1778:B2 *1778:B1 7.80291e-06
8 *1778:B2 *136:14 0.000291841
9 *1778:B2 *153:10 1.28818e-05
10 *1778:B2 *156:12 0.000215791
11 *1778:B2 *510:39 6.40157e-06
12 *1778:B2 *531:70 3.44342e-05
13 *1778:B2 *531:72 1.01436e-05
14 *108:8 *2053:A 2.03764e-06
15 *1733:A *108:8 1.24376e-05
16 *1780:A1 *108:8 9.17998e-05
*RES
1 *1733:Y *108:8 40.5271 
2 *108:8 *1778:B2 42.1688 
3 *108:8 *1777:A 39.9057 
*END

*D_NET *109 0.00300291
*CONN
*I *1783:A I *D sky130_fd_sc_hd__xnor2_1
*I *1734:X O *D sky130_fd_sc_hd__a21o_1
*CAP
1 *1783:A 0
2 *1734:X 0.000232527
3 *109:12 0.000510343
4 *109:8 0.00074287
5 *109:8 *1732:B 1.83564e-05
6 *109:8 *219:40 3.0647e-05
7 *109:8 *516:108 0
8 *109:8 *543:125 4.06408e-05
9 *109:8 *548:53 2.79004e-05
10 *109:12 *1732:A 0.000103637
11 *109:12 *1783:B 5.3304e-05
12 *109:12 *542:109 0.00103238
13 *109:12 *543:142 3.44001e-05
14 *97:25 *109:12 0.000175903
15 *107:10 *109:8 0
*RES
1 *1734:X *109:8 42.7229 
2 *109:8 *109:12 28.0086 
3 *109:12 *1783:A 23 
*END

*D_NET *110 0.00307053
*CONN
*I *2125:A I *D sky130_fd_sc_hd__buf_1
*I *1754:A3 I *D sky130_fd_sc_hd__o31a_1
*I *1735:Y O *D sky130_fd_sc_hd__a211oi_4
*CAP
1 *2125:A 4.01155e-05
2 *1754:A3 0
3 *1735:Y 0.000448751
4 *110:22 0.000169886
5 *110:14 0.000354066
6 *110:10 0.000592816
7 *110:10 *136:14 6.68587e-05
8 *110:10 *151:27 6.09861e-05
9 *110:10 *156:12 0.000139657
10 *110:14 *158:16 0.000140313
11 *110:14 *159:18 0.000100061
12 *110:14 *542:55 9.03964e-06
13 *110:14 *565:8 0.000399785
14 *110:22 *129:8 0.000102389
15 *110:22 *159:10 3.98859e-05
16 *1735:B1 *110:10 0.000351513
17 *100:64 *110:14 5.44107e-05
*RES
1 *1735:Y *110:10 46.2443 
2 *110:10 *110:14 19.9093 
3 *110:14 *110:22 33.0036 
4 *110:22 *1754:A3 23 
5 *110:14 *2125:A 23.8493 
*END

*D_NET *111 0.00199491
*CONN
*I *1771:A I *D sky130_fd_sc_hd__xnor2_1
*I *1736:Y O *D sky130_fd_sc_hd__nor2_1
*CAP
1 *1771:A 0.000269736
2 *1736:Y 0.000190231
3 *111:8 0.000459967
4 *1771:A *1772:A0 0.000178517
5 *1771:A *1772:A1 2.32004e-05
6 *1771:A *1772:S 9.58714e-05
7 *1771:A *497:27 0.000164364
8 *1771:A *510:85 0.000258245
9 *111:8 *510:76 0
10 *111:8 *565:73 0.000354778
*RES
1 *1736:Y *111:8 42.7229 
2 *111:8 *1771:A 45.2914 
*END

*D_NET *112 0.00310204
*CONN
*I *1749:A I *D sky130_fd_sc_hd__nand4_1
*I *1751:D_N I *D sky130_fd_sc_hd__or4bb_4
*I *1759:B1_N I *D sky130_fd_sc_hd__o21bai_1
*I *1758:C_N I *D sky130_fd_sc_hd__or3b_1
*I *1737:X O *D sky130_fd_sc_hd__xor2_1
*CAP
1 *1749:A 0.000100685
2 *1751:D_N 5.145e-05
3 *1759:B1_N 0.000207417
4 *1758:C_N 0
5 *1737:X 0.000334033
6 *112:30 0.00020657
7 *112:19 0.000362213
8 *112:10 0.000434394
9 *1749:A *124:6 2.64616e-05
10 *1749:A *135:10 0.000195248
11 *1749:A *534:27 0.000185104
12 *1759:B1_N *1760:A3 9.41704e-05
13 *112:10 *1737:A 1.57571e-05
14 *112:10 *1758:A 4.21594e-06
15 *112:10 *131:10 0
16 *112:10 *534:27 0.000166513
17 *112:19 *1758:A 5.86165e-05
18 *112:19 *118:12 2.86716e-05
19 *112:19 *135:10 1.01436e-05
20 *112:19 *534:27 0.00026625
21 *112:30 *135:10 0.000167443
22 *112:30 *534:27 0.000157299
23 *1737:B *112:10 2.93845e-05
*RES
1 *1737:X *112:10 43.2614 
2 *112:10 *1758:C_N 38 
3 *112:10 *112:19 3.66643 
4 *112:19 *1759:B1_N 40.5271 
5 *112:19 *112:30 2.25786 
6 *112:30 *1751:D_N 38.6214 
7 *112:30 *1749:A 41.2314 
*END

*D_NET *113 0.00317078
*CONN
*I *1753:A2_N I *D sky130_fd_sc_hd__o2bb2a_1
*I *1752:A2 I *D sky130_fd_sc_hd__o21bai_1
*I *1739:B I *D sky130_fd_sc_hd__xnor2_1
*I *1738:Y O *D sky130_fd_sc_hd__o21ai_1
*CAP
1 *1753:A2_N 2.23762e-05
2 *1752:A2 0
3 *1739:B 0.000490411
4 *1738:Y 0.000155935
5 *113:10 0.000614468
6 *113:6 0.000302369
7 *1739:B *1739:A 0.000328968
8 *1739:B *127:8 1.3523e-05
9 *1739:B *534:46 0.000817183
10 *113:6 *127:8 7.25499e-05
11 *113:6 *304:12 8.29713e-05
12 *113:6 *471:49 6.17437e-06
13 *113:6 *565:52 7.53303e-06
14 *113:10 *1752:A1 0.000122285
15 *113:10 *127:8 4.03352e-05
16 *113:10 *128:12 5.79559e-05
17 *113:10 *304:12 3.57395e-05
*RES
1 *1738:Y *113:6 26.0036 
2 *113:6 *113:10 3.02429 
3 *113:10 *1739:B 36.5057 
4 *113:10 *1752:A2 23 
5 *113:6 *1753:A2_N 23.4971 
*END

*D_NET *114 0.00182593
*CONN
*I *1749:B I *D sky130_fd_sc_hd__nand4_1
*I *1751:C_N I *D sky130_fd_sc_hd__or4bb_4
*I *1739:Y O *D sky130_fd_sc_hd__xnor2_1
*CAP
1 *1749:B 0.000183606
2 *1751:C_N 0.000102713
3 *1739:Y 0.000488531
4 *114:8 0.00077485
5 *1749:B *1749:D 5.41385e-05
6 *1749:B *132:10 5.36457e-05
7 *114:8 *1758:B 9.95713e-05
8 *114:8 *132:10 6.88715e-05
9 *114:8 *534:27 0
*RES
1 *1739:Y *114:8 48.3571 
2 *114:8 *1751:C_N 39.5743 
3 *114:8 *1749:B 41.3557 
*END

*D_NET *115 0.000331364
*CONN
*I *1741:B I *D sky130_fd_sc_hd__xnor2_1
*I *1740:X O *D sky130_fd_sc_hd__a21o_1
*CAP
1 *1741:B 6.98808e-05
2 *1740:X 6.98808e-05
3 *1740:A2 *1741:B 6.17437e-06
4 *1741:A *1741:B 0.000185428
*RES
1 *1740:X *1741:B 48.0507 
*END

*D_NET *116 0.00388302
*CONN
*I *1742:A1 I *D sky130_fd_sc_hd__mux2_4
*I *1741:Y O *D sky130_fd_sc_hd__xnor2_1
*CAP
1 *1742:A1 0
2 *1741:Y 0.000229712
3 *116:14 0.000894728
4 *116:8 0.00112444
5 *1740:A1 *116:14 6.79006e-05
6 *1740:B1 *116:14 1.12487e-05
7 *1741:A *116:8 0.000267167
8 *1745:B *116:14 0
9 *61:62 *116:14 0.000254733
10 *75:12 *116:14 0.000159501
11 *79:6 *116:8 4.08664e-05
12 *79:21 *116:14 0.000246748
13 *86:23 *116:14 0
14 *94:10 *116:14 0.000585981
*RES
1 *1741:Y *116:8 41.48 
2 *116:8 *116:14 36.6671 
3 *116:14 *1742:A1 23 
*END

*D_NET *117 0.00824872
*CONN
*I *1750:A2 I *D sky130_fd_sc_hd__o22a_1
*I *1768:A0 I *D sky130_fd_sc_hd__mux2_1
*I *1744:B I *D sky130_fd_sc_hd__xor2_1
*I *1743:B I *D sky130_fd_sc_hd__and2_1
*I *1742:X O *D sky130_fd_sc_hd__mux2_4
*CAP
1 *1750:A2 0
2 *1768:A0 0.000165199
3 *1744:B 0.000278891
4 *1743:B 0
5 *1742:X 7.72189e-05
6 *117:27 0.00105965
7 *117:23 0.000880775
8 *117:10 0.000636141
9 *117:8 0.000448148
10 *1744:B *1744:A 0.000575091
11 *1744:B *119:8 5.3304e-05
12 *1768:A0 *1768:A1 3.22879e-05
13 *1768:A0 *135:18 0
14 *1768:A0 *143:29 5.67058e-05
15 *1768:A0 *499:31 0.000275482
16 *1768:A0 *536:8 2.8936e-05
17 *1768:A0 *536:14 1.40958e-05
18 *117:10 *1756:B 0.000222193
19 *117:10 *539:37 0.000833007
20 *117:23 *1750:A1 5.50049e-05
21 *117:23 *1756:B 1.22803e-05
22 *117:23 *124:6 0.000221997
23 *117:23 *510:52 0.000134687
24 *117:23 *510:76 7.91493e-05
25 *117:23 *539:35 0.000561209
26 *117:23 *539:37 1.14452e-05
27 *117:27 *1750:B2 5.94125e-05
28 *117:27 *1772:A0 0.000188916
29 *117:27 *121:29 0.000343064
30 *117:27 *121:40 5.94125e-05
31 *117:27 *121:53 0.000167452
32 *117:27 *135:18 0
33 *117:27 *499:31 2.24608e-05
34 *117:27 *539:18 9.92529e-07
35 *117:27 *539:22 0.000502959
36 *117:27 *559:10 0.000191148
*RES
1 *1742:X *117:8 39.0979 
2 *117:8 *117:10 11.0614 
3 *117:10 *1743:B 38 
4 *117:10 *117:23 23.6586 
5 *117:23 *117:27 31.6957 
6 *117:27 *1744:B 44.8357 
7 *117:27 *1768:A0 42.7643 
8 *117:23 *1750:A2 23 
*END

*D_NET *118 0.00157562
*CONN
*I *1751:A I *D sky130_fd_sc_hd__or4bb_4
*I *1759:A1 I *D sky130_fd_sc_hd__o21bai_1
*I *1758:A I *D sky130_fd_sc_hd__or3b_1
*I *1743:X O *D sky130_fd_sc_hd__and2_1
*CAP
1 *1751:A 8.28746e-05
2 *1759:A1 0.000105211
3 *1758:A 7.06255e-05
4 *1743:X 0.000145591
5 *118:12 0.000316004
6 *118:8 0.000368632
7 *1751:A *1751:B 3.92407e-05
8 *1751:A *135:10 2.97072e-05
9 *1751:A *510:52 0
10 *1758:A *131:10 2.04774e-05
11 *1758:A *133:10 0.000114083
12 *1759:A1 *1760:A3 7.19344e-05
13 *118:8 *1760:A1 7.88828e-05
14 *118:12 *1756:B 0
15 *118:12 *133:10 3.47781e-05
16 *118:12 *135:10 6.07611e-06
17 *118:12 *510:52 0
18 *112:10 *1758:A 4.21594e-06
19 *112:19 *1758:A 5.86165e-05
20 *112:19 *118:12 2.86716e-05
*RES
1 *1743:X *118:8 40.0507 
2 *118:8 *118:12 2.175 
3 *118:12 *1758:A 40.2579 
4 *118:12 *1759:A1 40.2164 
5 *118:8 *1751:A 39.9057 
*END

*D_NET *119 0.00365616
*CONN
*I *1767:A I *D sky130_fd_sc_hd__xor2_1
*I *1749:C I *D sky130_fd_sc_hd__nand4_1
*I *1744:X O *D sky130_fd_sc_hd__xor2_1
*CAP
1 *1767:A 0.000204308
2 *1749:C 0
3 *1744:X 3.80122e-05
4 *119:12 0.000503801
5 *119:8 0.000746122
6 *1767:A *497:12 0.000187335
7 *1767:A *534:23 9.98995e-05
8 *119:12 *1749:D 0.000620108
9 *119:12 *1771:B 0.000271642
10 *119:12 *132:10 1.37246e-05
11 *119:12 *141:12 0.000190102
12 *119:12 *496:10 0
13 *119:12 *497:12 0.000431843
14 *119:12 *534:23 0.000209102
15 *119:12 *542:12 8.68575e-05
16 *1744:B *119:8 5.3304e-05
*RES
1 *1744:X *119:8 38.6214 
2 *119:8 *119:12 32.7521 
3 *119:12 *1749:C 23 
4 *119:8 *1767:A 42.6814 
*END

*D_NET *120 0.00234761
*CONN
*I *1746:A1 I *D sky130_fd_sc_hd__mux2_4
*I *1745:Y O *D sky130_fd_sc_hd__xnor2_1
*CAP
1 *1746:A1 0
2 *1745:Y 0.0007525
3 *120:10 0.0007525
4 *120:10 *539:37 0
5 *1691:B *120:10 0.000180212
6 *1717:A2 *120:10 7.43209e-05
7 *1717:A3 *120:10 4.75713e-05
8 *64:24 *120:10 0.000406844
9 *70:12 *120:10 0.000133658
*RES
1 *1745:Y *120:10 49.5793 
2 *120:10 *1746:A1 38 
*END

*D_NET *121 0.00839556
*CONN
*I *1772:A0 I *D sky130_fd_sc_hd__mux2_1
*I *1747:B I *D sky130_fd_sc_hd__xnor2_1
*I *1748:B I *D sky130_fd_sc_hd__xnor2_1
*I *1766:B1 I *D sky130_fd_sc_hd__o32a_1
*I *1750:B2 I *D sky130_fd_sc_hd__o22a_1
*I *1746:X O *D sky130_fd_sc_hd__mux2_4
*CAP
1 *1772:A0 0.000181844
2 *1747:B 4.56652e-05
3 *1748:B 0.000272406
4 *1766:B1 2.77218e-05
5 *1750:B2 9.06522e-05
6 *1746:X 0
7 *121:53 0.000313936
8 *121:40 0.000395479
9 *121:29 0.000232429
10 *121:14 0.000258714
11 *121:12 0.0010938
12 *121:6 0.0010938
13 *1747:B *283:101 9.84794e-05
14 *1748:B *1766:A2 0.000141954
15 *1748:B *123:8 3.28795e-05
16 *1748:B *141:8 0.000180212
17 *1750:B2 *1751:B 5.94125e-05
18 *1750:B2 *1757:B1 1.01436e-05
19 *1750:B2 *124:6 5.3304e-05
20 *1766:B1 *1766:A2 5.3304e-05
21 *1772:A0 *1772:A1 0.000137651
22 *1772:A0 *135:18 0
23 *121:12 *124:6 0.000436762
24 *121:12 *539:35 0.000144455
25 *121:12 *539:37 0.000418639
26 *121:12 *561:23 0
27 *121:12 *565:12 0.000994388
28 *121:29 *1757:B1 0.000154138
29 *121:29 *542:36 2.13834e-05
30 *121:29 *542:42 0.000138718
31 *121:40 *135:18 0
32 *121:53 *135:18 0
33 *1766:A1 *1748:B 2.64616e-05
34 *1771:A *1772:A0 0.000178517
35 *70:12 *121:12 0
36 *95:10 *121:12 0.000196188
37 *95:23 *121:12 6.74097e-05
38 *100:36 *1766:B1 2.64616e-05
39 *117:27 *1750:B2 5.94125e-05
40 *117:27 *1772:A0 0.000188916
41 *117:27 *121:29 0.000343064
42 *117:27 *121:40 5.94125e-05
43 *117:27 *121:53 0.000167452
*RES
1 *1746:X *121:6 38 
2 *121:6 *121:12 43.2957 
3 *121:12 *121:14 15 
4 *121:14 *1750:B2 39.9679 
5 *121:14 *121:29 4.72286 
6 *121:29 *1766:B1 38.6214 
7 *121:29 *121:40 0.849286 
8 *121:40 *1748:B 43.4064 
9 *121:40 *121:53 2.25786 
10 *121:53 *1747:B 39.0979 
11 *121:53 *1772:A0 42.6607 
*END

*D_NET *122 0.00263365
*CONN
*I *1771:B I *D sky130_fd_sc_hd__xnor2_1
*I *1749:D I *D sky130_fd_sc_hd__nand4_1
*I *1747:Y O *D sky130_fd_sc_hd__xnor2_1
*CAP
1 *1771:B 9.82109e-05
2 *1749:D 0.000278979
3 *1747:Y 0
4 *122:6 0.00037719
5 *1749:D *132:10 0.000167443
6 *1749:D *534:23 0.000419535
7 *1749:D *534:27 1.22412e-05
8 *1771:B *497:27 5.3304e-05
9 *1771:B *534:23 0.000280856
10 *1749:B *1749:D 5.41385e-05
11 *119:12 *1749:D 0.000620108
12 *119:12 *1771:B 0.000271642
*RES
1 *1747:Y *122:6 38 
2 *122:6 *1749:D 47.3421 
3 *122:6 *1771:B 42.2879 
*END

*D_NET *123 0.0010293
*CONN
*I *1766:A3 I *D sky130_fd_sc_hd__o32a_1
*I *1757:A3 I *D sky130_fd_sc_hd__o31a_1
*I *1748:Y O *D sky130_fd_sc_hd__xnor2_1
*CAP
1 *1766:A3 3.53612e-05
2 *1757:A3 0
3 *1748:Y 0.000142453
4 *123:14 6.78119e-05
5 *123:8 0.000245626
6 *1766:A3 *1766:A2 2.93845e-05
7 *123:8 *1766:A2 6.17437e-06
8 *123:14 *135:18 0.000166504
9 *123:14 *542:36 6.70363e-05
10 *123:14 *542:42 4.60263e-05
11 *1748:B *123:8 3.28795e-05
12 *1766:A1 *123:8 5.3304e-05
13 *100:36 *1766:A3 4.2573e-05
14 *100:36 *123:8 9.41704e-05
*RES
1 *1748:Y *123:8 25.5479 
2 *123:8 *123:14 32.2579 
3 *123:14 *1757:A3 23 
4 *123:8 *1766:A3 24.1186 
*END

*D_NET *124 0.00206019
*CONN
*I *1754:A2 I *D sky130_fd_sc_hd__o31a_1
*I *1749:Y O *D sky130_fd_sc_hd__nand4_1
*CAP
1 *1754:A2 0
2 *1749:Y 0.000499926
3 *124:6 0.000499926
4 *124:6 *125:8 0.000136738
5 *124:6 *129:8 0.000144501
6 *124:6 *539:35 2.02872e-05
7 *1749:A *124:6 2.64616e-05
8 *1750:B2 *124:6 5.3304e-05
9 *100:21 *124:6 2.02872e-05
10 *117:23 *124:6 0.000221997
11 *121:12 *124:6 0.000436762
*RES
1 *1749:Y *124:6 33.6264 
2 *124:6 *1754:A2 23 
*END

*D_NET *125 0.00161879
*CONN
*I *1757:B1 I *D sky130_fd_sc_hd__o31a_1
*I *1751:B I *D sky130_fd_sc_hd__or4bb_4
*I *1750:X O *D sky130_fd_sc_hd__o22a_1
*CAP
1 *1757:B1 9.93242e-05
2 *1751:B 0.000163114
3 *1750:X 0.000119058
4 *125:8 0.000381496
5 *1751:B *1750:B1 8.94394e-05
6 *1751:B *135:10 0.000125802
7 *1751:B *510:52 0
8 *1751:B *510:76 0
9 *1751:B *539:22 0
10 *1757:B1 *1750:B1 0.000101708
11 *1757:B1 *1757:A2 5.3304e-05
12 *1757:B1 *542:36 8.58741e-05
13 *1750:B2 *1751:B 5.94125e-05
14 *1750:B2 *1757:B1 1.01436e-05
15 *1751:A *1751:B 3.92407e-05
16 *121:29 *1757:B1 0.000154138
17 *124:6 *125:8 0.000136738
*RES
1 *1750:X *125:8 39.5743 
2 *125:8 *1751:B 42.3707 
3 *125:8 *1757:B1 40.8793 
*END

*D_NET *126 0.0037425
*CONN
*I *1784:A1 I *D sky130_fd_sc_hd__a211o_1
*I *1778:A2 I *D sky130_fd_sc_hd__a221o_1
*I *1779:A1 I *D sky130_fd_sc_hd__a211o_1
*I *1755:A1 I *D sky130_fd_sc_hd__a21oi_4
*I *1751:X O *D sky130_fd_sc_hd__or4bb_4
*CAP
1 *1784:A1 0.000287838
2 *1778:A2 0.00017983
3 *1779:A1 2.58366e-05
4 *1755:A1 0
5 *1751:X 0.000113099
6 *126:26 0.000538447
7 *126:15 0.000265367
8 *126:6 0.00028185
9 *1778:A2 *1778:A1 1.59379e-05
10 *1778:A2 *136:14 1.77991e-05
11 *1778:A2 *153:10 1.59379e-05
12 *1778:A2 *531:70 0.000225464
13 *1778:A2 *543:14 0.000188173
14 *1779:A1 *1755:A2 9.95589e-06
15 *1779:A1 *510:50 0
16 *1784:A1 *1784:C1 3.34818e-06
17 *1784:A1 *129:18 1.5532e-05
18 *1784:A1 *158:16 4.77164e-06
19 *1784:A1 *531:70 0.000117512
20 *126:6 *1755:A2 5.67058e-05
21 *126:6 *510:50 0.000111943
22 *126:15 *1755:A2 0.000124403
23 *126:15 *1779:B1 5.56279e-05
24 *126:15 *1779:C1 5.56356e-05
25 *126:15 *510:50 0.000524989
26 *126:15 *531:31 0.000186606
27 *126:26 *1755:A2 2.1819e-05
28 *126:26 *1780:B1 4.96207e-05
29 *126:26 *130:8 1.74129e-05
30 *126:26 *510:50 0.000231039
*RES
1 *1751:X *126:6 25.5271 
2 *126:6 *1755:A1 23 
3 *126:6 *126:15 6.35929 
4 *126:15 *1779:A1 23.4971 
5 *126:15 *126:26 17.5271 
6 *126:26 *1778:A2 42.4588 
7 *126:26 *1784:A1 41.9771 
*END

*D_NET *127 0.000909674
*CONN
*I *1753:B1 I *D sky130_fd_sc_hd__o2bb2a_1
*I *1752:Y O *D sky130_fd_sc_hd__o21bai_1
*CAP
1 *1753:B1 0
2 *1752:Y 0.000178648
3 *127:8 0.000178648
4 *127:8 *1752:A1 0.000121179
5 *127:8 *304:12 0.000104377
6 *127:8 *565:33 0.00016821
7 *127:8 *565:52 3.22051e-05
8 *1739:B *127:8 1.3523e-05
9 *113:6 *127:8 7.25499e-05
10 *113:10 *127:8 4.03352e-05
*RES
1 *1752:Y *127:8 28.4064 
2 *127:8 *1753:B1 23 
*END

*D_NET *128 0.00214615
*CONN
*I *1754:B1 I *D sky130_fd_sc_hd__o31a_1
*I *1753:X O *D sky130_fd_sc_hd__o2bb2a_1
*CAP
1 *1754:B1 0.000279474
2 *1753:X 0.000594886
3 *128:12 0.00087436
4 *1754:B1 *1778:A1 0
5 *1754:B1 *129:8 5.56356e-05
6 *1754:B1 *129:18 0
7 *1754:B1 *152:10 3.13912e-05
8 *1754:B1 *531:31 0
9 *1754:B1 *565:12 0
10 *128:12 *1778:A1 6.63594e-05
11 *128:12 *136:14 0
12 *128:12 *534:50 5.31444e-05
13 *128:12 *534:112 9.52677e-05
14 *128:12 *565:12 0
15 *128:12 *565:33 3.76761e-05
16 *95:23 *128:12 0
17 *113:10 *128:12 5.79559e-05
*RES
1 *1753:X *128:12 49.3721 
2 *128:12 *1754:B1 42.2879 
*END

*D_NET *129 0.00359493
*CONN
*I *1784:A2 I *D sky130_fd_sc_hd__a211o_1
*I *1779:A2 I *D sky130_fd_sc_hd__a211o_1
*I *1755:A2 I *D sky130_fd_sc_hd__a21oi_4
*I *1778:A1 I *D sky130_fd_sc_hd__a221o_1
*I *1754:X O *D sky130_fd_sc_hd__o31a_1
*CAP
1 *1784:A2 2.60074e-06
2 *1779:A2 0
3 *1755:A2 0.000280658
4 *1778:A1 0.000311426
5 *1754:X 0.000167171
6 *129:31 0.000280658
7 *129:18 0.000577377
8 *129:8 0.000435722
9 *1755:A2 *1779:B1 5.79559e-05
10 *1755:A2 *1779:C1 4.3198e-05
11 *1755:A2 *1780:B1 0
12 *1755:A2 *130:8 0.000142692
13 *1755:A2 *531:31 0.000188927
14 *1778:A1 *153:10 7.273e-05
15 *1778:A1 *543:14 4.95813e-05
16 *1784:A2 *152:10 9.92852e-06
17 *129:8 *152:10 2.52905e-05
18 *129:8 *159:10 0.000102389
19 *129:18 *151:27 0
20 *129:18 *152:10 0.000133316
21 *1754:B1 *1778:A1 0
22 *1754:B1 *129:8 5.56356e-05
23 *1754:B1 *129:18 0
24 *1778:A2 *1778:A1 1.59379e-05
25 *1779:A1 *1755:A2 9.95589e-06
26 *1784:A1 *129:18 1.5532e-05
27 *100:21 *129:8 0.000100069
28 *110:22 *129:8 0.000102389
29 *124:6 *129:8 0.000144501
30 *126:6 *1755:A2 5.67058e-05
31 *126:15 *1755:A2 0.000124403
32 *126:26 *1755:A2 2.1819e-05
33 *128:12 *1778:A1 6.63594e-05
*RES
1 *1754:X *129:8 28.0439 
2 *129:8 *129:18 18.8839 
3 *129:18 *1778:A1 43.7171 
4 *129:18 *129:31 15 
5 *129:31 *1755:A2 30.3121 
6 *129:31 *1779:A2 23 
7 *129:8 *1784:A2 23.1605 
*END

*D_NET *130 0.00608997
*CONN
*I *2053:A I *D sky130_fd_sc_hd__buf_6
*I *1785:B I *D sky130_fd_sc_hd__nor2_1
*I *1786:A1 I *D sky130_fd_sc_hd__a211o_1
*I *1755:Y O *D sky130_fd_sc_hd__a21oi_4
*CAP
1 *2053:A 0.000445168
2 *1785:B 0
3 *1786:A1 0.000124143
4 *1755:Y 0.000596609
5 *130:31 0.000105545
6 *130:14 0.000633969
7 *130:8 0.00144606
8 *1786:A1 *1786:B1 3.26893e-05
9 *1786:A1 *283:93 1.95443e-05
10 *2053:A *510:39 2.64616e-05
11 *130:8 *1780:B1 6.9908e-05
12 *130:8 *510:39 6.70361e-05
13 *130:8 *510:50 2.03764e-06
14 *130:14 *155:14 0.000945532
15 *130:14 *156:12 0.00105449
16 *130:14 *510:39 6.25829e-05
17 *130:14 *542:63 4.99753e-06
18 *130:31 *1786:B1 9.41704e-05
19 *130:31 *155:14 6.16531e-05
20 *1733:A *2053:A 6.2685e-05
21 *1755:A2 *130:8 0.000142692
22 *1780:A1 *2053:A 1.21972e-05
23 *1785:A *130:31 2.96154e-05
24 *104:10 *130:14 1.12487e-05
25 *107:46 *2053:A 1.94812e-05
26 *108:8 *2053:A 2.03764e-06
27 *126:26 *130:8 1.74129e-05
*RES
1 *1755:Y *130:8 30.7886 
2 *130:8 *130:14 44.2307 
3 *130:14 *1786:A1 24.9471 
4 *130:14 *130:31 31.9471 
5 *130:31 *1785:B 23 
6 *130:8 *2053:A 28.8518 
*END

*D_NET *131 0.000727273
*CONN
*I *1760:B1 I *D sky130_fd_sc_hd__a31o_1
*I *1756:Y O *D sky130_fd_sc_hd__nor2_1
*CAP
1 *1760:B1 0
2 *1756:Y 0.000213109
3 *131:10 0.000213109
4 *131:10 *1756:B 0.000177914
5 *131:10 *133:10 7.03766e-05
6 *1737:B *131:10 3.22879e-05
7 *1758:A *131:10 2.04774e-05
8 *112:10 *131:10 0
*RES
1 *1756:Y *131:10 43.3443 
2 *131:10 *1760:B1 38 
*END

*D_NET *132 0.00247427
*CONN
*I *1759:A2 I *D sky130_fd_sc_hd__o21bai_1
*I *1758:B I *D sky130_fd_sc_hd__or3b_1
*I *1757:X O *D sky130_fd_sc_hd__o31a_1
*CAP
1 *1759:A2 0
2 *1758:B 0.000298615
3 *1757:X 0.000275239
4 *132:10 0.000573853
5 *1758:B *534:27 0.000280866
6 *132:10 *534:27 0.000589142
7 *132:10 *542:21 5.3304e-05
8 *1749:B *132:10 5.36457e-05
9 *1749:D *132:10 0.000167443
10 *114:8 *1758:B 9.95713e-05
11 *114:8 *132:10 6.88715e-05
12 *119:12 *132:10 1.37246e-05
*RES
1 *1757:X *132:10 46.5136 
2 *132:10 *1758:B 44.1936 
3 *132:10 *1759:A2 38 
*END

*D_NET *133 0.00052966
*CONN
*I *1760:A2 I *D sky130_fd_sc_hd__a31o_1
*I *1758:X O *D sky130_fd_sc_hd__or3b_1
*CAP
1 *1760:A2 0
2 *1758:X 0.000155211
3 *133:10 0.000155211
4 *1758:A *133:10 0.000114083
5 *118:12 *133:10 3.47781e-05
6 *131:10 *133:10 7.03766e-05
*RES
1 *1758:X *133:10 41.0036 
2 *133:10 *1760:A2 38 
*END

*D_NET *134 0.000488674
*CONN
*I *1760:A3 I *D sky130_fd_sc_hd__a31o_1
*I *1759:Y O *D sky130_fd_sc_hd__o21bai_1
*CAP
1 *1760:A3 0.000161285
2 *1759:Y 0.000161285
3 *1759:A1 *1760:A3 7.19344e-05
4 *1759:B1_N *1760:A3 9.41704e-05
*RES
1 *1759:Y *1760:A3 49.0243 
*END

*D_NET *135 0.0065883
*CONN
*I *1800:A I *D sky130_fd_sc_hd__nor2_1
*I *1764:B I *D sky130_fd_sc_hd__xor2_1
*I *1760:X O *D sky130_fd_sc_hd__a31o_1
*CAP
1 *1800:A 0.000113732
2 *1764:B 0.000109271
3 *1760:X 0.000245531
4 *135:18 0.00122083
5 *135:10 0.00124336
6 *1764:B *1764:A 0.000285494
7 *1764:B *139:10 0.000187129
8 *1764:B *534:15 1.14154e-05
9 *1764:B *534:133 1.56665e-05
10 *1800:A *2071:A 5.50049e-05
11 *1800:A *139:10 0.000184497
12 *1800:A *534:133 0.000398503
13 *135:10 *1750:B1 0.000191148
14 *135:10 *534:27 9.02869e-05
15 *135:10 *542:36 1.23172e-05
16 *135:18 *2071:A 2.96369e-05
17 *135:18 *143:12 0.000135557
18 *135:18 *144:10 0
19 *135:18 *499:31 0
20 *135:18 *534:23 0.000703301
21 *135:18 *534:27 1.08037e-05
22 *135:18 *536:8 0.000422604
23 *135:18 *542:36 1.32832e-05
24 *135:18 *542:42 6.7177e-06
25 *1749:A *135:10 0.000195248
26 *1751:A *135:10 2.97072e-05
27 *1751:B *135:10 0.000125802
28 *1757:A1 *135:18 0.000141869
29 *1766:A1 *135:18 5.94125e-05
30 *1768:A0 *135:18 0
31 *1772:A0 *135:18 0
32 *112:19 *135:10 1.01436e-05
33 *112:30 *135:10 0.000167443
34 *117:27 *135:18 0
35 *118:12 *135:10 6.07611e-06
36 *121:40 *135:18 0
37 *121:53 *135:18 0
38 *123:14 *135:18 0.000166504
*RES
1 *1760:X *135:10 45.9854 
2 *135:10 *135:18 41.0896 
3 *135:18 *1764:B 27.4743 
4 *135:18 *1800:A 27.93 
*END

*D_NET *136 0.0091415
*CONN
*I *1762:A2 I *D sky130_fd_sc_hd__a21oi_1
*I *1763:C I *D sky130_fd_sc_hd__and3_1
*I *1761:X O *D sky130_fd_sc_hd__or3_1
*CAP
1 *1762:A2 0
2 *1763:C 0.000291852
3 *1761:X 0.000147535
4 *136:31 0.000133219
5 *136:18 0.000603593
6 *136:14 0.00179848
7 *136:8 0.00176749
8 *1763:C *1763:A 5.56279e-05
9 *1763:C *1763:B 7.83367e-06
10 *1763:C *471:86 6.24993e-06
11 *1763:C *531:6 4.08664e-05
12 *136:8 *512:36 5.3304e-05
13 *136:14 *1784:C1 2.04499e-06
14 *136:14 *1786:A2 0.000334485
15 *136:14 *1789:A_N 0.000203709
16 *136:14 *1789:B 0.00021036
17 *136:14 *1802:B1 0.000131538
18 *136:14 *1805:D 0
19 *136:14 *156:12 7.81559e-05
20 *136:14 *158:16 0.000383995
21 *136:14 *159:18 0
22 *136:14 *161:8 0.0003942
23 *136:14 *162:10 0
24 *136:14 *163:10 0.000135011
25 *136:14 *164:10 0.000150878
26 *136:14 *177:10 8.4047e-05
27 *136:14 *471:71 0
28 *136:14 *498:23 2.54749e-05
29 *136:14 *498:45 0.000459118
30 *136:14 *512:25 3.47781e-05
31 *136:14 *531:70 0.000373311
32 *136:14 *531:72 0.000179579
33 *136:18 *501:35 1.59094e-05
34 *136:31 *1802:B1 8.2017e-05
35 *136:31 *140:10 6.07061e-05
36 *136:31 *471:86 0.000167275
37 *1761:A *136:8 9.82009e-05
38 *1777:A *136:14 0.000119607
39 *1778:A2 *136:14 1.77991e-05
40 *1778:B2 *136:14 0.000291841
41 *98:10 *136:14 0.00013455
42 *110:10 *136:14 6.68587e-05
43 *128:12 *136:14 0
*RES
1 *1761:X *136:8 40.5271 
2 *136:8 *136:14 38.9429 
3 *136:14 *136:18 17.0507 
4 *136:18 *1763:C 26.5629 
5 *136:18 *136:31 34.0186 
6 *136:31 *1762:A2 23 
*END

*D_NET *137 0.00145217
*CONN
*I *1765:A I *D sky130_fd_sc_hd__or3_1
*I *1800:B I *D sky130_fd_sc_hd__nor2_1
*I *1762:Y O *D sky130_fd_sc_hd__a21oi_1
*CAP
1 *1765:A 3.12234e-05
2 *1800:B 0
3 *1762:Y 0.000247164
4 *137:14 0.000248703
5 *137:6 0.00052709
6 *1765:A *1801:B1 3.91386e-05
7 *137:6 *140:10 0.000185946
8 *137:6 *176:8 1.04449e-05
9 *137:14 *1762:B1 0
10 *137:14 *1801:A1 0
11 *137:14 *138:10 0.000105757
12 *137:14 *139:10 5.67058e-05
*RES
1 *1762:Y *137:6 26.48 
2 *137:6 *137:14 34.785 
3 *137:14 *1800:B 23 
4 *137:6 *1765:A 23.8493 
*END

*D_NET *138 0.000862708
*CONN
*I *1801:B1 I *D sky130_fd_sc_hd__a21oi_1
*I *1765:B I *D sky130_fd_sc_hd__or3_1
*I *1763:X O *D sky130_fd_sc_hd__and3_1
*CAP
1 *1801:B1 0.000158814
2 *1765:B 0
3 *1763:X 0.000140957
4 *138:12 0.000158814
5 *138:10 0.000140957
6 *1801:B1 *1765:C 7.88926e-05
7 *1801:B1 *176:8 1.14762e-05
8 *138:10 *139:10 2.79004e-05
9 *1765:A *1801:B1 3.91386e-05
10 *137:14 *138:10 0.000105757
*RES
1 *1763:X *138:10 40.2993 
2 *138:10 *138:12 15 
3 *138:12 *1765:B 23 
4 *138:12 *1801:B1 26.3971 
*END

*D_NET *139 0.00174123
*CONN
*I *1765:C I *D sky130_fd_sc_hd__or3_1
*I *1764:X O *D sky130_fd_sc_hd__xor2_1
*CAP
1 *1765:C 3.64085e-05
2 *1764:X 0.000424478
3 *139:10 0.000460886
4 *1765:C *176:8 7.88926e-05
5 *139:10 *1762:B1 0
6 *139:10 *1801:A1 7.30978e-05
7 *139:10 *2071:A 5.50049e-05
8 *139:10 *175:10 7.73389e-05
9 *1764:B *139:10 0.000187129
10 *1800:A *139:10 0.000184497
11 *1801:B1 *1765:C 7.88926e-05
12 *137:14 *139:10 5.67058e-05
13 *138:10 *139:10 2.79004e-05
*RES
1 *1764:X *139:10 48.73 
2 *139:10 *1765:C 39.5743 
*END

*D_NET *140 0.00190231
*CONN
*I *1805:A I *D sky130_fd_sc_hd__nor4_1
*I *1802:A1 I *D sky130_fd_sc_hd__o21a_1
*I *1765:X O *D sky130_fd_sc_hd__or3_1
*CAP
1 *1805:A 0.000153966
2 *1802:A1 0
3 *1765:X 0.000295599
4 *140:12 0.000153966
5 *140:10 0.000295599
6 *1805:A *1799:A1 1.11037e-05
7 *1805:A *1802:B1 0.000100061
8 *1805:A *1805:B 9.58908e-05
9 *1805:A *177:10 5.3304e-05
10 *140:10 *1762:B1 7.43791e-05
11 *140:10 *176:8 4.1417e-05
12 *140:10 *471:71 0.00027019
13 *140:10 *471:86 0.000110184
14 *136:31 *140:10 6.07061e-05
15 *137:6 *140:10 0.000185946
*RES
1 *1765:X *140:10 45.6021 
2 *140:10 *140:12 15 
3 *140:12 *1802:A1 23 
4 *140:12 *1805:A 26.5007 
*END

*D_NET *141 0.00231595
*CONN
*I *1767:B I *D sky130_fd_sc_hd__xor2_1
*I *1766:X O *D sky130_fd_sc_hd__o32a_1
*CAP
1 *1767:B 0
2 *1766:X 0.000149236
3 *141:12 0.000510834
4 *141:8 0.000660071
5 *141:12 *497:12 0.000625491
6 *1748:B *141:8 0.000180212
7 *119:12 *141:12 0.000190102
*RES
1 *1766:X *141:8 40.0507 
2 *141:8 *141:12 28.1743 
3 *141:12 *1767:B 23 
*END

*D_NET *142 0.000520708
*CONN
*I *1768:A1 I *D sky130_fd_sc_hd__mux2_1
*I *1767:X O *D sky130_fd_sc_hd__xor2_1
*CAP
1 *1768:A1 0.000165103
2 *1767:X 0.000165103
3 *1768:A1 *143:6 1.94693e-05
4 *1768:A1 *143:29 4.02603e-05
5 *1768:A1 *536:14 9.84851e-05
6 *1768:A0 *1768:A1 3.22879e-05
*RES
1 *1767:X *1768:A1 49.48 
*END

*D_NET *143 0.00132571
*CONN
*I *1769:B I *D sky130_fd_sc_hd__nor2_1
*I *1770:B I *D sky130_fd_sc_hd__nand2_1
*I *1768:X O *D sky130_fd_sc_hd__mux2_1
*CAP
1 *1769:B 0
2 *1770:B 0
3 *1768:X 4.72972e-05
4 *143:29 0.000306801
5 *143:12 7.16583e-05
6 *143:6 0.000425756
7 *143:12 *534:23 6.58373e-05
8 *143:29 *1770:A 1.60667e-05
9 *143:29 *499:31 6.33614e-05
10 *143:29 *536:8 6.08751e-05
11 *143:29 *539:12 1.60667e-05
12 *1768:A0 *143:29 5.67058e-05
13 *1768:A1 *143:6 1.94693e-05
14 *1768:A1 *143:29 4.02603e-05
15 *135:18 *143:12 0.000135557
*RES
1 *1768:X *143:6 23.6214 
2 *143:6 *143:12 31.9057 
3 *143:12 *1770:B 23 
4 *143:6 *143:29 34.7539 
5 *143:29 *1769:B 23 
*END

*D_NET *144 0.0026202
*CONN
*I *1799:A1 I *D sky130_fd_sc_hd__o221a_1
*I *1775:A_N I *D sky130_fd_sc_hd__nand4b_1
*I *1769:Y O *D sky130_fd_sc_hd__nor2_1
*CAP
1 *1799:A1 0.000582213
2 *1775:A_N 0
3 *1769:Y 0.000110095
4 *144:12 0.000582213
5 *144:10 0.000110095
6 *1799:A1 *1775:D 0.000222872
7 *1799:A1 *1799:A2 0.000468569
8 *1799:A1 *1805:B 2.0783e-05
9 *1799:A1 *145:16 1.21972e-05
10 *144:10 *1770:A 0.00010018
11 *144:10 *145:10 0.000196353
12 *144:10 *499:31 0.000194327
13 *144:10 *536:8 9.20311e-06
14 *1805:A *1799:A1 1.11037e-05
15 *135:18 *144:10 0
*RES
1 *1769:Y *144:10 41.7079 
2 *144:10 *144:12 15 
3 *144:12 *1775:A_N 23 
4 *144:12 *1799:A1 32.9429 
*END

*D_NET *145 0.0018061
*CONN
*I *1799:C1 I *D sky130_fd_sc_hd__o221a_1
*I *1775:B I *D sky130_fd_sc_hd__nand4b_1
*I *1770:Y O *D sky130_fd_sc_hd__nand2_1
*CAP
1 *1799:C1 7.12045e-05
2 *1775:B 0
3 *1770:Y 0.000177206
4 *145:16 0.000229577
5 *145:10 0.000335579
6 *1799:C1 *1775:D 9.84794e-05
7 *1799:C1 *1799:A2 0.000259945
8 *1799:C1 *150:6 0.000272383
9 *145:10 *1770:A 2.51651e-05
10 *145:10 *536:8 7.03766e-05
11 *145:10 *539:12 5.87564e-06
12 *145:16 *1775:D 4.80446e-05
13 *145:16 *499:8 3.7122e-06
14 *1799:A1 *145:16 1.21972e-05
15 *144:10 *145:10 0.000196353
*RES
1 *1770:Y *145:10 41.48 
2 *145:10 *145:16 17.5479 
3 *145:16 *1775:B 23 
4 *145:16 *1799:C1 26.9564 
*END

*D_NET *146 0.000456742
*CONN
*I *1772:A1 I *D sky130_fd_sc_hd__mux2_1
*I *1771:Y O *D sky130_fd_sc_hd__xnor2_1
*CAP
1 *1772:A1 0.000147946
2 *1771:Y 0.000147946
3 *1771:A *1772:A1 2.32004e-05
4 *1772:A0 *1772:A1 0.000137651
*RES
1 *1771:Y *1772:A1 48.0507 
*END

*D_NET *147 0.00137139
*CONN
*I *1773:B I *D sky130_fd_sc_hd__or2_1
*I *1774:B I *D sky130_fd_sc_hd__nand2_1
*I *1772:X O *D sky130_fd_sc_hd__mux2_1
*CAP
1 *1773:B 0.000101129
2 *1774:B 0
3 *1772:X 0.000499637
4 *147:10 0.000600766
5 *1773:B *149:8 0.000113153
6 *1773:B *539:16 0
7 *1773:B *565:73 0
8 *147:10 *497:27 5.67058e-05
9 *147:10 *539:18 0
10 *147:10 *539:22 0
11 *147:10 *565:73 0
*RES
1 *1772:X *147:10 46.5136 
2 *147:10 *1774:B 38 
3 *147:10 *1773:B 40.2579 
*END

*D_NET *148 0.000358153
*CONN
*I *1775:C I *D sky130_fd_sc_hd__nand4b_1
*I *1773:X O *D sky130_fd_sc_hd__or2_1
*CAP
1 *1775:C 0
2 *1773:X 6.71468e-05
3 *148:8 6.71468e-05
4 *148:8 *149:8 5.51058e-05
5 *148:8 *499:31 0.000168754
*RES
1 *1773:X *148:8 40.2579 
2 *148:8 *1775:C 38 
*END

*D_NET *149 0.00220328
*CONN
*I *1799:A2 I *D sky130_fd_sc_hd__o221a_1
*I *1775:D I *D sky130_fd_sc_hd__nand4b_1
*I *1774:Y O *D sky130_fd_sc_hd__nand2_1
*CAP
1 *1799:A2 9.01054e-05
2 *1775:D 6.40536e-05
3 *1774:Y 0.000261087
4 *149:10 0.000154159
5 *149:8 0.000261087
6 *1799:A2 *1799:B1 5.47983e-06
7 *1799:A2 *1805:B 1.96141e-05
8 *1799:A2 *150:6 4.94033e-05
9 *149:8 *173:24 0
10 *149:8 *499:31 0
11 *149:8 *539:16 3.21223e-05
12 *149:8 *565:73 0
13 *1773:B *149:8 0.000113153
14 *1799:A1 *1775:D 0.000222872
15 *1799:A1 *1799:A2 0.000468569
16 *1799:C1 *1775:D 9.84794e-05
17 *1799:C1 *1799:A2 0.000259945
18 *145:16 *1775:D 4.80446e-05
19 *148:8 *149:8 5.51058e-05
*RES
1 *1774:Y *149:8 43.4271 
2 *149:8 *149:10 15 
3 *149:10 *1775:D 25.5479 
4 *149:10 *1799:A2 28.4064 
*END

*D_NET *150 0.00190573
*CONN
*I *1799:B1 I *D sky130_fd_sc_hd__o221a_1
*I *1805:B I *D sky130_fd_sc_hd__nor4_1
*I *1775:Y O *D sky130_fd_sc_hd__nand4b_1
*CAP
1 *1799:B1 1.8949e-05
2 *1805:B 0.000418964
3 *1775:Y 0.000144994
4 *150:6 0.000582907
5 *1805:B *1802:A2 2.31687e-05
6 *1805:B *1802:B1 0.000102389
7 *1805:B *173:24 0.000135037
8 *1805:B *177:10 1.5769e-05
9 *1799:A1 *1805:B 2.0783e-05
10 *1799:A2 *1799:B1 5.47983e-06
11 *1799:A2 *1805:B 1.96141e-05
12 *1799:A2 *150:6 4.94033e-05
13 *1799:C1 *150:6 0.000272383
14 *1805:A *1805:B 9.58908e-05
*RES
1 *1775:Y *150:6 26.9564 
2 *150:6 *1805:B 31.6586 
3 *150:6 *1799:B1 23.4971 
*END

*D_NET *151 0.00480242
*CONN
*I *1777:B I *D sky130_fd_sc_hd__nand2_1
*I *1778:B1 I *D sky130_fd_sc_hd__a221o_1
*I *1776:X O *D sky130_fd_sc_hd__or2_1
*CAP
1 *1777:B 0
2 *1778:B1 0.000500485
3 *1776:X 0.000392753
4 *151:27 0.000687504
5 *151:6 0.00158074
6 *1778:B1 *153:10 0.000160772
7 *151:6 *294:24 0.000137896
8 *151:27 *152:10 3.14018e-05
9 *151:27 *510:12 0.00020594
10 *151:27 *510:20 2.26497e-05
11 *151:27 *531:122 0.000219383
12 *151:27 *536:20 0.00044237
13 *1735:B1 *151:27 0.000112087
14 *1778:B2 *1778:B1 7.80291e-06
15 *103:27 *1778:B1 1.24376e-05
16 *103:27 *151:6 0.000227208
17 *103:27 *151:27 0
18 *105:8 *151:27 0
19 *110:10 *151:27 6.09861e-05
20 *129:18 *151:27 0
*RES
1 *1776:X *151:6 28.8621 
2 *151:6 *1778:B1 29.3593 
3 *151:6 *151:27 42.6046 
4 *151:27 *1777:B 23 
*END

*D_NET *152 0.00126865
*CONN
*I *1779:B1 I *D sky130_fd_sc_hd__a211o_1
*I *1777:Y O *D sky130_fd_sc_hd__nand2_1
*CAP
1 *1779:B1 1.17716e-05
2 *1777:Y 0.000444581
3 *152:10 0.000456353
4 *152:10 *1784:B1 1.10362e-05
5 *1754:B1 *152:10 3.13912e-05
6 *1755:A2 *1779:B1 5.79559e-05
7 *1784:A2 *152:10 9.92852e-06
8 *126:15 *1779:B1 5.56279e-05
9 *129:8 *152:10 2.52905e-05
10 *129:18 *152:10 0.000133316
11 *151:27 *152:10 3.14018e-05
*RES
1 *1777:Y *152:10 43.8621 
2 *152:10 *1779:B1 38.6214 
*END

*D_NET *153 0.001731
*CONN
*I *1781:B1 I *D sky130_fd_sc_hd__o211a_1
*I *1778:X O *D sky130_fd_sc_hd__a221o_1
*CAP
1 *1781:B1 0
2 *1778:X 0.000359675
3 *153:10 0.000359675
4 *153:10 *294:24 1.18939e-05
5 *153:10 *543:14 0.000678172
6 *1778:A1 *153:10 7.273e-05
7 *1778:A2 *153:10 1.59379e-05
8 *1778:B1 *153:10 0.000160772
9 *1778:B2 *153:10 1.28818e-05
10 *103:27 *153:10 5.9259e-05
*RES
1 *1778:X *153:10 32.715 
2 *153:10 *1781:B1 23 
*END

*D_NET *154 0.000355261
*CONN
*I *1780:B1 I *D sky130_fd_sc_hd__o211a_1
*I *1779:X O *D sky130_fd_sc_hd__a211o_1
*CAP
1 *1780:B1 9.21981e-05
2 *1779:X 9.21981e-05
3 *1780:B1 *510:39 3.91386e-05
4 *1780:B1 *510:50 1.21972e-05
5 *1755:A2 *1780:B1 0
6 *126:26 *1780:B1 4.96207e-05
7 *130:8 *1780:B1 6.9908e-05
*RES
1 *1779:X *1780:B1 48.0714 
*END

*D_NET *155 0.00373051
*CONN
*I *1797:B I *D sky130_fd_sc_hd__nand2b_1
*I *1788:A I *D sky130_fd_sc_hd__or3_4
*I *1780:X O *D sky130_fd_sc_hd__o211a_1
*CAP
1 *1797:B 5.3046e-06
2 *1788:A 0.000130304
3 *1780:X 0
4 *155:14 0.000797807
5 *155:6 0.000662199
6 *1788:A *1797:A_N 5.50106e-05
7 *1788:A *163:10 1.32314e-05
8 *1788:A *172:10 0.000184527
9 *1797:B *172:10 2.20513e-07
10 *155:14 *156:12 6.21446e-05
11 *155:14 *157:8 0.000161121
12 *155:14 *162:10 0.000147639
13 *155:14 *283:85 0
14 *155:14 *536:16 0
15 *155:14 *542:63 0.000376708
16 *155:14 *542:109 2.13834e-05
17 *1785:A *155:14 0.000105721
18 *130:14 *155:14 0.000945532
19 *130:31 *155:14 6.16531e-05
*RES
1 *1780:X *155:6 38 
2 *155:6 *155:14 32.4621 
3 *155:14 *1788:A 26.5214 
4 *155:14 *1797:B 23.1502 
*END

*D_NET *156 0.00416961
*CONN
*I *1788:B I *D sky130_fd_sc_hd__or3_4
*I *1781:X O *D sky130_fd_sc_hd__o211a_1
*CAP
1 *1788:B 0
2 *1781:X 0.000229901
3 *156:12 0.000581727
4 *156:8 0.000811628
5 *156:8 *543:14 0.00026025
6 *156:12 *1786:A2 9.176e-05
7 *156:12 *158:16 8.57765e-05
8 *156:12 *162:10 0.000114083
9 *156:12 *510:39 3.3746e-05
10 *1777:A *156:12 0.000135011
11 *1778:B2 *156:12 0.000215791
12 *97:42 *156:12 0.000275482
13 *110:10 *156:12 0.000139657
14 *130:14 *156:12 0.00105449
15 *136:14 *156:12 7.81559e-05
16 *155:14 *156:12 6.21446e-05
*RES
1 *1781:X *156:8 41.0036 
2 *156:8 *156:12 33.4564 
3 *156:12 *1788:B 23 
*END

*D_NET *157 0.00062365
*CONN
*I *1783:B I *D sky130_fd_sc_hd__xnor2_1
*I *1782:X O *D sky130_fd_sc_hd__or2_1
*CAP
1 *1783:B 2.32701e-05
2 *1782:X 7.30146e-05
3 *157:8 9.62848e-05
4 *1783:B *543:142 5.3304e-05
5 *157:8 *542:109 0.000163352
6 *109:12 *1783:B 5.3304e-05
7 *155:14 *157:8 0.000161121
*RES
1 *1782:X *157:8 40.2579 
2 *157:8 *1783:B 38.6214 
*END

*D_NET *158 0.00246129
*CONN
*I *1786:A2 I *D sky130_fd_sc_hd__a211o_1
*I *1784:B1 I *D sky130_fd_sc_hd__a211o_1
*I *1783:Y O *D sky130_fd_sc_hd__xnor2_1
*CAP
1 *1786:A2 0.000127456
2 *1784:B1 1.15795e-05
3 *1783:Y 0
4 *158:16 0.000327298
5 *158:6 0.000443174
6 *1786:A2 *498:45 0.000101662
7 *158:16 *1784:C1 1.98874e-06
8 *158:16 *159:10 3.76157e-05
9 *1784:A1 *158:16 4.77164e-06
10 *97:42 *1786:A2 0.000169674
11 *97:42 *158:16 0.000117254
12 *100:64 *158:16 7.14493e-05
13 *110:14 *158:16 0.000140313
14 *136:14 *1786:A2 0.000334485
15 *136:14 *158:16 0.000383995
16 *152:10 *1784:B1 1.10362e-05
17 *156:12 *1786:A2 9.176e-05
18 *156:12 *158:16 8.57765e-05
*RES
1 *1783:Y *158:6 38 
2 *158:6 *158:16 38.555 
3 *158:16 *1784:B1 38.2227 
4 *158:6 *1786:A2 42.7229 
*END

*D_NET *159 0.00215904
*CONN
*I *1787:B1 I *D sky130_fd_sc_hd__o211a_1
*I *1784:X O *D sky130_fd_sc_hd__a211o_1
*CAP
1 *1787:B1 0
2 *1784:X 0.000165584
3 *159:18 0.000339603
4 *159:10 0.000505188
5 *159:18 *497:27 0.000168754
6 *159:18 *498:45 0
7 *159:18 *531:21 0.000490613
8 *159:18 *542:55 1.34995e-05
9 *100:64 *159:18 0.000195847
10 *110:14 *159:18 0.000100061
11 *110:22 *159:10 3.98859e-05
12 *129:8 *159:10 0.000102389
13 *136:14 *159:18 0
14 *158:16 *159:10 3.76157e-05
*RES
1 *1784:X *159:10 41.3557 
2 *159:10 *159:18 39.6943 
3 *159:18 *1787:B1 38 
*END

*D_NET *160 0.000361299
*CONN
*I *1786:B1 I *D sky130_fd_sc_hd__a211o_1
*I *1785:Y O *D sky130_fd_sc_hd__nor2_1
*CAP
1 *1786:B1 8.77941e-05
2 *1785:Y 8.77941e-05
3 *1786:B1 *1786:C1 1.14154e-05
4 *1786:B1 *283:85 2.79662e-05
5 *1786:B1 *283:93 1.94693e-05
6 *1786:A1 *1786:B1 3.26893e-05
7 *130:31 *1786:B1 9.41704e-05
*RES
1 *1785:Y *1786:B1 48.0714 
*END

*D_NET *161 0.00209068
*CONN
*I *1789:B I *D sky130_fd_sc_hd__nand2b_1
*I *1798:C1 I *D sky130_fd_sc_hd__o211a_1
*I *1786:X O *D sky130_fd_sc_hd__a211o_1
*CAP
1 *1789:B 0.000155294
2 *1798:C1 0.000128865
3 *1786:X 0.00018774
4 *161:8 0.000471899
5 *1789:B *1789:A_N 2.57636e-05
6 *1789:B *471:71 0
7 *1798:C1 *171:8 9.02461e-05
8 *1798:C1 *510:93 0.00022109
9 *161:8 *471:71 0
10 *161:8 *498:45 0.000205223
11 *136:14 *1789:B 0.00021036
12 *136:14 *161:8 0.0003942
*RES
1 *1786:X *161:8 43.4271 
2 *161:8 *1798:C1 41.0243 
3 *161:8 *1789:B 41.2625 
*END

*D_NET *162 0.00117542
*CONN
*I *1797:A_N I *D sky130_fd_sc_hd__nand2b_1
*I *1788:C I *D sky130_fd_sc_hd__or3_4
*I *1787:X O *D sky130_fd_sc_hd__o211a_1
*CAP
1 *1797:A_N 3.25631e-05
2 *1788:C 0
3 *1787:X 0.000282869
4 *162:12 3.25631e-05
5 *162:10 0.000282869
6 *162:10 *283:93 0.000227819
7 *1788:A *1797:A_N 5.50106e-05
8 *136:14 *162:10 0
9 *155:14 *162:10 0.000147639
10 *156:12 *162:10 0.000114083
*RES
1 *1787:X *162:10 43.2614 
2 *162:10 *162:12 15 
3 *162:12 *1788:C 23 
4 *162:12 *1797:A_N 23.6214 
*END

*D_NET *163 0.00157682
*CONN
*I *1789:A_N I *D sky130_fd_sc_hd__nand2b_1
*I *1798:A2 I *D sky130_fd_sc_hd__o211a_1
*I *1788:X O *D sky130_fd_sc_hd__or3_4
*CAP
1 *1789:A_N 0.000216879
2 *1798:A2 0
3 *1788:X 0.000168578
4 *163:10 0.000385457
5 *1789:A_N *164:10 3.7122e-06
6 *1789:A_N *172:10 1.05441e-05
7 *1789:A_N *498:23 8.01521e-05
8 *1789:A_N *498:45 1.69822e-05
9 *1789:A_N *536:14 0.000181794
10 *163:10 *172:10 0.000135011
11 *1788:A *163:10 1.32314e-05
12 *1789:B *1789:A_N 2.57636e-05
13 *136:14 *1789:A_N 0.000203709
14 *136:14 *163:10 0.000135011
*RES
1 *1788:X *163:10 41.0036 
2 *163:10 *1798:A2 38 
3 *163:10 *1789:A_N 43.51 
*END

*D_NET *164 0.000694891
*CONN
*I *1805:C I *D sky130_fd_sc_hd__nor4_1
*I *1789:Y O *D sky130_fd_sc_hd__nand2b_1
*CAP
1 *1805:C 0
2 *1789:Y 0.000167371
3 *164:10 0.000167371
4 *164:10 *1805:D 0.000110024
5 *164:10 *498:23 8.4047e-05
6 *164:10 *536:14 1.14876e-05
7 *1789:A_N *164:10 3.7122e-06
8 *136:14 *164:10 0.000150878
*RES
1 *1789:Y *164:10 42.64 
2 *164:10 *1805:C 38 
*END

*D_NET *165 0.000211577
*CONN
*I *1791:B I *D sky130_fd_sc_hd__nand2_1
*I *1790:Y O *D sky130_fd_sc_hd__nand2_1
*CAP
1 *1791:B 7.57292e-05
2 *1790:Y 7.57292e-05
3 *1791:B *1793:A 5.25848e-05
4 *1791:B *166:10 7.53384e-06
*RES
1 *1790:Y *1791:B 47.595 
*END

*D_NET *166 0.00118952
*CONN
*I *1792:A1 I *D sky130_fd_sc_hd__mux2_2
*I *1791:Y O *D sky130_fd_sc_hd__nand2_1
*CAP
1 *1792:A1 8.27363e-05
2 *1791:Y 0.000152113
3 *166:10 0.00023485
4 *1792:A1 *1792:A0 9.58714e-05
5 *1792:A1 *1795:A2 0.000221084
6 *1792:A1 *526:100 0.000135037
7 *166:10 *1793:A 9.88574e-06
8 *166:10 *1803:A 0.000194309
9 *166:10 *219:57 5.61012e-05
10 *1791:B *166:10 7.53384e-06
*RES
1 *1791:Y *166:10 41.2314 
2 *166:10 *1792:A1 40.5271 
*END

*D_NET *167 0.00176905
*CONN
*I *1804:A2 I *D sky130_fd_sc_hd__a2111o_1
*I *1796:A2 I *D sky130_fd_sc_hd__a21o_1
*I *1794:B I *D sky130_fd_sc_hd__nor2_1
*I *1792:X O *D sky130_fd_sc_hd__mux2_2
*CAP
1 *1804:A2 4.47405e-05
2 *1796:A2 0.000131533
3 *1794:B 0.000184151
4 *1792:X 0
5 *167:25 0.000262948
6 *167:4 0.000270826
7 *1794:B *1794:A 5.32443e-05
8 *1794:B *1795:A2 1.37232e-05
9 *1796:A2 *1796:A1 0.000351502
10 *1796:A2 *1796:B1 0.000192184
11 *1804:A2 *1796:A1 4.08664e-05
12 *1804:A2 *1796:B1 2.93845e-05
13 *167:25 *1794:A 2.69066e-06
14 *167:25 *1796:A1 8.4047e-05
15 *167:25 *273:27 0.000107212
16 *167:25 *529:88 0
*RES
1 *1792:X *167:4 23 
2 *167:4 *1794:B 26.1382 
3 *167:4 *167:25 31.7504 
4 *167:25 *1796:A2 27.4536 
5 *167:25 *1804:A2 24.1186 
*END

*D_NET *168 0.00125296
*CONN
*I *1804:B1 I *D sky130_fd_sc_hd__a2111o_1
*I *1793:X O *D sky130_fd_sc_hd__and2_1
*CAP
1 *1804:B1 0
2 *1793:X 0.000390228
3 *168:10 0.000390228
4 *168:10 *169:8 0.000134081
5 *168:10 *273:27 0.000338418
6 *168:10 *536:16 0
*RES
1 *1793:X *168:10 44.7736 
2 *168:10 *1804:B1 38 
*END

*D_NET *169 0.000315545
*CONN
*I *1804:C1 I *D sky130_fd_sc_hd__a2111o_1
*I *1794:Y O *D sky130_fd_sc_hd__nor2_1
*CAP
1 *1804:C1 0
2 *1794:Y 9.07321e-05
3 *169:8 9.07321e-05
4 *169:8 *536:16 0
5 *168:10 *169:8 0.000134081
*RES
1 *1794:Y *169:8 39.9057 
2 *169:8 *1804:C1 38 
*END

*D_NET *170 0.00238002
*CONN
*I *1796:B1 I *D sky130_fd_sc_hd__a21o_1
*I *1795:X O *D sky130_fd_sc_hd__o211a_1
*CAP
1 *1796:B1 0.000282579
2 *1795:X 0.000147316
3 *170:8 0.000429895
4 *1796:B1 *1796:A1 1.76557e-05
5 *1796:B1 *1803:A 9.67842e-05
6 *1796:B1 *178:17 2.32101e-05
7 *1796:B1 *510:93 0.000746299
8 *1796:B1 *529:80 6.80119e-05
9 *1796:B1 *529:88 1.51028e-05
10 *170:8 *1792:S 8.55438e-05
11 *170:8 *1803:A 0.000209046
12 *170:8 *526:111 3.70094e-05
13 *1796:A2 *1796:B1 0.000192184
14 *1804:A2 *1796:B1 2.93845e-05
*RES
1 *1795:X *170:8 41.3143 
2 *170:8 *1796:B1 47.6943 
*END

*D_NET *171 0.000718838
*CONN
*I *1798:A1 I *D sky130_fd_sc_hd__o211a_1
*I *1796:X O *D sky130_fd_sc_hd__a21o_1
*CAP
1 *1798:A1 0
2 *1796:X 0.000270157
3 *171:8 0.000270157
4 *171:8 *510:93 8.82787e-05
5 *1798:C1 *171:8 9.02461e-05
*RES
1 *1796:X *171:8 27.93 
2 *171:8 *1798:A1 23 
*END

*D_NET *172 0.00107408
*CONN
*I *1798:B1 I *D sky130_fd_sc_hd__o211a_1
*I *1797:Y O *D sky130_fd_sc_hd__nand2b_1
*CAP
1 *1798:B1 0
2 *1797:Y 0.000304383
3 *172:10 0.000304383
4 *172:10 *498:45 0.000135011
5 *1788:A *172:10 0.000184527
6 *1789:A_N *172:10 1.05441e-05
7 *1797:B *172:10 2.20513e-07
8 *163:10 *172:10 0.000135011
*RES
1 *1797:Y *172:10 43.3857 
2 *172:10 *1798:B1 38 
*END

*D_NET *173 0.00218372
*CONN
*I *1799:B2 I *D sky130_fd_sc_hd__o221a_1
*I *1798:X O *D sky130_fd_sc_hd__o211a_1
*CAP
1 *1799:B2 0
2 *1798:X 0.000394351
3 *173:24 0.000250494
4 *173:10 0.000644845
5 *173:10 *471:71 0.000536703
6 *173:10 *510:93 0.000146822
7 *173:24 *1802:A2 5.3304e-05
8 *173:24 *531:21 2.21614e-05
9 *1805:B *173:24 0.000135037
10 *149:8 *173:24 0
*RES
1 *1798:X *173:10 46.7621 
2 *173:10 *173:24 48.7907 
3 *173:24 *1799:B2 23 
*END

*D_NET *174 0.000244104
*CONN
*I *1802:A2 I *D sky130_fd_sc_hd__o21a_1
*I *1799:X O *D sky130_fd_sc_hd__o221a_1
*CAP
1 *1802:A2 8.38155e-05
2 *1799:X 8.38155e-05
3 *1805:B *1802:A2 2.31687e-05
4 *173:24 *1802:A2 5.3304e-05
*RES
1 *1799:X *1802:A2 47.0979 
*END

*D_NET *175 0.000643322
*CONN
*I *1801:A2 I *D sky130_fd_sc_hd__a21oi_1
*I *1800:Y O *D sky130_fd_sc_hd__nor2_1
*CAP
1 *1801:A2 0
2 *1800:Y 0.000198155
3 *175:10 0.000198155
4 *175:10 *1801:A1 0.000169674
5 *139:10 *175:10 7.73389e-05
*RES
1 *1800:Y *175:10 41.8321 
2 *175:10 *1801:A2 38 
*END

*D_NET *176 0.00271467
*CONN
*I *1802:B1 I *D sky130_fd_sc_hd__o21a_1
*I *1801:Y O *D sky130_fd_sc_hd__a21oi_1
*CAP
1 *1802:B1 0.00036099
2 *1801:Y 0.000696911
3 *176:8 0.0010579
4 *1802:B1 *177:10 1.12508e-05
5 *176:8 *1762:B1 2.93845e-05
6 *1765:C *176:8 7.88926e-05
7 *1801:B1 *176:8 1.14762e-05
8 *1805:A *1802:B1 0.000100061
9 *1805:B *1802:B1 0.000102389
10 *136:14 *1802:B1 0.000131538
11 *136:31 *1802:B1 8.2017e-05
12 *137:6 *176:8 1.04449e-05
13 *140:10 *176:8 4.1417e-05
*RES
1 *1801:Y *176:8 47.2334 
2 *176:8 *1802:B1 45.5814 
*END

*D_NET *177 0.000848055
*CONN
*I *1806:A2 I *D sky130_fd_sc_hd__o21a_1
*I *1802:X O *D sky130_fd_sc_hd__o21a_1
*CAP
1 *1806:A2 0.00010781
2 *1802:X 0.00015244
3 *177:10 0.00026025
4 *1806:A2 *501:35 0.000112116
5 *177:10 *180:8 5.10669e-05
6 *1802:B1 *177:10 1.12508e-05
7 *1805:A *177:10 5.3304e-05
8 *1805:B *177:10 1.5769e-05
9 *136:14 *177:10 8.4047e-05
*RES
1 *1802:X *177:10 40.6514 
2 *177:10 *1806:A2 40.0714 
*END

*D_NET *178 0.00330757
*CONN
*I *1842:A I *D sky130_fd_sc_hd__or2_1
*I *1843:A1 I *D sky130_fd_sc_hd__a21oi_1
*I *1804:D1 I *D sky130_fd_sc_hd__a2111o_1
*I *1803:Y O *D sky130_fd_sc_hd__nor2_1
*CAP
1 *1842:A 0.000229037
2 *1843:A1 0.000169076
3 *1804:D1 0.000234801
4 *1803:Y 0
5 *178:17 0.000665968
6 *178:4 0.000502657
7 *1804:D1 *510:93 0.000358425
8 *1842:A *1842:B 9.84851e-05
9 *1842:A *1844:A2 0.000285883
10 *1842:A *1844:B1 0.000185434
11 *1842:A *212:16 0
12 *1843:A1 *1843:B1 0.000139346
13 *1843:A1 *213:27 2.4754e-05
14 *1843:A1 *217:10 5.14746e-06
15 *178:17 *1844:A2 0.000300098
16 *178:17 *212:16 0
17 *178:17 *510:93 8.52481e-05
18 *1796:B1 *178:17 2.32101e-05
*RES
1 *1803:Y *178:4 23 
2 *178:4 *1804:D1 26.9564 
3 *178:4 *178:17 20.5929 
4 *178:17 *1843:A1 40.5271 
5 *178:17 *1842:A 44.0693 
*END

*D_NET *179 0.00218457
*CONN
*I *1805:D I *D sky130_fd_sc_hd__nor4_1
*I *1804:X O *D sky130_fd_sc_hd__a2111o_1
*CAP
1 *1805:D 0.000324464
2 *1804:X 0.000318798
3 *179:8 0.000643262
4 *1805:D *498:23 0.000299178
5 *1805:D *536:16 0
6 *179:8 *510:93 0.000488848
7 *136:14 *1805:D 0
8 *164:10 *1805:D 0.000110024
*RES
1 *1804:X *179:8 43.3857 
2 *179:8 *1805:D 45.8921 
*END

*D_NET *180 0.000264869
*CONN
*I *1806:A1 I *D sky130_fd_sc_hd__o21a_1
*I *1805:Y O *D sky130_fd_sc_hd__nor4_1
*CAP
1 *1806:A1 0
2 *1805:Y 0.000106901
3 *180:8 0.000106901
4 *177:10 *180:8 5.10669e-05
*RES
1 *1805:Y *180:8 39.9057 
2 *180:8 *1806:A1 38 
*END

*D_NET *181 0.00554863
*CONN
*I *1827:B I *D sky130_fd_sc_hd__or3_4
*I *1806:X O *D sky130_fd_sc_hd__o21a_1
*CAP
1 *1827:B 0.000500942
2 *1806:X 0.000734523
3 *181:8 0.00123546
4 *1827:B *326:18 0.000162831
5 *1827:B *502:10 0.00010655
6 *1827:B *505:10 0.000185428
7 *181:8 *326:18 0.00131057
8 *181:8 *326:37 0.000837546
9 *181:8 *501:35 0.00021525
10 *181:8 *504:10 0.00010018
11 *181:8 *544:49 0.000159348
*RES
1 *1806:X *181:8 46.9871 
2 *181:8 *1827:B 31.265 
*END

*D_NET *182 0.0082032
*CONN
*I *1956:A2 I *D sky130_fd_sc_hd__o21a_1
*I *1808:B I *D sky130_fd_sc_hd__or2_1
*I *1898:A I *D sky130_fd_sc_hd__nand2_1
*I *1807:X O *D sky130_fd_sc_hd__or3_1
*CAP
1 *1956:A2 0.00015781
2 *1808:B 0
3 *1898:A 0
4 *1807:X 0
5 *182:40 0.00166765
6 *182:24 0.000443255
7 *182:16 0.000922151
8 *182:4 0.00198873
9 *1956:A2 *336:18 0.00043586
10 *1956:A2 *554:88 0.000151114
11 *182:16 *1598:A1 2.43233e-05
12 *182:16 *1598:A2 0.000268868
13 *182:16 *1807:B 4.37586e-06
14 *182:16 *2131:A 4.67488e-05
15 *182:16 *337:66 8.62783e-05
16 *182:16 *547:45 1.56662e-06
17 *182:16 *554:75 2.29192e-05
18 *182:24 *211:22 0.000218952
19 *182:24 *524:64 0
20 *182:24 *524:78 1.83667e-05
21 *182:24 *538:12 0
22 *182:40 *1589:A 2.64616e-05
23 *182:40 *1598:A2 8.52481e-05
24 *182:40 *2047:A1 6.68587e-05
25 *182:40 *197:28 3.32827e-05
26 *182:40 *199:95 9.02461e-05
27 *182:40 *326:78 3.12477e-05
28 *182:40 *351:18 2.19571e-05
29 *182:40 *492:20 0.000148402
30 *182:40 *492:56 0.000316972
31 *182:40 *535:16 0.000699315
32 *182:40 *550:67 8.48502e-06
33 *182:40 *563:69 0.000215755
*RES
1 *1807:X *182:4 23 
2 *182:4 *182:16 37.2293 
3 *182:16 *182:24 38.1821 
4 *182:24 *1898:A 23 
5 *182:16 *1808:B 23 
6 *182:4 *182:40 40.1471 
7 *182:40 *1956:A2 42.9093 
*END

*D_NET *183 0.00426145
*CONN
*I *1826:A1 I *D sky130_fd_sc_hd__a311o_1
*I *1812:A1 I *D sky130_fd_sc_hd__o2111a_1
*I *1808:X O *D sky130_fd_sc_hd__or2_1
*CAP
1 *1826:A1 0
2 *1812:A1 0
3 *1808:X 0.000157145
4 *183:20 0.000326377
5 *183:12 0.000787785
6 *183:8 0.000618553
7 *183:8 *2131:A 6.50913e-05
8 *183:12 *1809:D 0.000236604
9 *183:12 *184:10 2.72055e-05
10 *183:12 *186:8 0.000109443
11 *183:12 *198:10 0
12 *183:12 *199:51 0
13 *183:12 *200:10 5.00353e-05
14 *183:12 *491:32 0
15 *183:12 *526:92 0
16 *183:12 *529:43 0.000289297
17 *183:12 *552:116 8.04879e-05
18 *183:12 *554:75 2.60152e-05
19 *183:12 *554:88 8.16253e-05
20 *183:20 *1812:A2 7.96474e-05
21 *183:20 *1826:A3 4.9662e-05
22 *183:20 *186:8 1.40183e-05
23 *183:20 *199:18 0.000139346
24 *183:20 *205:10 0.000450153
25 *183:20 *336:6 1.41077e-05
26 *183:20 *491:26 0.000131997
27 *183:20 *491:32 0.000526857
*RES
1 *1808:X *183:8 40.0507 
2 *183:8 *183:12 25.005 
3 *183:12 *183:20 40.5229 
4 *183:20 *1812:A1 23 
5 *183:12 *1826:A1 23 
*END

*D_NET *184 0.000538675
*CONN
*I *1811:A I *D sky130_fd_sc_hd__or2_1
*I *1809:X O *D sky130_fd_sc_hd__or4_1
*CAP
1 *1811:A 0
2 *1809:X 0.000114638
3 *184:10 0.000114638
4 *184:10 *491:32 0.000166522
5 *184:10 *518:82 2.93845e-05
6 *184:10 *554:88 8.62876e-05
7 *183:12 *184:10 2.72055e-05
*RES
1 *1809:X *184:10 40.8793 
2 *184:10 *1811:A 38 
*END

*D_NET *185 0.000376853
*CONN
*I *1811:B I *D sky130_fd_sc_hd__or2_1
*I *1810:X O *D sky130_fd_sc_hd__or4_1
*CAP
1 *1811:B 0
2 *1810:X 6.1994e-05
3 *185:8 6.1994e-05
4 *185:8 *491:32 0.000168754
5 *185:8 *529:57 8.41115e-05
*RES
1 *1810:X *185:8 40.2579 
2 *185:8 *1811:B 38 
*END

*D_NET *186 0.00199778
*CONN
*I *1812:A2 I *D sky130_fd_sc_hd__o2111a_1
*I *1826:A2 I *D sky130_fd_sc_hd__a311o_1
*I *1811:X O *D sky130_fd_sc_hd__or2_1
*CAP
1 *1812:A2 0.000411846
2 *1826:A2 0
3 *1811:X 9.13458e-05
4 *186:8 0.000503192
5 *1812:A2 *1586:A 0.000204751
6 *1812:A2 *1831:B_N 5.3304e-05
7 *1812:A2 *195:8 0
8 *1812:A2 *200:10 2.75733e-06
9 *1812:A2 *205:10 0.000439564
10 *1812:A2 *500:35 5.3304e-05
11 *186:8 *200:10 5.96346e-06
12 *186:8 *491:32 2.86399e-05
13 *183:12 *186:8 0.000109443
14 *183:20 *1812:A2 7.96474e-05
15 *183:20 *186:8 1.40183e-05
*RES
1 *1811:X *186:8 39.9057 
2 *186:8 *1826:A2 38 
3 *186:8 *1812:A2 47.2179 
*END

*D_NET *187 0.00264134
*CONN
*I *1827:A I *D sky130_fd_sc_hd__or3_4
*I *1812:X O *D sky130_fd_sc_hd__o2111a_1
*CAP
1 *1827:A 0.000417332
2 *1812:X 0.00038858
3 *187:10 0.000805912
4 *1827:A *1827:C 0.000284795
5 *1827:A *2114:A 0.000135037
6 *1827:A *502:10 7.27085e-05
7 *187:10 *1812:B1 0.0002246
8 *187:10 *1831:B_N 3.88766e-05
9 *187:10 *201:10 8.27131e-05
10 *187:10 *205:10 0.000139352
11 *187:10 *491:26 4.21524e-05
12 op_out[1] *187:10 9.28078e-06
*RES
1 *1812:X *187:10 44.1107 
2 *187:10 *1827:A 45.4779 
*END

*D_NET *188 0.0181942
*CONN
*I *2008:B1 I *D sky130_fd_sc_hd__o22a_1
*I *1819:B1 I *D sky130_fd_sc_hd__o22a_1
*I *2047:B1 I *D sky130_fd_sc_hd__o22a_1
*I *1965:B1 I *D sky130_fd_sc_hd__o22a_1
*I *1920:B1 I *D sky130_fd_sc_hd__o22a_1
*I *1830:B1 I *D sky130_fd_sc_hd__o22a_1
*I *1893:B1 I *D sky130_fd_sc_hd__o22a_1
*I *1864:B1 I *D sky130_fd_sc_hd__o22a_1
*I *1813:X O *D sky130_fd_sc_hd__and4b_2
*CAP
1 *2008:B1 0
2 *1819:B1 0
3 *2047:B1 0
4 *1965:B1 2.5985e-05
5 *1920:B1 0.000444886
6 *1830:B1 1.50079e-05
7 *1893:B1 0
8 *1864:B1 2.43835e-05
9 *1813:X 0.00018605
10 *188:119 0.000960271
11 *188:101 0.000198967
12 *188:71 0.00111225
13 *188:63 0.000993227
14 *188:47 0.000342624
15 *188:28 0.000842515
16 *188:22 0.0012161
17 *188:16 0.000965257
18 *188:12 0.000300682
19 *188:10 0.00136022
20 *1830:B1 *1830:B2 5.50049e-05
21 *1830:B1 *526:77 5.50049e-05
22 *1920:B1 *190:80 4.6318e-06
23 *1920:B1 *298:8 0.000422679
24 *1920:B1 *335:10 9.88574e-06
25 *1920:B1 *346:10 1.22906e-05
26 *1920:B1 *537:42 6.16439e-05
27 *1920:B1 *554:98 4.38375e-05
28 *1965:B1 *1964:A1 5.3304e-05
29 *1965:B1 *1964:A2 5.3304e-05
30 *1965:B1 *537:46 1.24376e-05
31 *188:10 *1815:A 1.40958e-05
32 *188:10 *1815:C_N 0.000141052
33 *188:10 *190:8 8.4047e-05
34 *188:10 *192:86 3.47776e-05
35 *188:12 *190:8 0.000331562
36 *188:12 *190:10 0.000137222
37 *188:12 *192:86 0.000222039
38 *188:16 *190:10 0.000217408
39 *188:16 *192:86 2.60152e-05
40 *188:16 *193:10 0.000163352
41 *188:22 *1818:B1 0.000139977
42 *188:22 *1819:A1 1.01436e-05
43 *188:22 *1837:B 4.68153e-05
44 *188:22 *190:14 0
45 *188:22 *192:86 6.16439e-05
46 *188:22 *193:10 2.93845e-05
47 *188:22 *202:43 3.41998e-06
48 *188:22 *202:62 4.15283e-06
49 *188:22 *204:8 0.000138718
50 *188:22 *209:12 4.64471e-05
51 *188:22 *210:10 6.40157e-06
52 *188:22 *437:8 5.01325e-05
53 *188:22 *528:34 7.38091e-05
54 *188:22 *550:95 0.000648978
55 *188:28 *1830:A2 0.000128492
56 *188:28 *1836:A3 0.000183502
57 *188:28 *1836:B1 0
58 *188:28 *1864:A2 0.00050346
59 *188:28 *1866:A2 0.000119825
60 *188:28 *1866:B1 7.30663e-05
61 *188:28 *1866:B2 2.84288e-05
62 *188:28 *1866:C1 5.50049e-05
63 *188:28 *196:35 5.58152e-06
64 *188:28 *202:43 2.57929e-05
65 *188:28 *242:8 6.5949e-05
66 *188:28 *528:34 3.63658e-05
67 *188:28 *545:29 0.000351727
68 *188:47 *1864:A1 5.3304e-05
69 *188:47 *1864:A2 0.000140259
70 *188:47 *1893:A1 0.000480242
71 *188:47 *196:54 1.62015e-05
72 *188:47 *269:10 1.14452e-05
73 *188:47 *526:62 0.000575795
74 *188:47 *566:31 2.3529e-05
75 *188:63 *1818:B1 4.21048e-05
76 *188:63 *2046:A2 0.000139357
77 *188:63 *190:54 5.45431e-05
78 *188:63 *205:22 5.12254e-05
79 *188:71 *190:54 9.41704e-05
80 *188:71 *190:61 0.000722832
81 *188:71 *190:80 0.000256767
82 *188:71 *205:22 2.06822e-05
83 *188:71 *435:10 5.12254e-05
84 *188:71 *537:42 0.000175612
85 *188:71 *554:98 6.7177e-06
86 *188:101 *2049:B1 5.3304e-05
87 *188:101 *196:12 0.000207219
88 *188:101 *205:26 0.000100615
89 *188:101 *205:28 6.07611e-06
90 *188:101 *438:6 4.34973e-05
91 *188:101 *553:26 0.000138444
92 *188:119 *1957:A 2.45549e-06
93 *188:119 *2009:A3 8.48502e-06
94 *188:119 *2009:B1 0
95 *188:119 *2010:A1 2.93747e-05
96 *188:119 *2010:A2 0.000148698
97 *188:119 *197:16 4.88739e-05
98 *188:119 *205:14 1.79651e-05
99 *188:119 *394:8 0.00048624
100 *188:119 *535:69 5.73835e-06
*RES
1 *1813:X *188:10 41.2521 
2 *188:10 *188:12 6.48357 
3 *188:12 *188:16 17.9621 
4 *188:16 *188:22 30.805 
5 *188:22 *188:28 27.6357 
6 *188:28 *1864:B1 23.4971 
7 *188:28 *188:47 40.2121 
8 *188:47 *1893:B1 23 
9 *188:22 *1830:B1 38.6214 
10 *188:16 *188:63 3.48 
11 *188:63 *188:71 29.21 
12 *188:71 *1920:B1 45.8921 
13 *188:71 *1965:B1 38.6214 
14 *188:63 *188:101 34.5364 
15 *188:101 *2047:B1 23 
16 *188:12 *1819:B1 38 
17 *188:10 *188:119 28.8579 
18 *188:119 *2008:B1 23 
*END

*D_NET *189 0.0046863
*CONN
*I *1817:D_N I *D sky130_fd_sc_hd__or4b_4
*I *1821:C I *D sky130_fd_sc_hd__nor3_4
*I *1815:A I *D sky130_fd_sc_hd__or3b_4
*I *1820:C I *D sky130_fd_sc_hd__nor3_1
*I *1814:Y O *D sky130_fd_sc_hd__nand2_2
*CAP
1 *1817:D_N 8.19585e-05
2 *1821:C 0.000465455
3 *1815:A 0.000260535
4 *1820:C 2.24725e-05
5 *1814:Y 0
6 *189:14 0.000463324
7 *189:10 0.000768335
8 *189:4 0.000204522
9 *1815:A *1813:C 4.17736e-05
10 *1815:A *1815:C_N 0.00019201
11 *1815:A *230:13 9.5877e-05
12 *1815:A *489:35 3.44404e-05
13 *1815:A *491:55 0.000389038
14 *1815:A *500:85 5.50106e-05
15 *1815:A *530:23 5.50106e-05
16 *1817:D_N *1814:A 6.42943e-05
17 *1817:D_N *2068:A 0.00010018
18 *1817:D_N *192:20 6.07175e-05
19 *1817:D_N *315:23 9.74722e-05
20 *1820:C *230:13 0.000141954
21 *1820:C *489:35 2.4754e-05
22 *1820:C *489:41 0.00010018
23 *1821:C *1812:B1 9.84851e-05
24 *1821:C *191:72 5.80796e-05
25 *1821:C *197:12 0.000102093
26 *189:10 *1814:A 2.32004e-05
27 *189:10 *192:20 0.000140259
28 *189:10 *315:23 3.17634e-05
29 *189:10 *500:46 9.59063e-05
30 *189:10 *530:17 2.29617e-05
31 *189:14 *192:20 4.87727e-05
32 *189:14 *491:49 6.12496e-06
33 *189:14 *500:46 8.9458e-05
34 *189:14 *500:85 0.000212096
35 *189:14 *530:17 6.7177e-06
36 *189:14 *530:19 1.69668e-05
37 *189:14 *530:66 0
38 *188:10 *1815:A 1.40958e-05
*RES
1 *1814:Y *189:4 23 
2 *189:4 *189:10 18.1279 
3 *189:10 *189:14 19.0186 
4 *189:14 *1820:C 24.5743 
5 *189:14 *1815:A 30.4571 
6 *189:10 *1821:C 44.7114 
7 *189:4 *1817:D_N 26.0243 
*END

*D_NET *190 0.0153446
*CONN
*I *2007:B1 I *D sky130_fd_sc_hd__a21oi_1
*I *1964:B1 I *D sky130_fd_sc_hd__a21oi_1
*I *1919:B1 I *D sky130_fd_sc_hd__a21oi_1
*I *2046:B1 I *D sky130_fd_sc_hd__a21oi_1
*I *1818:B1 I *D sky130_fd_sc_hd__a22oi_1
*I *1892:B1 I *D sky130_fd_sc_hd__a21oi_1
*I *1863:A_N I *D sky130_fd_sc_hd__and2b_1
*I *1829:A I *D sky130_fd_sc_hd__nor2_1
*I *1815:X O *D sky130_fd_sc_hd__or3b_4
*CAP
1 *2007:B1 0
2 *1964:B1 0
3 *1919:B1 0
4 *2046:B1 0
5 *1818:B1 0.000103681
6 *1892:B1 0.000347865
7 *1863:A_N 0
8 *1829:A 0
9 *1815:X 0.000192286
10 *190:93 0.000817379
11 *190:80 0.000260471
12 *190:67 0.0002901
13 *190:61 0.000943521
14 *190:54 0.00053042
15 *190:41 0.000241151
16 *190:27 0.000738933
17 *190:14 0.00103668
18 *190:10 0.00081285
19 *190:8 0.00117691
20 *1818:B1 *1809:C 0.000114783
21 *1818:B1 *1818:A1 2.23935e-05
22 *1892:B1 *1861:B 0.000221997
23 *1892:B1 *1892:A1 5.50106e-05
24 *1892:B1 *2052:A 7.27085e-05
25 *1892:B1 *234:16 4.21378e-05
26 *1892:B1 *236:10 9.58714e-05
27 *1892:B1 *238:10 2.02872e-05
28 *1892:B1 *497:68 1.03836e-05
29 *1892:B1 *540:97 0.000137651
30 *1892:B1 *540:110 0.00014196
31 *1892:B1 *563:8 0.00026808
32 *190:8 *194:8 5.58473e-05
33 *190:8 *197:12 0.000168744
34 *190:8 *532:14 8.99165e-05
35 *190:10 *192:86 3.95159e-06
36 *190:10 *194:8 0.000162133
37 *190:10 *532:14 9.3425e-05
38 *190:10 *532:16 4.6318e-06
39 *190:14 *1837:B 1.23662e-05
40 *190:14 *192:86 1.19692e-05
41 *190:14 *197:40 2.31116e-05
42 *190:14 *210:10 0.000193398
43 *190:14 *437:8 0.000162822
44 *190:14 *440:28 0.000129592
45 *190:14 *532:16 0.000124062
46 *190:14 *532:18 6.60442e-05
47 *190:14 *532:20 0.000275696
48 *190:27 *1866:A1 8.27142e-05
49 *190:27 *1866:A2 1.90303e-05
50 *190:27 *205:47 3.82734e-05
51 *190:27 *490:27 0
52 *190:27 *520:18 0.000193698
53 *190:27 *526:77 0.00050315
54 *190:27 *545:33 0
55 *190:54 *1809:C 0.000137651
56 *190:54 *2046:A2 0.000139357
57 *190:54 *492:33 9.41704e-05
58 *190:54 *492:35 0.000137651
59 *190:61 *492:33 0.000206946
60 *190:67 *1956:A1 0.00021356
61 *190:67 *346:10 4.4382e-05
62 *190:67 *497:56 0.000187986
63 *190:67 *537:42 4.48731e-05
64 *190:67 *554:98 0
65 *190:80 *554:98 0.000163352
66 *190:93 *2007:A2 8.264e-05
67 *190:93 *2011:A1 2.02872e-05
68 *190:93 *199:41 0.000109847
69 *190:93 *326:56 0.000221084
70 *190:93 *359:14 2.35777e-05
71 *190:93 *397:14 0.000149194
72 *190:93 *535:16 3.5082e-05
73 *190:93 *535:61 4.34745e-05
74 *190:93 *553:16 9.41704e-05
75 *1920:B1 *190:80 4.6318e-06
76 *188:10 *190:8 8.4047e-05
77 *188:12 *190:8 0.000331562
78 *188:12 *190:10 0.000137222
79 *188:16 *190:10 0.000217408
80 *188:22 *1818:B1 0.000139977
81 *188:22 *190:14 0
82 *188:63 *1818:B1 4.21048e-05
83 *188:63 *190:54 5.45431e-05
84 *188:71 *190:54 9.41704e-05
85 *188:71 *190:61 0.000722832
86 *188:71 *190:80 0.000256767
*RES
1 *1815:X *190:8 43.7793 
2 *190:8 *190:10 5.075 
3 *190:10 *190:14 28.8786 
4 *190:14 *1829:A 23 
5 *190:14 *190:27 39.3836 
6 *190:27 *1863:A_N 23 
7 *190:27 *1892:B1 31.7207 
8 *190:10 *190:41 15 
9 *190:41 *1818:B1 26.0243 
10 *190:41 *190:54 4.45357 
11 *190:54 *2046:B1 23 
12 *190:54 *190:61 8.24429 
13 *190:61 *190:67 35.4271 
14 *190:67 *1919:B1 23 
15 *190:61 *190:80 35.2614 
16 *190:80 *1964:B1 23 
17 *190:8 *190:93 27.2214 
18 *190:93 *2007:B1 23 
*END

*D_NET *191 0.0150936
*CONN
*I *2015:A2 I *D sky130_fd_sc_hd__a21o_1
*I *1970:A2 I *D sky130_fd_sc_hd__a21o_1
*I *1956:B1 I *D sky130_fd_sc_hd__o21a_1
*I *1898:B I *D sky130_fd_sc_hd__nand2_1
*I *1838:B I *D sky130_fd_sc_hd__nand2_1
*I *1869:B1 I *D sky130_fd_sc_hd__o31a_1
*I *1846:B1 I *D sky130_fd_sc_hd__o21a_1
*I *1816:X O *D sky130_fd_sc_hd__or4b_4
*CAP
1 *2015:A2 0.000185377
2 *1970:A2 0
3 *1956:B1 0
4 *1898:B 0
5 *1838:B 6.88628e-05
6 *1869:B1 4.56956e-05
7 *1846:B1 0.000111287
8 *1816:X 0.000143386
9 *191:90 0.000450017
10 *191:76 0.000565038
11 *191:72 0.00207078
12 *191:59 3.41779e-05
13 *191:24 0.00032323
14 *191:22 0.00135863
15 *191:14 0.00169185
16 *191:8 0.00244792
17 *1838:B *493:34 0.000194327
18 *1838:B *544:32 9.27917e-05
19 *1846:B1 *493:34 0.000188916
20 *1846:B1 *536:64 3.22879e-05
21 *1846:B1 *544:32 9.53499e-05
22 *1869:B1 *542:109 7.44257e-05
23 *1869:B1 *543:108 0.000139352
24 *2015:A2 *400:10 3.7122e-06
25 *2015:A2 *553:68 4.96717e-05
26 *191:8 *1816:A 6.47746e-05
27 *191:8 *211:22 4.95339e-05
28 *191:8 *489:45 3.0647e-05
29 *191:8 *500:10 0
30 *191:14 *1899:B 2.02872e-05
31 *191:14 *199:10 0.000399206
32 *191:14 *211:22 6.22475e-05
33 *191:14 *489:45 0.00010403
34 *191:14 *518:82 2.30435e-05
35 *191:14 *524:78 0.000788039
36 *191:14 *526:138 4.3407e-05
37 *191:14 *529:57 0
38 *191:22 *1871:A 3.84508e-05
39 *191:22 *1872:B 2.93747e-05
40 *191:22 *1899:B 7.44257e-05
41 *191:22 *1900:B 2.93747e-05
42 *191:22 *246:10 5.67058e-05
43 *191:22 *247:10 5.50106e-05
44 *191:22 *518:67 3.71369e-05
45 *191:22 *518:74 6.7063e-05
46 *191:22 *518:82 3.87007e-05
47 *191:22 *520:44 5.70473e-05
48 *191:24 *493:34 0.000485212
49 *191:24 *544:32 0.000241091
50 *191:59 *211:22 8.94487e-05
51 *191:59 *538:12 4.43717e-05
52 *191:72 *1812:B1 1.20706e-05
53 *191:72 *1831:A_N 5.12254e-05
54 *191:72 *197:12 0.000184527
55 *191:72 *400:10 1.94693e-05
56 *191:72 *500:25 3.83498e-05
57 *191:72 *500:35 0.000495056
58 *191:72 *500:85 4.21281e-05
59 *191:76 *352:10 7.03766e-05
60 *191:76 *507:12 0
61 *191:76 *553:68 3.93526e-05
62 *191:90 *1970:A1 0.000185095
63 *191:90 *2008:A1 7.75329e-06
64 *191:90 *336:18 9.84794e-05
65 *191:90 *490:67 0.000164011
66 *191:90 *507:12 0
67 *191:90 *537:12 0.000238472
68 *191:90 *537:42 8.00768e-05
69 *191:90 *553:68 1.33351e-05
70 *1821:C *191:72 5.80796e-05
*RES
1 *1816:X *191:8 40.9621 
2 *191:8 *191:14 29.0443 
3 *191:14 *191:22 32.4621 
4 *191:22 *191:24 6.48357 
5 *191:24 *1846:B1 41.2314 
6 *191:24 *1869:B1 39.5743 
7 *191:22 *1838:B 40.61 
8 *191:14 *191:59 31.2014 
9 *191:59 *1898:B 23 
10 *191:8 *191:72 42.3429 
11 *191:72 *191:76 17.9621 
12 *191:76 *191:90 40.2536 
13 *191:90 *1956:B1 38 
14 *191:76 *1970:A2 38 
15 *191:72 *2015:A2 26.0243 
*END

*D_NET *192 0.020757
*CONN
*I *2018:A I *D sky130_fd_sc_hd__nor2_1
*I *1975:B1 I *D sky130_fd_sc_hd__a31o_1
*I *1963:A_N I *D sky130_fd_sc_hd__and3b_1
*I *1818:B2 I *D sky130_fd_sc_hd__a22oi_1
*I *1876:A I *D sky130_fd_sc_hd__or3b_1
*I *1925:A1 I *D sky130_fd_sc_hd__o31ai_1
*I *1852:B1 I *D sky130_fd_sc_hd__a31oi_1
*I *1843:B1 I *D sky130_fd_sc_hd__a21oi_1
*I *1817:X O *D sky130_fd_sc_hd__or4b_4
*CAP
1 *2018:A 0.000233331
2 *1975:B1 0.000107943
3 *1963:A_N 0.00031366
4 *1818:B2 0
5 *1876:A 0
6 *1925:A1 0
7 *1852:B1 0
8 *1843:B1 0.000280377
9 *1817:X 0
10 *192:99 0.000679448
11 *192:97 0.00200198
12 *192:86 0.000896017
13 *192:75 9.07227e-05
14 *192:64 9.10524e-05
15 *192:58 0.0004533
16 *192:45 0.000126081
17 *192:30 0.000663194
18 *192:28 0.000906523
19 *192:24 0.00125999
20 *192:20 0.00173141
21 *192:6 0.00203057
22 *192:4 0.00179567
23 *1843:B1 *1840:A 5.67058e-05
24 *1843:B1 *1848:B 0
25 *1843:B1 *213:27 0.000354116
26 *1843:B1 *214:10 9.24795e-06
27 *1963:A_N *1962:A 4.34745e-05
28 *1963:A_N *1963:B 2.49733e-05
29 *1963:A_N *2050:C1 0
30 *1963:A_N *336:18 5.50106e-05
31 *1963:A_N *336:24 0.000184825
32 *1963:A_N *341:19 0
33 *1963:A_N *342:14 0.00015795
34 *1963:A_N *343:23 8.57765e-05
35 *1963:A_N *343:29 3.0647e-05
36 *1975:B1 *1975:A2 5.41385e-05
37 *1975:B1 *343:23 5.12254e-05
38 *2018:A *2013:A1 4.95081e-05
39 *2018:A *356:14 0.000224605
40 *2018:A *398:10 0.000140259
41 *2018:A *404:8 4.96717e-05
42 *2018:A *553:68 2.93845e-05
43 *192:6 *2068:A 0.000352421
44 *192:6 *532:14 2.32101e-05
45 *192:20 *1812:D1 0.00013185
46 *192:20 *1824:B_N 0.000207432
47 *192:20 *2068:A 9.84794e-05
48 *192:20 *201:10 2.24608e-05
49 *192:20 *315:23 5.61255e-06
50 *192:20 *491:26 1.12695e-05
51 *192:20 *491:32 9.28078e-06
52 *192:20 *500:46 0.000159778
53 *192:20 *500:48 2.64616e-05
54 *192:20 *501:20 7.23913e-05
55 *192:20 *530:43 6.86109e-05
56 *192:20 *530:66 0
57 *192:24 *1824:C 4.38638e-05
58 *192:24 *199:10 4.96675e-06
59 *192:24 *489:41 8.08139e-06
60 *192:24 *524:78 0.000454033
61 *192:28 *1849:A 3.59635e-05
62 *192:28 *225:33 5.50049e-05
63 *192:28 *524:78 0.000394086
64 *192:30 *1848:B 3.17634e-05
65 *192:30 *1849:A 2.93747e-05
66 *192:30 *214:10 9.84851e-05
67 *192:45 *214:10 6.33614e-05
68 *192:45 *216:32 0
69 *192:45 *224:33 0
70 *192:45 *544:49 8.83346e-05
71 *192:58 *221:12 0.000151836
72 *192:58 *243:14 0.000525702
73 *192:58 *493:55 0.000135037
74 *192:64 *243:14 1.99391e-05
75 *192:64 *246:10 1.14452e-05
76 *192:64 *248:8 8.62783e-05
77 *192:64 *274:20 0
78 *192:64 *506:12 0
79 *192:75 *249:8 4.08537e-05
80 *192:75 *250:10 4.23817e-05
81 *192:75 *274:20 2.00528e-05
82 *192:86 *1819:A1 0.000103009
83 *192:86 *193:10 0.000163352
84 *192:86 *197:12 0
85 *192:86 *489:23 0
86 *192:86 *489:35 1.28427e-05
87 *192:86 *528:49 6.7177e-06
88 *192:86 *532:14 0
89 *192:97 *1971:A 2.93747e-05
90 *192:97 *1971:B 0.000143071
91 *192:97 *353:6 0.000160715
92 *192:97 *354:10 9.20311e-06
93 *192:97 *355:8 0
94 *192:97 *399:8 0.000104002
95 *192:97 *402:10 4.32774e-05
96 *192:97 *532:6 0.000100488
97 *192:97 *532:14 0.000126847
98 *192:97 *553:74 0.000111852
99 *192:99 *343:29 9.98995e-05
100 *192:99 *355:8 0
101 *1817:D_N *192:20 6.07175e-05
102 *1843:A1 *1843:B1 0.000139346
103 *188:10 *192:86 3.47776e-05
104 *188:12 *192:86 0.000222039
105 *188:16 *192:86 2.60152e-05
106 *188:22 *192:86 6.16439e-05
107 *189:10 *192:20 0.000140259
108 *189:14 *192:20 4.87727e-05
109 *190:10 *192:86 3.95159e-06
110 *190:14 *192:86 1.19692e-05
*RES
1 *1817:X *192:4 23 
2 *192:4 *192:6 4.43286 
3 *192:6 *192:20 40.9875 
4 *192:20 *192:24 27.5321 
5 *192:24 *192:28 5.88286 
6 *192:28 *192:30 4.90929 
7 *192:30 *1843:B1 29.5871 
8 *192:30 *192:45 32.61 
9 *192:45 *1852:B1 23 
10 *192:28 *192:58 38.7621 
11 *192:58 *192:64 31.9057 
12 *192:64 *1925:A1 23 
13 *192:24 *192:75 31.9057 
14 *192:75 *1876:A 23 
15 *192:6 *192:86 46.6957 
16 *192:86 *1818:B2 23 
17 *192:4 *192:97 38.3657 
18 *192:97 *192:99 5.42714 
19 *192:99 *1963:A_N 45.2293 
20 *192:99 *1975:B1 40.0507 
21 *192:97 *2018:A 43.8829 
*END

*D_NET *193 0.000592969
*CONN
*I *1819:B2 I *D sky130_fd_sc_hd__o22a_1
*I *1818:Y O *D sky130_fd_sc_hd__a22oi_1
*CAP
1 *1819:B2 0
2 *1818:Y 0.00011844
3 *193:10 0.00011844
4 *188:16 *193:10 0.000163352
5 *188:22 *193:10 2.93845e-05
6 *192:86 *193:10 0.000163352
*RES
1 *1818:Y *193:10 40.8793 
2 *193:10 *1819:B2 38 
*END

*D_NET *194 0.00206488
*CONN
*I *1826:C1 I *D sky130_fd_sc_hd__a311o_1
*I *1819:X O *D sky130_fd_sc_hd__o22a_1
*CAP
1 *1826:C1 0.000168953
2 *1819:X 0.000109554
3 *194:8 0.000278507
4 *1826:C1 *1826:A3 5.67058e-05
5 *1826:C1 *199:18 0.000171725
6 *1826:C1 *199:41 0.000394982
7 *1826:C1 *336:6 0.000355007
8 *1826:C1 *499:31 0.000103623
9 *194:8 *532:14 0.000207837
10 *190:8 *194:8 5.58473e-05
11 *190:10 *194:8 0.000162133
*RES
1 *1819:X *194:8 40.9621 
2 *194:8 *1826:C1 45.7679 
*END

*D_NET *195 0.0011955
*CONN
*I *1826:A3 I *D sky130_fd_sc_hd__a311o_1
*I *1820:Y O *D sky130_fd_sc_hd__nor3_1
*CAP
1 *1826:A3 0.000103659
2 *1820:Y 0.00028589
3 *195:8 0.000389549
4 *1826:A3 *199:18 4.02603e-05
5 *1826:A3 *336:6 0.000269775
6 *195:8 *489:35 0
7 *1812:A2 *195:8 0
8 *1826:C1 *1826:A3 5.67058e-05
9 *183:20 *1826:A3 4.9662e-05
*RES
1 *1820:Y *195:8 42.7229 
2 *195:8 *1826:A3 41.5007 
*END

*D_NET *196 0.0165526
*CONN
*I *1823:A I *D sky130_fd_sc_hd__or2_1
*I *2050:A1 I *D sky130_fd_sc_hd__a311o_1
*I *2012:A1 I *D sky130_fd_sc_hd__a31o_1
*I *1954:B1 I *D sky130_fd_sc_hd__o21a_1
*I *1923:A1 I *D sky130_fd_sc_hd__a311o_1
*I *1891:B1 I *D sky130_fd_sc_hd__o21a_1
*I *1836:A1 I *D sky130_fd_sc_hd__a32o_1
*I *1866:B2 I *D sky130_fd_sc_hd__a221o_1
*I *1821:Y O *D sky130_fd_sc_hd__nor3_4
*CAP
1 *1823:A 0.000146946
2 *2050:A1 0
3 *2012:A1 3.36701e-05
4 *1954:B1 5.145e-05
5 *1923:A1 0
6 *1891:B1 0
7 *1836:A1 0
8 *1866:B2 4.54157e-05
9 *1821:Y 0.000578196
10 *196:114 0.000211778
11 *196:93 0.000846097
12 *196:74 0.00117779
13 *196:63 0.000630332
14 *196:54 0.000428622
15 *196:46 0.00124883
16 *196:35 0.000311528
17 *196:14 0.000492129
18 *196:12 0.0017298
19 *196:8 0.0016042
20 *1823:A *199:51 2.45549e-06
21 *1823:A *199:89 9.8971e-06
22 *1823:A *336:18 9.67842e-05
23 *1866:B2 *1866:A1 1.81615e-05
24 *1866:B2 *1866:B1 3.01297e-05
25 *1866:B2 *490:27 4.30894e-05
26 *2012:A1 *2045:A 0.000109895
27 *2012:A1 *2045:B 5.87649e-05
28 *196:8 *1815:B 6.95872e-05
29 *196:8 *1821:B 3.55887e-05
30 *196:8 *2010:A2 2.11887e-05
31 *196:8 *205:22 7.97296e-05
32 *196:8 *326:56 0
33 *196:8 *326:64 0.00013185
34 *196:8 *336:12 4.87543e-05
35 *196:8 *396:10 0.00016375
36 *196:8 *492:14 0
37 *196:8 *511:12 2.04774e-05
38 *196:12 *199:45 2.36568e-05
39 *196:12 *199:95 0
40 *196:12 *205:26 1.69668e-05
41 *196:12 *205:28 3.61069e-05
42 *196:12 *205:47 0.000140636
43 *196:12 *326:64 0.000603138
44 *196:12 *326:68 7.89883e-05
45 *196:12 *326:78 0.000246176
46 *196:12 *336:12 1.3822e-05
47 *196:12 *490:27 0
48 *196:12 *532:14 0
49 *196:14 *1866:A1 1.45549e-05
50 *196:14 *205:47 0
51 *196:14 *490:27 0.000265448
52 *196:14 *526:77 8.77794e-05
53 *196:35 *1836:B1 4.87927e-05
54 *196:35 *205:62 0.00056191
55 *196:35 *272:18 0.000848634
56 *196:35 *540:97 9.38792e-05
57 *196:46 *345:12 0.000154747
58 *196:46 *490:27 7.23805e-05
59 *196:46 *524:52 0.000434165
60 *196:54 *234:16 5.67058e-05
61 *196:54 *268:10 0.000136486
62 *196:54 *269:10 0
63 *196:54 *296:10 8.62783e-05
64 *196:54 *518:117 0
65 *196:54 *534:145 0
66 *196:54 *537:69 0
67 *196:54 *540:110 5.50049e-05
68 *196:54 *566:31 0
69 *196:63 *345:12 2.63049e-05
70 *196:74 *297:8 0
71 *196:74 *345:10 0.000404986
72 *196:74 *345:12 0.000297212
73 *196:74 *534:145 0
74 *196:93 *2045:A 6.38926e-05
75 *196:93 *2045:B 0.000155274
76 *196:93 *345:10 0.000408138
77 *196:93 *534:145 0
78 *196:114 *2050:A3 5.23172e-05
79 *196:114 *397:20 0.000166522
80 *196:114 *433:10 0.000114083
81 *196:114 *438:16 5.3304e-05
82 *188:28 *1866:B2 2.84288e-05
83 *188:28 *196:35 5.58152e-06
84 *188:47 *196:54 1.62015e-05
85 *188:101 *196:12 0.000207219
*RES
1 *1821:Y *196:8 49.4136 
2 *196:8 *196:12 18.9225 
3 *196:12 *196:14 3.66643 
4 *196:14 *1866:B2 39.0046 
5 *196:14 *196:35 33.2748 
6 *196:35 *1836:A1 23 
7 *196:12 *196:46 25.6989 
8 *196:46 *196:54 38.1614 
9 *196:54 *1891:B1 23 
10 *196:46 *196:63 1.595 
11 *196:63 *1923:A1 23 
12 *196:63 *196:74 26.9936 
13 *196:74 *1954:B1 38.6214 
14 *196:74 *196:93 28.2364 
15 *196:93 *2012:A1 24.595 
16 *196:93 *196:114 34.8264 
17 *196:114 *2050:A1 23 
18 *196:8 *1823:A 40.0714 
*END

*D_NET *197 0.0148037
*CONN
*I *2009:A3 I *D sky130_fd_sc_hd__a32o_1
*I *1823:B I *D sky130_fd_sc_hd__or2_1
*I *1966:A3 I *D sky130_fd_sc_hd__a32o_1
*I *2048:A3 I *D sky130_fd_sc_hd__a32o_1
*I *1922:A3 I *D sky130_fd_sc_hd__a32o_1
*I *1894:A3 I *D sky130_fd_sc_hd__a32o_1
*I *1865:A3 I *D sky130_fd_sc_hd__a32o_1
*I *1835:B2 I *D sky130_fd_sc_hd__a22o_1
*I *1822:X O *D sky130_fd_sc_hd__and4b_2
*CAP
1 *2009:A3 9.22623e-05
2 *1823:B 8.82024e-05
3 *1966:A3 0
4 *2048:A3 0
5 *1922:A3 0
6 *1894:A3 1.31139e-05
7 *1865:A3 0.00017682
8 *1835:B2 2.52079e-05
9 *1822:X 0.000315762
10 *197:67 0.000309736
11 *197:63 0.00108988
12 *197:46 0.00136654
13 *197:40 0.000693317
14 *197:28 0.000662007
15 *197:22 0.000662473
16 *197:16 0.00046756
17 *197:12 0.000456729
18 *1823:B *199:89 0.000115
19 *1823:B *336:18 0.000221084
20 *1835:B2 *199:51 4.67998e-05
21 *1835:B2 *492:67 4.67998e-05
22 *1865:A3 *1865:A2 5.99389e-05
23 *1865:A3 *1865:B2 5.50106e-05
24 *1865:A3 *199:65 0.000118918
25 *1865:A3 *524:113 8.46371e-05
26 *1865:A3 *540:82 5.50106e-05
27 *1894:A3 *1865:A2 2.93845e-05
28 *1894:A3 *540:82 4.34745e-05
29 *2009:A3 *2009:B1 0.000186698
30 *2009:A3 *2010:A1 5.50049e-05
31 *2009:A3 *2010:C1 0.00010018
32 *2009:A3 *394:8 7.13587e-05
33 *197:12 *326:56 0
34 *197:12 *532:14 0.000456496
35 *197:16 *2009:B1 7.68515e-05
36 *197:16 *2010:A1 1.32314e-05
37 *197:16 *2010:A2 0.000269781
38 *197:16 *205:14 0.000348905
39 *197:22 *2009:B1 1.14154e-05
40 *197:22 *205:22 8.29905e-05
41 *197:22 *440:28 0.000172586
42 *197:22 *492:20 0.000169696
43 *197:28 *2047:A1 0.000138708
44 *197:28 *199:89 0.000565192
45 *197:28 *199:95 2.46384e-05
46 *197:28 *205:22 1.84863e-05
47 *197:28 *351:18 1.05441e-05
48 *197:28 *492:20 0.000282708
49 *197:28 *563:69 3.65079e-05
50 *197:40 *199:95 2.05503e-05
51 *197:40 *351:18 2.26497e-05
52 *197:40 *518:103 0.000524268
53 *197:40 *532:18 2.11066e-05
54 *197:46 *199:51 0.000367284
55 *197:46 *211:10 8.57765e-05
56 *197:46 *492:67 0.000195552
57 *197:46 *514:8 0.000299608
58 *197:46 *552:116 0.000560328
59 *197:63 *199:65 0.000142803
60 *197:63 *326:86 0.00120288
61 *197:63 *348:53 0.000133385
62 *197:63 *497:35 4.5745e-05
63 *197:63 *519:105 1.77147e-05
64 *197:63 *540:97 9.13368e-06
65 *197:63 *563:77 0
66 *197:67 *199:65 4.45778e-05
67 *197:67 *497:35 3.61511e-05
68 *197:67 *518:54 6.87607e-05
69 *197:67 *519:105 4.86691e-05
70 *1821:C *197:12 0.000102093
71 *182:40 *197:28 3.32827e-05
72 *188:119 *2009:A3 8.48502e-06
73 *188:119 *197:16 4.88739e-05
74 *190:8 *197:12 0.000168744
75 *190:14 *197:40 2.31116e-05
76 *191:72 *197:12 0.000184527
77 *192:86 *197:12 0
*RES
1 *1822:X *197:12 46.8036 
2 *197:12 *197:16 19.9093 
3 *197:16 *197:22 20.5721 
4 *197:22 *197:28 9.715 
5 *197:28 *197:40 32.6427 
6 *197:40 *197:46 26.5896 
7 *197:46 *1835:B2 38.6732 
8 *197:46 *197:63 19.8204 
9 *197:63 *197:67 17.61 
10 *197:67 *1865:A3 27.6193 
11 *197:67 *1894:A3 23.6214 
12 *197:63 *1922:A3 38 
13 *197:40 *2048:A3 23 
14 *197:28 *1966:A3 38 
15 *197:22 *1823:B 40.5271 
16 *197:16 *2009:A3 26.9771 
*END

*D_NET *198 0.00137345
*CONN
*I *1825:A3 I *D sky130_fd_sc_hd__a32o_1
*I *1823:X O *D sky130_fd_sc_hd__or2_1
*CAP
1 *1825:A3 0
2 *1823:X 0.00051845
3 *198:10 0.00051845
4 *198:10 *1819:A2 9.84851e-05
5 *198:10 *1825:A2 5.06451e-05
6 *198:10 *199:26 3.34706e-05
7 *198:10 *199:51 5.54632e-05
8 *198:10 *493:63 9.84851e-05
9 *198:10 *528:49 0
10 *183:12 *198:10 0
*RES
1 *1823:X *198:10 45.1879 
2 *198:10 *1825:A3 38 
*END

*D_NET *199 0.0208279
*CONN
*I *2010:A2 I *D sky130_fd_sc_hd__a211o_1
*I *1966:B1 I *D sky130_fd_sc_hd__a32o_1
*I *1921:B I *D sky130_fd_sc_hd__and2_1
*I *1895:A2 I *D sky130_fd_sc_hd__a221o_1
*I *1835:A2 I *D sky130_fd_sc_hd__a22o_1
*I *1865:B1 I *D sky130_fd_sc_hd__a32o_1
*I *1825:B1 I *D sky130_fd_sc_hd__a32o_1
*I *1824:X O *D sky130_fd_sc_hd__and4bb_2
*CAP
1 *2010:A2 0.000184454
2 *1966:B1 6.76486e-05
3 *1921:B 0.000103607
4 *1895:A2 0
5 *1835:A2 0.000110169
6 *1865:B1 0
7 *1825:B1 0
8 *1824:X 0.000412031
9 *199:103 0.000373401
10 *199:95 0.00102285
11 *199:89 0.00103424
12 *199:65 0.000870572
13 *199:51 0.00200985
14 *199:45 0.0016203
15 *199:41 0.000673504
16 *199:26 0.000122524
17 *199:18 0.00102122
18 *199:10 0.000992111
19 *1835:A2 *345:12 0.000182702
20 *1835:A2 *524:52 5.3304e-05
21 *1835:A2 *524:56 0.000137091
22 *1921:B *297:20 5.3304e-05
23 *1921:B *497:87 0.000268074
24 *1921:B *554:98 2.32004e-05
25 *1966:B1 *1966:A1 2.32004e-05
26 *1966:B1 *1966:A2 1.24376e-05
27 *1966:B1 *205:38 6.11245e-05
28 *2010:A2 *326:56 0.000228417
29 *2010:A2 *336:12 5.72853e-05
30 *2010:A2 *396:10 5.01419e-05
31 *199:10 *1824:C 6.17437e-06
32 *199:10 *201:10 0
33 *199:10 *489:45 1.01436e-05
34 *199:10 *491:32 0
35 *199:10 *524:78 3.16665e-05
36 *199:10 *529:57 1.26599e-05
37 *199:18 *336:6 5.49622e-05
38 *199:18 *493:55 0.00018282
39 *199:18 *529:63 7.59794e-05
40 *199:26 *1825:A2 2.55176e-05
41 *199:26 *528:49 4.6318e-06
42 *199:41 *326:56 5.3304e-05
43 *199:41 *336:6 5.52339e-05
44 *199:45 *326:56 3.18198e-05
45 *199:45 *336:12 0.000155078
46 *199:45 *532:14 9.33404e-05
47 *199:51 *1809:D 0
48 *199:51 *1819:A2 2.79662e-05
49 *199:51 *1825:B2 8.43466e-05
50 *199:51 *211:10 5.93457e-05
51 *199:51 *348:53 0
52 *199:51 *351:10 8.4047e-05
53 *199:51 *492:67 1.22906e-05
54 *199:51 *518:103 0
55 *199:51 *526:92 0
56 *199:51 *526:94 0.000227208
57 *199:51 *529:43 0
58 *199:51 *552:116 0
59 *199:51 *554:88 0.000729761
60 *199:65 *1865:A2 0.000117217
61 *199:65 *326:86 0.000655309
62 *199:65 *492:67 4.11139e-05
63 *199:65 *519:105 2.15048e-05
64 *199:65 *538:20 9.44092e-05
65 *199:65 *540:82 0.000535532
66 *199:65 *540:97 0.000351085
67 *199:89 *205:22 4.96264e-05
68 *199:89 *326:64 4.00606e-05
69 *199:89 *336:18 1.76557e-05
70 *199:89 *435:10 0.000240416
71 *199:89 *554:88 0.000294802
72 *199:95 *351:18 4.1581e-05
73 *199:95 *490:27 0.000136486
74 *199:95 *497:68 0.000226306
75 *199:95 *497:87 8.52481e-05
76 *199:103 *1892:A1 9.47917e-06
77 *199:103 *1893:A1 1.46586e-05
78 *199:103 *518:117 0.000660823
79 *199:103 *520:53 4.66036e-05
80 *199:103 *537:69 0
81 *1823:A *199:51 2.45549e-06
82 *1823:A *199:89 9.8971e-06
83 *1823:B *199:89 0.000115
84 *1826:A3 *199:18 4.02603e-05
85 *1826:C1 *199:18 0.000171725
86 *1826:C1 *199:41 0.000394982
87 *1835:B2 *199:51 4.67998e-05
88 *1865:A3 *199:65 0.000118918
89 *182:40 *199:95 9.02461e-05
90 *183:12 *199:51 0
91 *183:20 *199:18 0.000139346
92 *188:119 *2010:A2 0.000148698
93 *190:93 *199:41 0.000109847
94 *191:14 *199:10 0.000399206
95 *192:24 *199:10 4.96675e-06
96 *196:8 *2010:A2 2.11887e-05
97 *196:12 *199:45 2.36568e-05
98 *196:12 *199:95 0
99 *197:16 *2010:A2 0.000269781
100 *197:28 *199:89 0.000565192
101 *197:28 *199:95 2.46384e-05
102 *197:40 *199:95 2.05503e-05
103 *197:46 *199:51 0.000367284
104 *197:63 *199:65 0.000142803
105 *197:67 *199:65 4.45778e-05
106 *198:10 *199:26 3.34706e-05
107 *198:10 *199:51 5.54632e-05
*RES
1 *1824:X *199:10 45.4779 
2 *199:10 *199:18 25.3157 
3 *199:18 *199:26 31.8332 
4 *199:26 *1825:B1 23 
5 *199:18 *199:41 22.0014 
6 *199:41 *199:45 18.3143 
7 *199:45 *199:51 37.475 
8 *199:51 *199:65 37.534 
9 *199:65 *1865:B1 23 
10 *199:51 *1835:A2 41.1693 
11 *199:45 *199:89 26.3721 
12 *199:89 *199:95 25.2536 
13 *199:95 *199:103 39.1195 
14 *199:103 *1895:A2 23 
15 *199:95 *1921:B 26.0036 
16 *199:89 *1966:B1 39.7296 
17 *199:41 *2010:A2 44.3179 
*END

*D_NET *200 0.000615612
*CONN
*I *1826:B1 I *D sky130_fd_sc_hd__a311o_1
*I *1825:X O *D sky130_fd_sc_hd__a32o_1
*CAP
1 *1826:B1 0
2 *1825:X 0.0002066
3 *200:10 0.0002066
4 *200:10 *493:63 0.000143655
5 *1812:A2 *200:10 2.75733e-06
6 *183:12 *200:10 5.00353e-05
7 *186:8 *200:10 5.96346e-06
*RES
1 *1825:X *200:10 41.48 
2 *200:10 *1826:B1 38 
*END

*D_NET *201 0.00279155
*CONN
*I *1827:C I *D sky130_fd_sc_hd__or3_4
*I *1826:X O *D sky130_fd_sc_hd__a311o_1
*CAP
1 *1827:C 0.000154927
2 *1826:X 0.000503261
3 *201:10 0.000658188
4 *1827:C *1816:A 5.50106e-05
5 *1827:C *2114:A 9.41704e-05
6 *1827:C *502:10 5.50106e-05
7 *1827:C *511:66 2.64616e-05
8 *201:10 *1824:B_N 9.85586e-06
9 *201:10 *1824:C 0.000294553
10 *201:10 *336:6 9.84794e-05
11 *201:10 *489:45 8.35638e-06
12 *201:10 *491:20 9.28078e-06
13 *201:10 *491:26 8.4293e-05
14 *201:10 *491:32 0.000208749
15 *201:10 *511:70 0.000127791
16 op_out[1] *201:10 1.31913e-05
17 *1827:A *1827:C 0.000284795
18 *187:10 *201:10 8.27131e-05
19 *192:20 *201:10 2.24608e-05
20 *199:10 *201:10 0
*RES
1 *1826:X *201:10 49.455 
2 *201:10 *1827:C 42.4329 
*END

*D_NET *202 0.00577187
*CONN
*I *1835:B1 I *D sky130_fd_sc_hd__a22o_1
*I *1829:B I *D sky130_fd_sc_hd__nor2_1
*I *1833:C I *D sky130_fd_sc_hd__and3_1
*I *1855:C I *D sky130_fd_sc_hd__and3_1
*I *1853:B1 I *D sky130_fd_sc_hd__a21o_1
*I *1828:X O *D sky130_fd_sc_hd__and2_1
*CAP
1 *1835:B1 0
2 *1829:B 0
3 *1833:C 5.51582e-05
4 *1855:C 0.000222033
5 *1853:B1 0.000130144
6 *1828:X 0
7 *202:62 0.000238542
8 *202:43 0.000633595
9 *202:32 0.000515612
10 *202:21 0.000508649
11 *202:4 0.000351359
12 *1833:C *207:6 8.06804e-06
13 *1833:C *538:24 0.000121616
14 *1833:C *547:82 8.07498e-05
15 *1853:B1 *1853:A1 9.84851e-05
16 *1853:B1 *1853:A2 9.67842e-05
17 *1853:B1 *523:33 2.61526e-05
18 *1853:B1 *547:88 1.24376e-05
19 *1855:C *542:139 6.42727e-05
20 *202:21 *231:8 0.000168754
21 *202:21 *525:81 0.000121575
22 *202:21 *547:88 0.00044967
23 *202:32 *525:81 4.96264e-05
24 *202:32 *547:88 9.85378e-05
25 *202:43 *1830:A2 0.00055717
26 *202:43 *207:32 4.20628e-05
27 *202:43 *210:10 0.000153991
28 *202:43 *525:81 0.000143107
29 *202:43 *547:88 2.46345e-05
30 *202:62 *209:12 4.48391e-05
31 *202:62 *210:10 2.26406e-05
32 *202:62 *492:67 0.000152606
33 *202:62 *540:97 0.000393421
34 *202:62 *550:65 0.000152214
35 *188:22 *202:43 3.41998e-06
36 *188:22 *202:62 4.15283e-06
37 *188:28 *202:43 2.57929e-05
*RES
1 *1828:X *202:4 23 
2 *202:4 *1853:B1 26.045 
3 *202:4 *202:21 21.4007 
4 *202:21 *1855:C 40.8689 
5 *202:21 *202:32 1.55357 
6 *202:32 *1833:C 39.4086 
7 *202:32 *202:43 9.30071 
8 *202:43 *1829:B 38 
9 *202:43 *202:62 34.1458 
10 *202:62 *1835:B1 23 
*END

*D_NET *203 0.000560434
*CONN
*I *1830:B2 I *D sky130_fd_sc_hd__o22a_1
*I *1829:Y O *D sky130_fd_sc_hd__nor2_1
*CAP
1 *1830:B2 9.43568e-05
2 *1829:Y 9.43568e-05
3 *1830:B2 *1830:A1 2.93104e-06
4 *1830:B2 *520:18 0.000223692
5 *1830:B2 *526:77 9.00923e-05
6 *1830:B1 *1830:B2 5.50049e-05
*RES
1 *1829:Y *1830:B2 49.0243 
*END

*D_NET *204 0.000329661
*CONN
*I *1837:A I *D sky130_fd_sc_hd__or3_1
*I *1830:X O *D sky130_fd_sc_hd__o22a_1
*CAP
1 *1837:A 0
2 *1830:X 6.07939e-05
3 *204:8 6.07939e-05
4 *204:8 *210:10 6.93553e-05
5 *188:22 *204:8 0.000138718
*RES
1 *1830:X *204:8 39.9057 
2 *204:8 *1837:A 38 
*END

*D_NET *205 0.0197184
*CONN
*I *2009:B1 I *D sky130_fd_sc_hd__a32o_1
*I *2049:A2 I *D sky130_fd_sc_hd__a211o_1
*I *1836:B1 I *D sky130_fd_sc_hd__a32o_1
*I *1922:B1 I *D sky130_fd_sc_hd__a32o_1
*I *1894:B1 I *D sky130_fd_sc_hd__a32o_1
*I *1866:A2 I *D sky130_fd_sc_hd__a221o_1
*I *1967:A2 I *D sky130_fd_sc_hd__a221o_1
*I *1831:X O *D sky130_fd_sc_hd__and4bb_2
*CAP
1 *2009:B1 0.000437004
2 *2049:A2 0
3 *1836:B1 6.48973e-05
4 *1922:B1 0
5 *1894:B1 0.00013893
6 *1866:A2 0.000118613
7 *1967:A2 0
8 *1831:X 0.000398132
9 *205:91 0.000341061
10 *205:64 0.00105392
11 *205:62 0.000885705
12 *205:47 0.000892605
13 *205:38 0.000535825
14 *205:28 0.00117522
15 *205:26 0.00025283
16 *205:22 0.000642322
17 *205:14 0.00177464
18 *205:10 0.00123399
19 *1836:B1 *1836:A2 2.55176e-05
20 *1836:B1 *528:34 2.05503e-05
21 *1836:B1 *545:29 1.19077e-05
22 *1836:B1 *550:65 9.77007e-05
23 *1866:A2 *242:8 3.22879e-05
24 *1866:A2 *532:20 8.78765e-06
25 *1866:A2 *545:33 5.64492e-05
26 *1894:B1 *1865:A2 1.69977e-05
27 *1894:B1 *518:54 1.85651e-05
28 *1894:B1 *520:18 3.82456e-05
29 *1894:B1 *520:29 6.07611e-06
30 *1894:B1 *524:113 1.69977e-05
31 *1894:B1 *534:122 0.000142505
32 *1894:B1 *540:82 6.45182e-05
33 *1894:B1 *546:142 0.000121324
34 *2009:B1 *394:8 5.87649e-05
35 *2009:B1 *535:69 9.76175e-05
36 *205:10 *1586:A 2.24973e-05
37 *205:10 *1831:B_N 0.000139352
38 *205:10 *491:26 2.3529e-05
39 *205:10 *500:25 0.000221997
40 *205:10 *500:35 1.56762e-05
41 *205:10 *503:10 0.000139357
42 *205:14 *396:10 9.5877e-05
43 *205:22 *326:64 0.000328982
44 *205:22 *435:10 5.50106e-05
45 *205:22 *440:28 0.000170345
46 *205:26 *492:50 0.000127272
47 *205:26 *532:14 4.43717e-05
48 *205:26 *532:16 2.24973e-05
49 *205:28 *326:68 1.05984e-05
50 *205:28 *492:50 0.000184329
51 *205:38 *1919:A2 9.67842e-05
52 *205:38 *1920:A1 2.53809e-05
53 *205:38 *1966:A2 0.000106353
54 *205:38 *1969:A 9.41704e-05
55 *205:38 *1969:C 2.02872e-05
56 *205:38 *298:8 0.000120222
57 *205:38 *326:64 9.5877e-05
58 *205:38 *350:14 0.000276347
59 *205:38 *518:109 0.000102093
60 *205:38 *518:124 1.99109e-05
61 *205:38 *552:116 0.000136738
62 *205:47 *326:68 4.59051e-05
63 *205:47 *326:78 0.000246176
64 *205:47 *492:50 3.14237e-05
65 *205:47 *492:56 7.58917e-05
66 *205:47 *532:20 0.000158414
67 *205:62 *272:18 8.99815e-06
68 *205:62 *540:97 0.000311457
69 *205:64 *272:18 0.000710528
70 *205:64 *540:82 0.000355169
71 *205:64 *540:97 0.000446451
72 *205:64 *546:142 0.000138509
73 *205:91 *1596:C 0.000166956
74 *205:91 *520:44 1.40087e-05
75 *205:91 *534:122 0.000317618
76 *205:91 *542:120 1.40087e-05
77 *205:91 *542:133 0
78 *205:91 *545:21 6.32047e-05
79 *205:91 *546:142 1.4317e-05
80 *1812:A2 *205:10 0.000439564
81 *1966:B1 *205:38 6.11245e-05
82 *2009:A3 *2009:B1 0.000186698
83 *183:20 *205:10 0.000450153
84 *187:10 *205:10 0.000139352
85 *188:28 *1836:B1 0
86 *188:28 *1866:A2 0.000119825
87 *188:63 *205:22 5.12254e-05
88 *188:71 *205:22 2.06822e-05
89 *188:101 *205:26 0.000100615
90 *188:101 *205:28 6.07611e-06
91 *188:119 *2009:B1 0
92 *188:119 *205:14 1.79651e-05
93 *190:27 *1866:A2 1.90303e-05
94 *190:27 *205:47 3.82734e-05
95 *196:8 *205:22 7.97296e-05
96 *196:12 *205:26 1.69668e-05
97 *196:12 *205:28 3.61069e-05
98 *196:12 *205:47 0.000140636
99 *196:14 *205:47 0
100 *196:35 *1836:B1 4.87927e-05
101 *196:35 *205:62 0.00056191
102 *197:16 *2009:B1 7.68515e-05
103 *197:16 *205:14 0.000348905
104 *197:22 *2009:B1 1.14154e-05
105 *197:22 *205:22 8.29905e-05
106 *197:28 *205:22 1.84863e-05
107 *199:89 *205:22 4.96264e-05
*RES
1 *1831:X *205:10 49.2686 
2 *205:10 *205:14 28.9614 
3 *205:14 *205:22 39.715 
4 *205:22 *205:26 18.6664 
5 *205:26 *205:28 2.61 
6 *205:28 *205:38 27.4804 
7 *205:38 *1967:A2 23 
8 *205:28 *205:47 11.5068 
9 *205:47 *1866:A2 40.7136 
10 *205:47 *205:62 9.17227 
11 *205:62 *205:64 2.8896 
12 *205:64 *1894:B1 48.6927 
13 *205:64 *205:91 30.3536 
14 *205:91 *1922:B1 23 
15 *205:62 *1836:B1 47.6571 
16 *205:26 *2049:A2 38 
17 *205:14 *2009:B1 31.2754 
*END

*D_NET *206 0.00153486
*CONN
*I *1836:A2 I *D sky130_fd_sc_hd__a32o_1
*I *1832:X O *D sky130_fd_sc_hd__a22o_1
*CAP
1 *1836:A2 5.55422e-05
2 *1832:X 0.000253197
3 *206:10 0.00030874
4 *1836:A2 *242:8 0.000182353
5 *1836:A2 *528:22 6.17437e-06
6 *1836:A2 *545:29 5.27226e-05
7 *206:10 *492:67 0.000236937
8 *206:10 *529:43 0.000181125
9 *206:10 *550:54 0.000107676
10 *206:10 *550:65 0.000124873
11 *1836:B1 *1836:A2 2.55176e-05
*RES
1 *1832:X *206:10 43.365 
2 *206:10 *1836:A2 40.0455 
*END

*D_NET *207 0.0021096
*CONN
*I *1834:A I *D sky130_fd_sc_hd__inv_2
*I *1859:A I *D sky130_fd_sc_hd__and2_1
*I *1860:A I *D sky130_fd_sc_hd__nor2_1
*I *1833:X O *D sky130_fd_sc_hd__and3_1
*CAP
1 *1834:A 0
2 *1859:A 0
3 *1860:A 0.000109776
4 *1833:X 0.000176193
5 *207:32 0.000155139
6 *207:10 0.000229658
7 *207:6 0.000451214
8 *1860:A *1860:B 0.000109054
9 *1860:A *538:24 0.000226306
10 *207:6 *538:24 1.08955e-05
11 *207:6 *547:82 3.7122e-06
12 *207:10 *538:24 4.56219e-05
13 *207:32 *525:81 0.000190868
14 *207:32 *532:20 0.000351036
15 *1833:C *207:6 8.06804e-06
16 *202:43 *207:32 4.20628e-05
*RES
1 *1833:X *207:6 25.0507 
2 *207:6 *207:10 2.42357 
3 *207:10 *1860:A 26.8736 
4 *207:10 *1859:A 23 
5 *207:6 *207:32 34.7229 
6 *207:32 *1834:A 23 
*END

*D_NET *208 0.00048975
*CONN
*I *1836:A3 I *D sky130_fd_sc_hd__a32o_1
*I *1834:Y O *D sky130_fd_sc_hd__inv_2
*CAP
1 *1836:A3 7.85724e-05
2 *1834:Y 7.85724e-05
3 *1836:A3 *242:8 0.000125927
4 *1836:A3 *545:29 2.31756e-05
5 *188:28 *1836:A3 0.000183502
*RES
1 *1834:Y *1836:A3 49.0657 
*END

*D_NET *209 0.000684279
*CONN
*I *1837:B I *D sky130_fd_sc_hd__or3_1
*I *1835:X O *D sky130_fd_sc_hd__a22o_1
*CAP
1 *1837:B 3.09996e-05
2 *1835:X 0.000186608
3 *209:12 0.000217608
4 *209:12 *518:103 0
5 *209:12 *528:34 9.85955e-05
6 *188:22 *1837:B 4.68153e-05
7 *188:22 *209:12 4.64471e-05
8 *190:14 *1837:B 1.23662e-05
9 *202:62 *209:12 4.48391e-05
*RES
1 *1835:X *209:12 47.6911 
2 *209:12 *1837:B 46.6732 
*END

*D_NET *210 0.00113216
*CONN
*I *1837:C I *D sky130_fd_sc_hd__or3_1
*I *1836:X O *D sky130_fd_sc_hd__a32o_1
*CAP
1 *1837:C 0
2 *1836:X 0.000277062
3 *210:10 0.000277062
4 *210:10 *532:20 3.5752e-05
5 *210:10 *545:29 9.65021e-05
6 *188:22 *210:10 6.40157e-06
7 *190:14 *210:10 0.000193398
8 *202:43 *210:10 0.000153991
9 *202:62 *210:10 2.26406e-05
10 *204:8 *210:10 6.93553e-05
*RES
1 *1836:X *210:10 43.8207 
2 *210:10 *1837:C 38 
*END

*D_NET *211 0.00687645
*CONN
*I *1845:A I *D sky130_fd_sc_hd__or2_1
*I *1837:X O *D sky130_fd_sc_hd__or3_1
*CAP
1 *1845:A 0
2 *1837:X 0.00048073
3 *211:22 0.000763772
4 *211:16 0.0011717
5 *211:10 0.000888658
6 *211:10 *302:14 0.000220177
7 *211:10 *492:67 0.000160182
8 *211:10 *518:103 0.000175426
9 *211:10 *526:92 0.000109266
10 *211:10 *550:65 0.000133316
11 *211:16 *491:32 5.67058e-05
12 *211:16 *497:50 0.000906261
13 *211:22 *1824:A_N 0.000119921
14 *211:22 *279:23 0
15 *211:22 *500:10 1.58805e-05
16 *211:22 *500:25 9.67842e-05
17 *211:22 *503:10 5.50049e-05
18 *211:22 *524:78 0.000839668
19 *211:22 *538:12 0.00011769
20 *182:24 *211:22 0.000218952
21 *191:8 *211:22 4.95339e-05
22 *191:14 *211:22 6.22475e-05
23 *191:59 *211:22 8.94487e-05
24 *197:46 *211:10 8.57765e-05
25 *199:51 *211:10 5.93457e-05
*RES
1 *1837:X *211:10 48.0671 
2 *211:10 *211:16 40.15 
3 *211:16 *211:22 34.3264 
4 *211:22 *1845:A 23 
*END

*D_NET *212 0.00314808
*CONN
*I *1839:B I *D sky130_fd_sc_hd__xnor2_1
*I *1838:Y O *D sky130_fd_sc_hd__nand2_1
*CAP
1 *1839:B 0
2 *1838:Y 0.00014988
3 *212:16 0.000822861
4 *212:8 0.000972741
5 *212:8 *1795:A2 1.32314e-05
6 *212:8 *1838:A 1.24376e-05
7 *212:8 *526:98 5.79042e-05
8 *212:16 *1795:C1 3.14242e-05
9 *212:16 *1803:A 3.56711e-05
10 *212:16 *1839:A 2.93747e-05
11 *212:16 *1842:B 4.39607e-05
12 *212:16 *1844:A2 0
13 *212:16 *1844:B1 0.000354116
14 *212:16 *213:12 9.75779e-05
15 *212:16 *213:27 0.000136738
16 *212:16 *218:14 0.000185428
17 *212:16 *529:63 1.26598e-05
18 *212:16 *544:32 0
19 *212:16 *544:49 0.000192077
20 *1842:A *212:16 0
21 *178:17 *212:16 0
*RES
1 *1838:Y *212:8 40.0507 
2 *212:8 *212:16 32.3171 
3 *212:16 *1839:B 23 
*END

*D_NET *213 0.00224945
*CONN
*I *1840:B I *D sky130_fd_sc_hd__nand2_1
*I *1841:B I *D sky130_fd_sc_hd__xnor2_1
*I *1839:Y O *D sky130_fd_sc_hd__xnor2_1
*CAP
1 *1840:B 0
2 *1841:B 0
3 *1839:Y 0
4 *213:27 0.000362409
5 *213:12 0.000327007
6 *213:4 0.000689416
7 *213:12 *1839:A 5.9511e-05
8 *213:12 *1843:A2 0
9 *213:12 *1844:A1 0
10 *213:12 *215:10 0
11 *213:27 *1843:A2 4.42688e-05
12 *213:27 *1844:A2 5.01247e-05
13 *213:27 *217:10 0.000103528
14 *1843:A1 *213:27 2.4754e-05
15 *1843:B1 *213:27 0.000354116
16 *212:16 *213:12 9.75779e-05
17 *212:16 *213:27 0.000136738
*RES
1 *1839:Y *213:4 23 
2 *213:4 *213:12 35.5929 
3 *213:12 *1841:B 23 
4 *213:4 *213:27 38.265 
5 *213:27 *1840:B 23 
*END

*D_NET *214 0.00115043
*CONN
*I *1851:A1 I *D sky130_fd_sc_hd__a21o_1
*I *1852:A1 I *D sky130_fd_sc_hd__a31oi_1
*I *1840:Y O *D sky130_fd_sc_hd__nand2_1
*CAP
1 *1851:A1 0.000111005
2 *1852:A1 0
3 *1840:Y 0.000259171
4 *214:12 0.000111005
5 *214:10 0.000259171
6 *1851:A1 *1852:A2 3.91386e-05
7 *1851:A1 *216:17 1.94812e-05
8 *1851:A1 *216:32 3.71251e-05
9 *1851:A1 *218:14 1.32939e-05
10 *1851:A1 *224:33 9.84851e-05
11 *214:10 *1840:A 1.94812e-05
12 *214:10 *216:32 1.19796e-05
13 *1843:B1 *214:10 9.24795e-06
14 *192:30 *214:10 9.84851e-05
15 *192:45 *214:10 6.33614e-05
*RES
1 *1840:Y *214:10 41.9564 
2 *214:10 *214:12 15 
3 *214:12 *1852:A1 23 
4 *214:12 *1851:A1 25.9 
*END

*D_NET *215 0.00151027
*CONN
*I *1842:B I *D sky130_fd_sc_hd__or2_1
*I *1843:A2 I *D sky130_fd_sc_hd__a21oi_1
*I *1841:Y O *D sky130_fd_sc_hd__xnor2_1
*CAP
1 *1842:B 0.000207694
2 *1843:A2 0.000113782
3 *1841:Y 0.000134688
4 *215:10 0.000456164
5 *1842:B *1844:B1 6.82416e-05
6 *1843:A2 *1839:A 0.000122386
7 *1843:A2 *1844:A1 0
8 *1843:A2 *217:10 0.000165583
9 *215:10 *1844:A1 0
10 *215:10 *501:35 5.50106e-05
11 *1842:A *1842:B 9.84851e-05
12 *212:16 *1842:B 4.39607e-05
13 *213:12 *1843:A2 0
14 *213:12 *215:10 0
15 *213:27 *1843:A2 4.42688e-05
*RES
1 *1841:Y *215:10 40.175 
2 *215:10 *1843:A2 41.6664 
3 *215:10 *1842:B 41.9564 
*END

*D_NET *216 0.00174212
*CONN
*I *1851:A2 I *D sky130_fd_sc_hd__a21o_1
*I *1852:A2 I *D sky130_fd_sc_hd__a31oi_1
*I *1844:B1 I *D sky130_fd_sc_hd__a22o_1
*I *1842:X O *D sky130_fd_sc_hd__or2_1
*CAP
1 *1851:A2 0
2 *1852:A2 2.32712e-05
3 *1844:B1 0.000138732
4 *1842:X 0
5 *216:32 6.07221e-05
6 *216:17 0.000206467
7 *216:4 0.000261205
8 *1844:B1 *218:14 1.41129e-05
9 *1852:A2 *224:33 0
10 *216:17 *218:14 0.000223704
11 *216:32 *218:14 8.6949e-05
12 *216:32 *224:10 0
13 *216:32 *224:33 1.14452e-05
14 *216:32 *243:14 0
15 *1842:A *1844:B1 0.000185434
16 *1842:B *1844:B1 6.82416e-05
17 *1851:A1 *1852:A2 3.91386e-05
18 *1851:A1 *216:17 1.94812e-05
19 *1851:A1 *216:32 3.71251e-05
20 *192:45 *216:32 0
21 *212:16 *1844:B1 0.000354116
22 *214:10 *216:32 1.19796e-05
*RES
1 *1842:X *216:4 23 
2 *216:4 *1844:B1 27.93 
3 *216:4 *216:17 3.02429 
4 *216:17 *1852:A2 23.8493 
5 *216:17 *216:32 31.9471 
6 *216:32 *1851:A2 23 
*END

*D_NET *217 0.00061382
*CONN
*I *1844:B2 I *D sky130_fd_sc_hd__a22o_1
*I *1843:Y O *D sky130_fd_sc_hd__a21oi_1
*CAP
1 *1844:B2 0
2 *1843:Y 0.000167672
3 *217:10 0.000167672
4 *217:10 *1844:A1 4.21594e-06
5 *217:10 *1844:A2 0
6 *1843:A1 *217:10 5.14746e-06
7 *1843:A2 *217:10 0.000165583
8 *213:27 *217:10 0.000103528
*RES
1 *1843:Y *217:10 41.3557 
2 *217:10 *1844:B2 38 
*END

*D_NET *218 0.00354558
*CONN
*I *1845:B I *D sky130_fd_sc_hd__or2_1
*I *1844:X O *D sky130_fd_sc_hd__a22o_1
*CAP
1 *1845:B 0
2 *1844:X 0.00132275
3 *218:14 0.00132275
4 *218:14 *1876:B 5.50106e-05
5 *218:14 *224:14 2.30292e-05
6 *218:14 *224:33 1.68748e-05
7 *218:14 *225:12 3.58084e-06
8 *218:14 *225:21 2.98648e-05
9 *218:14 *225:33 9.02364e-05
10 *218:14 *250:6 0.000157982
11 *1844:B1 *218:14 1.41129e-05
12 *1851:A1 *218:14 1.32939e-05
13 *212:16 *218:14 0.000185428
14 *216:17 *218:14 0.000223704
15 *216:32 *218:14 8.6949e-05
*RES
1 *1844:X *218:14 44.315 
2 *218:14 *1845:B 23 
*END

*D_NET *219 0.00839903
*CONN
*I *1795:B1 I *D sky130_fd_sc_hd__o211a_1
*I *1793:A I *D sky130_fd_sc_hd__and2_1
*I *1732:A I *D sky130_fd_sc_hd__or2_1
*I *2055:A I *D sky130_fd_sc_hd__clkbuf_4
*I *1585:Y O *D sky130_fd_sc_hd__inv_2
*CAP
1 *1795:B1 0
2 *1793:A 0.000185509
3 *1732:A 0.000221146
4 *2055:A 7.05904e-05
5 *1585:Y 0.000500608
6 *219:57 0.000218127
7 *219:40 0.000689772
8 *219:25 0.0013456
9 *219:10 0.00140951
10 *1732:A *1847:A 1.24376e-05
11 *1732:A *542:109 2.61526e-05
12 *2055:A *516:6 4.9662e-05
13 *219:10 *1590:A 8.91738e-05
14 *219:10 *2086:A 5.3304e-05
15 *219:10 *493:23 0.000114083
16 *219:10 *550:6 9.41704e-05
17 *219:10 *550:21 5.3304e-05
18 *219:10 *550:32 1.24376e-05
19 *219:10 *551:120 0.00018282
20 *219:25 *1590:A 2.64506e-05
21 *219:25 *1847:A 5.3304e-05
22 *219:25 *493:23 0.00106579
23 *219:25 *493:34 0.000167443
24 *219:25 *543:29 0.000105563
25 *219:25 *543:104 0.000378315
26 *219:25 *543:108 0.000332159
27 *219:25 *548:94 4.88351e-05
28 *219:40 *1732:B 0
29 *219:40 *516:108 2.7636e-05
30 *219:40 *516:112 0.000123439
31 *219:40 *543:125 3.47781e-05
32 *219:57 *1795:C1 6.07611e-06
33 *219:57 *1803:A 0
34 *219:57 *544:32 8.93697e-05
35 *1791:B *1793:A 5.25848e-05
36 *107:74 *219:40 0.00032159
37 *107:74 *219:57 3.70187e-05
38 *109:8 *219:40 3.0647e-05
39 *109:12 *1732:A 0.000103637
40 *166:10 *1793:A 9.88574e-06
41 *166:10 *219:57 5.61012e-05
*RES
1 *1585:Y *219:10 45.4157 
2 *219:10 *2055:A 39.0979 
3 *219:10 *219:25 36.1286 
4 *219:25 *1732:A 26.5007 
5 *219:25 *219:40 36.1314 
6 *219:40 *1793:A 26.0243 
7 *219:40 *219:57 34.7643 
8 *219:57 *1795:B1 23 
*END

*D_NET *220 0.000792994
*CONN
*I *1847:B I *D sky130_fd_sc_hd__xnor2_1
*I *1846:X O *D sky130_fd_sc_hd__o21a_1
*CAP
1 *1847:B 5.50032e-05
2 *1846:X 6.96252e-05
3 *220:8 0.000124628
4 *1847:B *1847:A 6.17437e-06
5 *1847:B *542:109 0.000139346
6 *1847:B *543:108 7.15126e-05
7 *220:8 *516:108 0.000163352
8 *220:8 *544:32 0.000163352
*RES
1 *1846:X *220:8 40.2579 
2 *220:8 *1847:B 39.5743 
*END

*D_NET *221 0.00312661
*CONN
*I *1849:B I *D sky130_fd_sc_hd__nand2_1
*I *1848:B I *D sky130_fd_sc_hd__or2_1
*I *1847:Y O *D sky130_fd_sc_hd__xnor2_1
*CAP
1 *1849:B 0
2 *1848:B 9.3478e-05
3 *1847:Y 0.000268174
4 *221:12 0.000850177
5 *221:8 0.00102487
6 *1848:B *1849:A 5.50049e-05
7 *1848:B *223:10 5.50049e-05
8 *1848:B *524:78 0
9 *221:8 *542:109 0.000351519
10 *221:12 *243:14 0
11 *221:12 *493:34 0.000203108
12 *221:12 *493:55 4.16732e-05
13 *221:12 *544:32 0
14 *1843:B1 *1848:B 0
15 *192:30 *1848:B 3.17634e-05
16 *192:58 *221:12 0.000151836
*RES
1 *1847:Y *221:8 41.9564 
2 *221:8 *221:12 30.9914 
3 *221:12 *1848:B 25.0714 
4 *221:12 *1849:B 23 
*END

*D_NET *222 0.00103722
*CONN
*I *1850:A I *D sky130_fd_sc_hd__nand2_1
*I *1848:X O *D sky130_fd_sc_hd__or2_1
*CAP
1 *1850:A 1.9139e-05
2 *1848:X 0.000172642
3 *222:8 0.000191781
4 *1850:A *1850:B 5.3304e-05
5 *1850:A *326:18 5.50049e-05
6 *222:8 *1850:B 0.000160843
7 *222:8 *223:14 0.000165593
8 *222:8 *243:14 4.94766e-06
9 *222:8 *248:20 0.000165593
10 *222:8 *506:12 4.83727e-05
*RES
1 *1848:X *222:8 42.7229 
2 *222:8 *1850:A 38.6214 
*END

*D_NET *223 0.00220702
*CONN
*I *1874:A I *D sky130_fd_sc_hd__and3_1
*I *1850:B I *D sky130_fd_sc_hd__nand2_1
*I *1875:A1 I *D sky130_fd_sc_hd__a21o_1
*I *1849:Y O *D sky130_fd_sc_hd__nand2_1
*CAP
1 *1874:A 2.92092e-05
2 *1850:B 0.000241531
3 *1875:A1 0
4 *1849:Y 0.000146635
5 *223:14 0.000384787
6 *223:10 0.0003191
7 *1850:B *224:10 5.50049e-05
8 *1850:B *243:14 6.88571e-05
9 *1850:B *274:20 1.75562e-05
10 *1850:B *326:18 4.64105e-05
11 *1874:A *248:12 8.52481e-05
12 *1874:A *524:78 5.12254e-05
13 *223:10 *1849:A 6.91235e-05
14 *223:10 *248:12 5.50106e-05
15 *223:10 *524:78 2.18409e-05
16 *223:14 *243:14 0.00013118
17 *223:14 *248:20 4.95545e-05
18 *1848:B *223:10 5.50049e-05
19 *1850:A *1850:B 5.3304e-05
20 *222:8 *1850:B 0.000160843
21 *222:8 *223:14 0.000165593
*RES
1 *1849:Y *223:10 25.6929 
2 *223:10 *223:14 18.6664 
3 *223:14 *1875:A1 38 
4 *223:14 *1850:B 42.9507 
5 *223:10 *1874:A 24.0979 
*END

*D_NET *224 0.0013616
*CONN
*I *1852:A3 I *D sky130_fd_sc_hd__a31oi_1
*I *1851:B1 I *D sky130_fd_sc_hd__a21o_1
*I *1850:Y O *D sky130_fd_sc_hd__nand2_1
*CAP
1 *1852:A3 0
2 *1851:B1 0
3 *1850:Y 0.000245078
4 *224:33 0.000184425
5 *224:14 0.000200749
6 *224:10 0.000261402
7 *224:10 *225:12 8.25811e-05
8 *224:10 *243:14 8.87577e-05
9 *224:10 *326:18 2.45032e-05
10 *224:14 *225:12 2.18409e-05
11 *224:33 *225:12 1.32314e-05
12 *224:33 *225:21 2.99723e-05
13 *224:33 *226:8 4.21594e-06
14 *224:33 *544:49 0
15 *1850:B *224:10 5.50049e-05
16 *1851:A1 *224:33 9.84851e-05
17 *1852:A2 *224:33 0
18 *192:45 *224:33 0
19 *216:32 *224:10 0
20 *216:32 *224:33 1.14452e-05
21 *218:14 *224:14 2.30292e-05
22 *218:14 *224:33 1.68748e-05
*RES
1 *1850:Y *224:10 41.9564 
2 *224:10 *224:14 15.6214 
3 *224:14 *1851:B1 23 
4 *224:14 *224:33 34.0393 
5 *224:33 *1852:A3 23 
*END

*D_NET *225 0.00155957
*CONN
*I *1875:A2 I *D sky130_fd_sc_hd__a21o_1
*I *1874:B I *D sky130_fd_sc_hd__and3_1
*I *1868:A1 I *D sky130_fd_sc_hd__a21o_1
*I *1851:X O *D sky130_fd_sc_hd__a21o_1
*CAP
1 *1875:A2 0
2 *1874:B 0
3 *1868:A1 0
4 *1851:X 0
5 *225:33 0.00024819
6 *225:21 0.000328659
7 *225:12 0.000150366
8 *225:4 0.000230835
9 *225:12 *226:8 0
10 *225:33 *248:20 0.000138718
11 *225:33 *506:12 0.000136486
12 *192:28 *225:33 5.50049e-05
13 *218:14 *225:12 3.58084e-06
14 *218:14 *225:21 2.98648e-05
15 *218:14 *225:33 9.02364e-05
16 *224:10 *225:12 8.25811e-05
17 *224:14 *225:12 2.18409e-05
18 *224:33 *225:12 1.32314e-05
19 *224:33 *225:21 2.99723e-05
*RES
1 *1851:X *225:4 23 
2 *225:4 *225:12 32.2993 
3 *225:12 *1868:A1 23 
4 *225:4 *225:21 1.94714 
5 *225:21 *225:33 35.075 
6 *225:33 *1874:B 23 
7 *225:21 *1875:A2 23 
*END

*D_NET *226 0.000777796
*CONN
*I *1868:A2 I *D sky130_fd_sc_hd__a21o_1
*I *1852:Y O *D sky130_fd_sc_hd__a31oi_1
*CAP
1 *1868:A2 0.00011018
2 *1852:Y 0.000114218
3 *226:8 0.000224398
4 *1868:A2 *326:18 0.000272383
5 *226:8 *501:8 1.40183e-05
6 *226:8 *501:20 1.91026e-05
7 *226:8 *544:49 1.92797e-05
8 *224:33 *226:8 4.21594e-06
9 *225:12 *226:8 0
*RES
1 *1852:Y *226:8 39.9057 
2 *226:8 *1868:A2 41.0036 
*END

*D_NET *227 0.00142167
*CONN
*I *1857:D I *D sky130_fd_sc_hd__and4b_1
*I *1854:A I *D sky130_fd_sc_hd__inv_2
*I *1853:X O *D sky130_fd_sc_hd__a21o_1
*CAP
1 *1857:D 0.000252467
2 *1854:A 0
3 *1853:X 4.9965e-05
4 *227:12 0.000263871
5 *227:8 6.13687e-05
6 *1857:D *1856:A1_N 0.000184684
7 *1857:D *1856:A2_N 0.000210892
8 *1857:D *1856:B1 4.97504e-05
9 *1857:D *1856:B2 1.41077e-05
10 *1857:D *229:21 0.000103839
11 *227:8 *1853:A1 0.000141879
12 *227:8 *492:73 7.28526e-05
13 *227:12 *1856:B1 1.59912e-05
*RES
1 *1853:X *227:8 39.9057 
2 *227:8 *227:12 15.1864 
3 *227:12 *1854:A 23 
4 *227:12 *1857:D 28.857 
*END

*D_NET *228 0.000194743
*CONN
*I *1856:B1 I *D sky130_fd_sc_hd__o2bb2a_1
*I *1854:Y O *D sky130_fd_sc_hd__inv_2
*CAP
1 *1856:B1 6.45006e-05
2 *1854:Y 6.45006e-05
3 *1857:D *1856:B1 4.97504e-05
4 *227:12 *1856:B1 1.59912e-05
*RES
1 *1854:Y *1856:B1 47.0979 
*END

*D_NET *229 0.00177502
*CONN
*I *1877:A I *D sky130_fd_sc_hd__nor2_1
*I *1857:A_N I *D sky130_fd_sc_hd__and4b_1
*I *1856:B2 I *D sky130_fd_sc_hd__o2bb2a_1
*I *1855:X O *D sky130_fd_sc_hd__and3_1
*CAP
1 *1877:A 2.36207e-05
2 *1857:A_N 0
3 *1856:B2 4.91203e-05
4 *1855:X 5.74018e-05
5 *229:21 0.000286917
6 *229:10 0.000312416
7 *229:8 5.74018e-05
8 *1877:A *1856:A1_N 0
9 *1877:A *1877:B 7.69576e-05
10 *1877:A *527:109 2.4754e-05
11 *229:8 *1855:B 8.4047e-05
12 *229:8 *529:31 4.08641e-05
13 *229:21 *1856:A1_N 0.000238362
14 *229:21 *1877:B 0.000255642
15 *229:21 *232:6 5.50106e-05
16 *229:21 *527:109 9.45591e-05
17 *1857:D *1856:B2 1.41077e-05
18 *1857:D *229:21 0.000103839
*RES
1 *1855:X *229:8 39.2014 
2 *229:8 *229:10 15 
3 *229:10 *1856:B2 23.6214 
4 *229:10 *229:21 7.18786 
5 *229:21 *1857:A_N 23 
6 *229:21 *1877:A 24.1186 
*END

*D_NET *230 0.00262884
*CONN
*I *1813:C I *D sky130_fd_sc_hd__and4b_2
*I *1812:B1 I *D sky130_fd_sc_hd__o2111a_1
*I *1822:B I *D sky130_fd_sc_hd__and4b_2
*I *1820:A I *D sky130_fd_sc_hd__nor3_1
*I *1586:Y O *D sky130_fd_sc_hd__inv_2
*CAP
1 *1813:C 1.8352e-05
2 *1812:B1 0.000202349
3 *1822:B 0
4 *1820:A 0
5 *1586:Y 4.38931e-05
6 *230:19 0.000283637
7 *230:13 0.000203093
8 *230:6 0.000147346
9 *1812:B1 *1812:D1 9.84794e-05
10 *1812:B1 *1831:B_N 5.3304e-05
11 *1812:B1 *500:35 3.88894e-05
12 *1812:B1 *500:85 4.67488e-05
13 *1813:C *491:55 5.3304e-05
14 *230:6 *1586:A 5.3304e-05
15 *230:6 *489:41 2.4754e-05
16 *230:6 *491:49 4.67488e-05
17 *230:13 *489:41 6.67283e-05
18 *230:13 *491:49 2.93845e-05
19 *230:13 *491:55 0.000223687
20 *230:19 *500:85 0.000188926
21 *230:19 *530:19 0.000191157
22 *1815:A *1813:C 4.17736e-05
23 *1815:A *230:13 9.5877e-05
24 *1820:C *230:13 0.000141954
25 *1821:C *1812:B1 9.84851e-05
26 *187:10 *1812:B1 0.0002246
27 *191:72 *1812:B1 1.20706e-05
*RES
1 *1586:Y *230:6 24.0979 
2 *230:6 *1820:A 23 
3 *230:6 *230:13 3.95643 
4 *230:13 *230:19 32.61 
5 *230:19 *1822:B 23 
6 *230:19 *1812:B1 28.2821 
7 *230:13 *1813:C 23.6214 
*END

*D_NET *231 0.000443936
*CONN
*I *1858:A I *D sky130_fd_sc_hd__nor2_1
*I *1856:X O *D sky130_fd_sc_hd__o2bb2a_1
*CAP
1 *1858:A 0
2 *1856:X 5.32145e-05
3 *231:8 5.32145e-05
4 *231:8 *525:81 0.000168754
5 *202:21 *231:8 0.000168754
*RES
1 *1856:X *231:8 40.2579 
2 *231:8 *1858:A 38 
*END

*D_NET *232 0.00151674
*CONN
*I *1877:B I *D sky130_fd_sc_hd__nor2_1
*I *1858:B I *D sky130_fd_sc_hd__nor2_1
*I *1857:X O *D sky130_fd_sc_hd__and4b_1
*CAP
1 *1877:B 0.000247557
2 *1858:B 0
3 *1857:X 3.68078e-05
4 *232:12 6.37801e-05
5 *232:6 0.000348145
6 *1877:B *253:10 1.24376e-05
7 *1877:B *527:109 3.17516e-05
8 *232:12 *525:81 0.000194327
9 *232:12 *532:20 0.000194327
10 *1877:A *1877:B 7.69576e-05
11 *229:21 *1877:B 0.000255642
12 *229:21 *232:6 5.50106e-05
*RES
1 *1857:X *232:6 23.6214 
2 *232:6 *232:12 32.61 
3 *232:12 *1858:B 23 
4 *232:6 *1877:B 28.2821 
*END

*D_NET *233 0.00132725
*CONN
*I *1860:B I *D sky130_fd_sc_hd__nor2_1
*I *1859:B I *D sky130_fd_sc_hd__and2_1
*I *1858:Y O *D sky130_fd_sc_hd__nor2_1
*CAP
1 *1860:B 0.000106752
2 *1859:B 0
3 *1858:Y 0.000352832
4 *233:12 0.000106752
5 *233:10 0.000352832
6 *1860:B *234:10 0.000141052
7 *1860:B *538:24 2.98648e-05
8 *233:10 *237:21 0
9 *233:10 *542:139 6.47464e-05
10 *233:10 *545:33 6.33614e-05
11 *1860:A *1860:B 0.000109054
*RES
1 *1858:Y *233:10 42.9093 
2 *233:10 *233:12 15 
3 *233:12 *1859:B 23 
4 *233:12 *1860:B 26.5214 
*END

*D_NET *234 0.0041729
*CONN
*I *1861:A I *D sky130_fd_sc_hd__nor2_1
*I *1890:A I *D sky130_fd_sc_hd__nand2_1
*I *1889:A I *D sky130_fd_sc_hd__and2_1
*I *1891:A1 I *D sky130_fd_sc_hd__o21a_1
*I *1859:X O *D sky130_fd_sc_hd__and2_1
*CAP
1 *1861:A 0
2 *1890:A 3.92153e-05
3 *1889:A 0.0001739
4 *1891:A1 0
5 *1859:X 0.000393253
6 *234:27 0.000432611
7 *234:16 0.00045216
8 *234:12 0.000232665
9 *234:10 0.000393253
10 *1889:A *1890:B 0.000129251
11 *1889:A *267:6 5.50106e-05
12 *1889:A *526:62 3.58084e-06
13 *1890:A *265:17 0
14 *1890:A *534:145 5.01986e-05
15 *234:10 *238:10 3.70187e-05
16 *234:10 *497:68 6.16531e-05
17 *234:10 *524:25 4.06512e-05
18 *234:10 *535:16 2.62753e-05
19 *234:10 *535:22 0.000100195
20 *234:10 *538:24 7.74139e-05
21 *234:16 *269:10 0.000317553
22 *234:16 *497:68 5.3304e-05
23 *234:16 *540:97 0.000139352
24 *234:16 *540:110 0.000289233
25 *234:27 *1891:A2 8.56254e-05
26 *234:27 *265:17 0
27 *234:27 *269:10 8.52481e-05
28 *234:27 *534:145 0.000169683
29 *234:27 *540:110 9.47033e-05
30 *1860:B *234:10 0.000141052
31 *1892:B1 *234:16 4.21378e-05
32 *196:54 *234:16 5.67058e-05
*RES
1 *1859:X *234:10 45.5193 
2 *234:10 *234:12 15 
3 *234:12 *234:16 7.78857 
4 *234:16 *1891:A1 23 
5 *234:16 *234:27 20.2614 
6 *234:27 *1889:A 41.5214 
7 *234:27 *1890:A 38.8493 
8 *234:12 *1861:A 23 
*END

*D_NET *235 0.000992743
*CONN
*I *1861:B I *D sky130_fd_sc_hd__nor2_1
*I *1860:Y O *D sky130_fd_sc_hd__nor2_1
*CAP
1 *1861:B 7.08573e-05
2 *1860:Y 7.16319e-05
3 *235:8 0.000142489
4 *1861:B *2052:A 5.3304e-05
5 *1861:B *238:10 0.000139352
6 *1861:B *497:68 1.56762e-05
7 *235:8 *237:21 0.000114083
8 *235:8 *490:27 0.000163352
9 *235:8 *545:33 0
10 *1892:B1 *1861:B 0.000221997
*RES
1 *1860:Y *235:8 40.2579 
2 *235:8 *1861:B 40.5271 
*END

*D_NET *236 0.0010481
*CONN
*I *1866:B1 I *D sky130_fd_sc_hd__a221o_1
*I *1861:Y O *D sky130_fd_sc_hd__nor2_1
*CAP
1 *1866:B1 0.000141467
2 *1861:Y 0.000140102
3 *236:10 0.000281569
4 *1866:B1 *1866:C1 5.50049e-05
5 *236:10 *535:16 0.000110373
6 *236:10 *563:14 1.01436e-05
7 *236:10 *563:69 0.000110373
8 *1866:B2 *1866:B1 3.01297e-05
9 *1892:B1 *236:10 9.58714e-05
10 *188:28 *1866:B1 7.30663e-05
*RES
1 *1861:Y *236:10 40.6514 
2 *236:10 *1866:B1 40.5271 
*END

*D_NET *237 0.00332624
*CONN
*I *1863:B I *D sky130_fd_sc_hd__and2b_1
*I *1909:A I *D sky130_fd_sc_hd__xnor2_2
*I *1862:Y O *D sky130_fd_sc_hd__nand2_1
*CAP
1 *1863:B 0
2 *1909:A 0.000183077
3 *1862:Y 0
4 *237:21 0.000670338
5 *237:6 0.000853415
6 *1909:A *490:27 0.000147391
7 *1909:A *523:16 0
8 *1909:A *545:54 6.16531e-05
9 *1909:A *567:10 3.92407e-05
10 *237:21 *2052:A 5.3304e-05
11 *237:21 *254:12 0.000168754
12 *237:21 *490:27 0.000343206
13 *237:21 *542:139 0.000191148
14 *237:21 *545:33 0
15 *237:21 *545:37 0
16 *237:21 *545:54 0.000500632
17 *233:10 *237:21 0
18 *235:8 *237:21 0.000114083
*RES
1 *1862:Y *237:6 38 
2 *237:6 *1909:A 42.0186 
3 *237:6 *237:21 31.2607 
4 *237:21 *1863:B 23 
*END

*D_NET *238 0.00099224
*CONN
*I *1864:B2 I *D sky130_fd_sc_hd__o22a_1
*I *1863:X O *D sky130_fd_sc_hd__and2b_1
*CAP
1 *1864:B2 0
2 *1863:X 0.00015887
3 *238:10 0.00015887
4 *238:10 *497:68 0.000265794
5 *238:10 *535:16 0.000212049
6 *1861:B *238:10 0.000139352
7 *1892:B1 *238:10 2.02872e-05
8 *234:10 *238:10 3.70187e-05
*RES
1 *1863:X *238:10 43.0129 
2 *238:10 *1864:B2 38 
*END

*D_NET *239 0.000140026
*CONN
*I *1866:C1 I *D sky130_fd_sc_hd__a221o_1
*I *1864:X O *D sky130_fd_sc_hd__o22a_1
*CAP
1 *1866:C1 1.50079e-05
2 *1864:X 1.50079e-05
3 *1866:B1 *1866:C1 5.50049e-05
4 *188:28 *1866:C1 5.50049e-05
*RES
1 *1864:X *1866:C1 46.6214 
*END

*D_NET *240 0.000483588
*CONN
*I *1867:B1 I *D sky130_fd_sc_hd__a211o_1
*I *1865:X O *D sky130_fd_sc_hd__a32o_1
*CAP
1 *1867:B1 0
2 *1865:X 0.000144104
3 *240:10 0.000144104
4 *240:10 *243:14 8.62876e-05
5 *240:10 *475:102 3.36034e-05
6 *240:10 *552:10 7.54888e-05
*RES
1 *1865:X *240:10 40.8793 
2 *240:10 *1867:B1 38 
*END

*D_NET *241 0.0108343
*CONN
*I *2026:A I *D sky130_fd_sc_hd__or4b_1
*I *1663:B I *D sky130_fd_sc_hd__nor2_4
*I *1677:B1 I *D sky130_fd_sc_hd__a21o_1
*I *1664:B I *D sky130_fd_sc_hd__nand2_1
*I *1587:Y O *D sky130_fd_sc_hd__inv_2
*CAP
1 *2026:A 0
2 *1663:B 0.000326816
3 *1677:B1 9.06221e-05
4 *1664:B 0.000156259
5 *1587:Y 0.000206955
6 *241:39 0.000917527
7 *241:28 0.000656347
8 *241:26 0.00103543
9 *241:16 0.00111529
10 *241:8 0.00028681
11 *1663:B *542:84 0.000152035
12 *1663:B *546:119 6.97747e-05
13 *1663:B *565:52 4.9809e-06
14 *1664:B *493:10 0
15 *1664:B *546:73 0.000139639
16 *1677:B1 *1677:A1 6.17437e-06
17 *1677:B1 *471:20 6.70361e-05
18 *241:8 *475:83 0.000539864
19 *241:8 *475:102 1.01436e-05
20 *241:8 *494:32 0.000102921
21 *241:8 *515:88 0.000180863
22 *241:16 *1644:S 1.32314e-05
23 *241:16 *477:8 1.56762e-05
24 *241:26 *1660:A2 0.000102093
25 *241:26 *475:68 3.81486e-05
26 *241:26 *475:81 0.000391682
27 *241:26 *477:8 5.3304e-05
28 *241:26 *517:14 7.56417e-05
29 *241:26 *517:25 9.04083e-05
30 *241:26 *517:108 0.000123428
31 *241:39 *1670:A1 0.000191157
32 *241:39 *479:10 0.000139647
33 *241:39 *479:12 8.62783e-05
34 *241:39 *542:84 0.000585981
35 *241:39 *546:73 7.09173e-05
36 *241:39 *546:119 2.24048e-05
37 *1670:B1 *241:39 0.000191157
38 *1676:B *1663:B 0.000265445
39 *31:19 *241:26 0.000136486
40 *35:6 *241:26 0.000784552
41 *37:12 *1663:B 0.000191596
42 *43:12 *1677:B1 0.000178517
43 *44:10 *1663:B 6.16531e-05
44 *44:10 *241:39 0.000833543
45 *45:48 *241:39 0
46 *45:56 *1663:B 2.87723e-05
47 *45:68 *1663:B 9.12699e-05
48 *64:10 *1663:B 5.79413e-06
*RES
1 *1587:Y *241:8 45.1879 
2 *241:8 *241:16 16.6157 
3 *241:16 *241:26 49.6164 
4 *241:26 *241:28 15 
5 *241:28 *1664:B 41.6664 
6 *241:28 *241:39 15.9914 
7 *241:39 *1677:B1 40.0507 
8 *241:39 *1663:B 46.1821 
9 *241:16 *2026:A 23 
*END

*D_NET *242 0.00537515
*CONN
*I *1867:C1 I *D sky130_fd_sc_hd__a211o_1
*I *1866:X O *D sky130_fd_sc_hd__a221o_1
*CAP
1 *1867:C1 0.000388415
2 *1866:X 0.00194039
3 *242:8 0.0023288
4 *1867:C1 *1867:A1 5.65874e-05
5 *1867:C1 *1896:A1 6.53382e-05
6 *242:8 *337:16 9.5877e-05
7 *242:8 *528:22 2.43944e-05
8 *242:8 *545:29 6.88299e-05
9 *1836:A2 *242:8 0.000182353
10 *1836:A3 *242:8 0.000125927
11 *1866:A2 *242:8 3.22879e-05
12 *188:28 *242:8 6.5949e-05
*RES
1 *1866:X *242:8 47.94 
2 *242:8 *1867:C1 29.3593 
*END

*D_NET *243 0.00558999
*CONN
*I *1868:B1 I *D sky130_fd_sc_hd__a21o_1
*I *1867:X O *D sky130_fd_sc_hd__a211o_1
*CAP
1 *1868:B1 0
2 *1867:X 0.000164979
3 *243:14 0.00134971
4 *243:8 0.00151469
5 *243:8 *1867:A1 2.93845e-05
6 *243:8 *1867:A2 2.98648e-05
7 *243:8 *294:24 5.61255e-06
8 *243:8 *543:23 6.17437e-06
9 *243:14 *245:8 0
10 *243:14 *246:10 0.000168754
11 *243:14 *248:8 0.000500129
12 *243:14 *274:20 0
13 *243:14 *326:18 5.50049e-05
14 *243:14 *475:102 0.000324733
15 *243:14 *493:34 0
16 *243:14 *551:126 0.00023335
17 *243:14 *552:10 0.000281928
18 *1850:B *243:14 6.88571e-05
19 *192:58 *243:14 0.000525702
20 *192:64 *243:14 1.99391e-05
21 *216:32 *243:14 0
22 *221:12 *243:14 0
23 *222:8 *243:14 4.94766e-06
24 *223:14 *243:14 0.00013118
25 *224:10 *243:14 8.87577e-05
26 *240:10 *243:14 8.62876e-05
*RES
1 *1867:X *243:8 40.0507 
2 *243:8 *243:14 48.5157 
3 *243:14 *1868:B1 23 
*END

*D_NET *244 0.000183651
*CONN
*I *1870:B I *D sky130_fd_sc_hd__xnor2_1
*I *1869:X O *D sky130_fd_sc_hd__o31a_1
*CAP
1 *1870:B 4.2583e-05
2 *1869:X 4.2583e-05
3 *1870:B *542:109 9.84851e-05
*RES
1 *1869:X *1870:B 47.0979 
*END

*D_NET *245 0.000875786
*CONN
*I *1872:B I *D sky130_fd_sc_hd__nand2_1
*I *1871:B I *D sky130_fd_sc_hd__or2_1
*I *1870:Y O *D sky130_fd_sc_hd__xnor2_1
*CAP
1 *1872:B 4.20345e-05
2 *1871:B 0
3 *1870:Y 0.000183977
4 *245:10 4.20345e-05
5 *245:8 0.000183977
6 *1872:B *1871:A 3.23684e-05
7 *1872:B *520:44 1.37232e-05
8 *245:8 *274:20 0.000322892
9 *245:8 *552:10 2.54046e-05
10 *191:22 *1872:B 2.93747e-05
11 *243:14 *245:8 0
*RES
1 *1870:Y *245:8 42.3707 
2 *245:8 *245:10 15 
3 *245:10 *1871:B 23 
4 *245:10 *1872:B 24.1186 
*END

*D_NET *246 0.000498384
*CONN
*I *1873:A I *D sky130_fd_sc_hd__nand2_1
*I *1871:X O *D sky130_fd_sc_hd__or2_1
*CAP
1 *1873:A 0
2 *1871:X 0.00013074
3 *246:10 0.00013074
4 *246:10 *274:20 0
5 *191:22 *246:10 5.67058e-05
6 *192:64 *246:10 1.14452e-05
7 *243:14 *246:10 0.000168754
*RES
1 *1871:X *246:10 40.8793 
2 *246:10 *1873:A 38 
*END

*D_NET *247 0.00198612
*CONN
*I *1902:A1 I *D sky130_fd_sc_hd__a21oi_1
*I *1901:A I *D sky130_fd_sc_hd__and3_1
*I *1873:B I *D sky130_fd_sc_hd__nand2_1
*I *1872:Y O *D sky130_fd_sc_hd__nand2_1
*CAP
1 *1902:A1 2.84321e-05
2 *1901:A 0
3 *1873:B 0.000283912
4 *1872:Y 0.00017581
5 *247:25 7.74835e-05
6 *247:14 0.000356446
7 *247:10 0.000199292
8 *1873:B *303:12 5.3304e-05
9 *1873:B *526:98 0.000207842
10 *1902:A1 *1902:B1 9.75779e-05
11 *1902:A1 *526:98 4.5051e-05
12 *247:10 *277:8 7.461e-05
13 *247:10 *303:12 0.00015795
14 *247:14 *1902:B1 0
15 *247:25 *1901:C 6.25657e-05
16 *247:25 *1902:B1 4.2573e-05
17 *247:25 *526:98 6.82611e-05
18 *191:22 *247:10 5.50106e-05
*RES
1 *1872:Y *247:10 40.8793 
2 *247:10 *247:14 15.4971 
3 *247:14 *1873:B 28.4064 
4 *247:14 *247:25 1.57429 
5 *247:25 *1901:A 23 
6 *247:25 *1902:A1 24.0979 
*END

*D_NET *248 0.00250066
*CONN
*I *1874:C I *D sky130_fd_sc_hd__and3_1
*I *1875:B1 I *D sky130_fd_sc_hd__a21o_1
*I *1873:Y O *D sky130_fd_sc_hd__nand2_1
*CAP
1 *1874:C 4.74558e-05
2 *1875:B1 0
3 *1873:Y 0.000279976
4 *248:20 0.000193957
5 *248:12 0.000374142
6 *248:8 0.000412705
7 *1874:C *524:78 2.15906e-05
8 *248:8 *506:12 0
9 *248:12 *524:78 1.5769e-05
10 *248:20 *506:12 7.45381e-05
11 *1874:A *248:12 8.52481e-05
12 *192:64 *248:8 8.62783e-05
13 *222:8 *248:20 0.000165593
14 *223:10 *248:12 5.50106e-05
15 *223:14 *248:20 4.95545e-05
16 *225:33 *248:20 0.000138718
17 *243:14 *248:8 0.000500129
*RES
1 *1873:Y *248:8 44.8357 
2 *248:8 *248:12 17.0507 
3 *248:12 *248:20 34.64 
4 *248:20 *1875:B1 23 
5 *248:12 *1874:C 23.7043 
*END

*D_NET *249 0.000357227
*CONN
*I *1876:B I *D sky130_fd_sc_hd__or3b_1
*I *1874:X O *D sky130_fd_sc_hd__and3_1
*CAP
1 *1876:B 4.24857e-05
2 *1874:X 4.50565e-05
3 *249:8 8.75422e-05
4 *249:8 *274:20 8.62783e-05
5 *192:75 *249:8 4.08537e-05
6 *218:14 *1876:B 5.50106e-05
*RES
1 *1874:X *249:8 39.2014 
2 *249:8 *1876:B 38.6214 
*END

*D_NET *250 0.00244821
*CONN
*I *1876:C_N I *D sky130_fd_sc_hd__or3b_1
*I *1902:A2 I *D sky130_fd_sc_hd__a21oi_1
*I *1901:B I *D sky130_fd_sc_hd__and3_1
*I *1875:X O *D sky130_fd_sc_hd__a21o_1
*CAP
1 *1876:C_N 0
2 *1902:A2 0
3 *1901:B 0.000169902
4 *1875:X 0.000172179
5 *250:10 0.000849874
6 *250:6 0.000852151
7 *1901:B *1925:A3 0.000139352
8 *1901:B *1955:A2 0
9 *1901:B *277:8 4.08641e-05
10 *250:10 *1955:A2 0
11 *250:10 *274:20 0
12 *250:10 *277:8 2.3529e-05
13 *192:75 *250:10 4.23817e-05
14 *218:14 *250:6 0.000157982
*RES
1 *1875:X *250:6 26.48 
2 *250:6 *250:10 26.4136 
3 *250:10 *1901:B 40.7757 
4 *250:10 *1902:A2 38 
5 *250:6 *1876:C_N 23 
*END

*D_NET *251 0.00209004
*CONN
*I *2026:B I *D sky130_fd_sc_hd__or4b_1
*I *1660:A1 I *D sky130_fd_sc_hd__o211ai_2
*I *1588:Y O *D sky130_fd_sc_hd__inv_2
*CAP
1 *2026:B 0
2 *1660:A1 0
3 *1588:Y 8.29389e-05
4 *251:25 6.80112e-05
5 *251:14 0.000339878
6 *251:6 0.000490828
7 *251:6 *517:29 2.93845e-05
8 *251:14 *446:10 1.37246e-05
9 *251:14 *493:23 0.000343045
10 *251:14 *551:25 0.000160182
11 *251:14 *551:107 0.000222113
12 *251:25 *446:10 0.000114656
13 *251:25 *517:25 6.48142e-05
14 *251:25 *517:108 0.00016046
*RES
1 *1588:Y *251:6 24.0979 
2 *251:6 *251:14 37.1257 
3 *251:14 *1660:A1 23 
4 *251:6 *251:25 32.9621 
5 *251:25 *2026:B 23 
*END

*D_NET *252 0.000435006
*CONN
*I *1897:B I *D sky130_fd_sc_hd__nand2b_1
*I *1876:X O *D sky130_fd_sc_hd__or3b_1
*CAP
1 *1897:B 5.62361e-06
2 *1876:X 7.84996e-05
3 *252:8 8.41232e-05
4 *1897:B *274:20 1.28818e-05
5 *1897:B *326:18 1.28818e-05
6 *252:8 *274:20 0.000108179
7 *252:8 *506:12 0.000132817
*RES
1 *1876:X *252:8 39.9057 
2 *252:8 *1897:B 38.1502 
*END

*D_NET *253 0.00218168
*CONN
*I *1884:A_N I *D sky130_fd_sc_hd__and2b_1
*I *1885:A I *D sky130_fd_sc_hd__xnor2_1
*I *1877:Y O *D sky130_fd_sc_hd__nor2_1
*CAP
1 *1884:A_N 0.000102091
2 *1885:A 0
3 *1877:Y 0.000719441
4 *253:12 0.000102091
5 *253:10 0.000719441
6 *1884:A_N *1884:B 0.000128401
7 *253:10 *259:10 0.000138727
8 *253:10 *527:109 7.44161e-06
9 *253:10 *537:69 0
10 *253:10 *542:143 0.000251614
11 *253:10 *566:31 0
12 *1877:B *253:10 1.24376e-05
*RES
1 *1877:Y *253:10 48.5021 
2 *253:10 *253:12 15 
3 *253:12 *1885:A 23 
4 *253:12 *1884:A_N 25.5271 
*END

*D_NET *254 0.00118929
*CONN
*I *1883:A I *D sky130_fd_sc_hd__xnor2_1
*I *1906:A1 I *D sky130_fd_sc_hd__o21ba_1
*I *1878:Y O *D sky130_fd_sc_hd__nand2_1
*CAP
1 *1883:A 0.000200094
2 *1906:A1 0
3 *1878:Y 0
4 *254:12 0.000150594
5 *254:4 0.000350688
6 *1883:A *527:51 0.000136743
7 *254:12 *1878:A 1.59094e-05
8 *254:12 *490:27 0.000166513
9 *237:21 *254:12 0.000168754
*RES
1 *1878:Y *254:4 23 
2 *254:4 *254:12 33.3557 
3 *254:12 *1906:A1 23 
4 *254:4 *1883:A 27.1636 
*END

*D_NET *255 0.000943466
*CONN
*I *1908:A2 I *D sky130_fd_sc_hd__a21oi_2
*I *1879:Y O *D sky130_fd_sc_hd__nand2_1
*CAP
1 *1908:A2 0
2 *1879:Y 0.000301589
3 *255:10 0.000301589
4 *255:10 *1653:B 1.32939e-05
5 *255:10 *486:8 0.000102093
6 *255:10 *492:73 0.00014411
7 *255:10 *517:58 7.03766e-05
8 *255:10 *549:107 5.14746e-06
9 *255:10 *549:118 5.26733e-06
*RES
1 *1879:Y *255:10 43.3857 
2 *255:10 *1908:A2 38 
*END

*D_NET *256 0.00212424
*CONN
*I *1906:B1_N I *D sky130_fd_sc_hd__o21ba_1
*I *1882:A I *D sky130_fd_sc_hd__nor2_1
*I *1880:X O *D sky130_fd_sc_hd__and3_1
*CAP
1 *1906:B1_N 2.53993e-05
2 *1882:A 0.000202171
3 *1880:X 0.000423727
4 *256:12 0.000651298
5 *1882:A *1882:B 0.000159609
6 *1882:A *1910:B 1.37232e-05
7 *1882:A *284:8 3.17516e-05
8 *1906:B1_N *527:45 5.24393e-05
9 *1906:B1_N *535:22 2.96154e-05
10 *256:12 *1862:A 5.07676e-05
11 *256:12 *1881:A1 5.50049e-05
12 *256:12 *1881:A2 3.17805e-05
13 *256:12 *257:10 4.2062e-05
14 *256:12 *527:45 0.000114092
15 *256:12 *535:22 5.31444e-05
16 *256:12 *545:54 5.50049e-05
17 *38:46 *256:12 0.000132653
*RES
1 *1880:X *256:12 46.3893 
2 *256:12 *1882:A 41.3764 
3 *256:12 *1906:B1_N 38.8493 
*END

*D_NET *257 0.00171354
*CONN
*I *1906:A2 I *D sky130_fd_sc_hd__o21ba_1
*I *1882:B I *D sky130_fd_sc_hd__nor2_1
*I *1881:Y O *D sky130_fd_sc_hd__a21oi_1
*CAP
1 *1906:A2 0
2 *1882:B 0.000180639
3 *1881:Y 0.000280571
4 *257:12 0.000180639
5 *257:10 0.000280571
6 *1882:B *284:8 2.93845e-05
7 *1882:B *563:22 4.57742e-05
8 *257:10 *1862:A 0.000141954
9 *257:10 *490:27 0.000249918
10 *257:10 *527:45 0.000122417
11 *1882:A *1882:B 0.000159609
12 *256:12 *257:10 4.2062e-05
*RES
1 *1881:Y *257:10 44.3179 
2 *257:10 *257:12 15 
3 *257:12 *1882:B 26.9979 
4 *257:12 *1906:A2 23 
*END

*D_NET *258 0.000304415
*CONN
*I *1883:B I *D sky130_fd_sc_hd__xnor2_1
*I *1882:Y O *D sky130_fd_sc_hd__nor2_1
*CAP
1 *1883:B 0
2 *1882:Y 8.39699e-05
3 *258:8 8.39699e-05
4 *258:8 *524:25 6.58373e-05
5 *258:8 *535:22 7.06377e-05
*RES
1 *1882:Y *258:8 39.9057 
2 *258:8 *1883:B 38 
*END

*D_NET *259 0.00179565
*CONN
*I *1885:B I *D sky130_fd_sc_hd__xnor2_1
*I *1884:B I *D sky130_fd_sc_hd__and2b_1
*I *1883:Y O *D sky130_fd_sc_hd__xnor2_1
*CAP
1 *1885:B 0
2 *1884:B 0.000191547
3 *1883:Y 0.000374542
4 *259:12 0.000191547
5 *259:10 0.000374542
6 *1884:B *261:14 0.000230604
7 *259:10 *527:51 5.20072e-05
8 *259:10 *537:69 0.000113739
9 *259:10 *566:31 0
10 *1884:A_N *1884:B 0.000128401
11 *253:10 *259:10 0.000138727
*RES
1 *1883:Y *259:10 44.7736 
2 *259:10 *259:12 15 
3 *259:12 *1884:B 27.93 
4 *259:12 *1885:B 23 
*END

*D_NET *260 0.00254024
*CONN
*I *1914:A1 I *D sky130_fd_sc_hd__o21ai_1
*I *1915:A I *D sky130_fd_sc_hd__or3_1
*I *1884:X O *D sky130_fd_sc_hd__and2b_1
*CAP
1 *1914:A1 0.000141306
2 *1915:A 0
3 *1884:X 0.000793893
4 *260:10 0.0009352
5 *1914:A1 *1914:A2 6.17437e-06
6 *1914:A1 *1914:B1 0.000207507
7 *1914:A1 *264:8 0
8 *1914:A1 *292:10 2.64616e-05
9 *1914:A1 *293:10 0.000166522
10 *1914:A1 *388:10 0
11 *260:10 *1914:B1 1.14452e-05
12 *260:10 *261:14 0.000109854
13 *260:10 *291:8 0.000141879
14 *260:10 *388:10 0
*RES
1 *1884:X *260:10 49.1029 
2 *260:10 *1915:A 38 
3 *260:10 *1914:A1 41.9357 
*END

*D_NET *261 0.00209107
*CONN
*I *1887:B1 I *D sky130_fd_sc_hd__a21oi_1
*I *1886:C I *D sky130_fd_sc_hd__and3_1
*I *1885:Y O *D sky130_fd_sc_hd__xnor2_1
*CAP
1 *1887:B1 0.000103549
2 *1886:C 0
3 *1885:Y 0.000591305
4 *261:18 0.000123486
5 *261:14 0.000611242
6 *1887:B1 *1886:A 0.000119247
7 *261:14 *526:58 0.000192077
8 *261:14 *538:28 0
9 *261:18 *1886:A 9.70259e-06
10 *1884:B *261:14 0.000230604
11 *260:10 *261:14 0.000109854
*RES
1 *1885:Y *261:14 49.02 
2 *261:14 *261:18 15.2279 
3 *261:18 *1886:C 23 
4 *261:18 *1887:B1 25.1336 
*END

*D_NET *262 0.000799336
*CONN
*I *1598:A2 I *D sky130_fd_sc_hd__a2111oi_1
*I *1589:Y O *D sky130_fd_sc_hd__inv_2
*CAP
1 *1598:A2 9.23797e-05
2 *1589:Y 9.23797e-05
3 *1598:A2 *1598:A1 6.91178e-05
4 *1598:A2 *348:53 9.67842e-05
5 *1598:A2 *550:67 9.45591e-05
6 *182:16 *1598:A2 0.000268868
7 *182:40 *1598:A2 8.52481e-05
*RES
1 *1589:Y *1598:A2 49.9564 
*END

*D_NET *263 0.00206639
*CONN
*I *1914:A2 I *D sky130_fd_sc_hd__o21ai_1
*I *1888:A I *D sky130_fd_sc_hd__nor2_1
*I *1915:B I *D sky130_fd_sc_hd__or3_1
*I *1886:X O *D sky130_fd_sc_hd__and3_1
*CAP
1 *1914:A2 0.00026733
2 *1888:A 0.000118421
3 *1915:B 0.000203592
4 *1886:X 0
5 *263:21 0.000467923
6 *263:4 0.000285764
7 *1888:A *1888:B 9.41704e-05
8 *1888:A *1891:A2 5.41288e-05
9 *1914:A2 *1888:B 2.02872e-05
10 *1914:A2 *1914:B1 5.50049e-05
11 *1914:A2 *292:10 5.61255e-06
12 *1915:B *1887:A2 0.000207381
13 *263:21 *264:8 0.000138718
14 *263:21 *526:58 0.000141879
15 *1914:A1 *1914:A2 6.17437e-06
*RES
1 *1886:X *263:4 23 
2 *263:4 *1915:B 27.4743 
3 *263:4 *263:21 31.9057 
4 *263:21 *1888:A 25.5479 
5 *263:21 *1914:A2 27.4536 
*END

*D_NET *264 0.000660469
*CONN
*I *1888:B I *D sky130_fd_sc_hd__nor2_1
*I *1887:Y O *D sky130_fd_sc_hd__a21oi_1
*CAP
1 *1888:B 9.30234e-05
2 *1887:Y 0.000104999
3 *264:8 0.000198022
4 *264:8 *1914:B1 0
5 *264:8 *526:58 1.12487e-05
6 *1888:A *1888:B 9.41704e-05
7 *1914:A1 *264:8 0
8 *1914:A2 *1888:B 2.02872e-05
9 *263:21 *264:8 0.000138718
*RES
1 *1887:Y *264:8 40.2579 
2 *264:8 *1888:B 39.5743 
*END

*D_NET *265 0.00230118
*CONN
*I *1890:B I *D sky130_fd_sc_hd__nand2_1
*I *1889:B I *D sky130_fd_sc_hd__and2_1
*I *1891:A2 I *D sky130_fd_sc_hd__o21a_1
*I *1888:Y O *D sky130_fd_sc_hd__nor2_1
*CAP
1 *1890:B 9.60409e-05
2 *1889:B 0
3 *1891:A2 0.00047959
4 *1888:Y 0
5 *265:17 0.00026174
6 *265:4 0.000645289
7 *1890:B *1893:A1 0
8 *1890:B *526:62 0.000131304
9 *1891:A2 *269:10 0.000143655
10 *265:17 *526:58 0.000274553
11 *265:17 *534:145 0
12 *1888:A *1891:A2 5.41288e-05
13 *1889:A *1890:B 0.000129251
14 *1890:A *265:17 0
15 *234:27 *1891:A2 8.56254e-05
16 *234:27 *265:17 0
*RES
1 *1888:Y *265:4 23 
2 *265:4 *1891:A2 29.815 
3 *265:4 *265:17 33.6664 
4 *265:17 *1889:B 23 
5 *265:17 *1890:B 26.5214 
*END

*D_NET *266 0.000693198
*CONN
*I *1917:A I *D sky130_fd_sc_hd__or2_1
*I *1918:A I *D sky130_fd_sc_hd__nand2_1
*I *1889:X O *D sky130_fd_sc_hd__and2_1
*CAP
1 *1917:A 0
2 *1918:A 0.000110085
3 *1889:X 0.000215101
4 *266:12 0.000110085
5 *266:10 0.000215101
6 *1918:A *1917:B 3.81946e-05
7 *1918:A *1951:A 0
8 *266:10 *295:10 0
9 *266:10 *526:58 4.6318e-06
*RES
1 *1889:X *266:10 40.8793 
2 *266:10 *266:12 15 
3 *266:12 *1918:A 25.5686 
4 *266:12 *1917:A 23 
*END

*D_NET *267 0.00103427
*CONN
*I *1895:B1 I *D sky130_fd_sc_hd__a221o_1
*I *1890:Y O *D sky130_fd_sc_hd__nand2_1
*CAP
1 *1895:B1 0
2 *1890:Y 0.000325164
3 *267:6 0.000325164
4 *267:6 *1893:A1 0.000241479
5 *267:6 *1895:B2 1.28818e-05
6 *267:6 *1895:C1 5.50106e-05
7 *267:6 *526:62 1.95556e-05
8 *1889:A *267:6 5.50106e-05
*RES
1 *1890:Y *267:6 28.8621 
2 *267:6 *1895:B1 23 
*END

*D_NET *268 0.000585962
*CONN
*I *1895:B2 I *D sky130_fd_sc_hd__a221o_1
*I *1891:X O *D sky130_fd_sc_hd__o21a_1
*CAP
1 *1895:B2 5.62361e-06
2 *1891:X 0.000154034
3 *268:10 0.000159658
4 *1895:B2 *1893:A1 1.28818e-05
5 *268:10 *1892:A1 0
6 *268:10 *272:10 0
7 *268:10 *518:117 4.21594e-06
8 *268:10 *540:110 0.00010018
9 *196:54 *268:10 0.000136486
10 *267:6 *1895:B2 1.28818e-05
*RES
1 *1891:X *268:10 41.0036 
2 *268:10 *1895:B2 38.1502 
*END

*D_NET *269 0.00136825
*CONN
*I *1893:B2 I *D sky130_fd_sc_hd__o22a_1
*I *1892:Y O *D sky130_fd_sc_hd__a21oi_1
*CAP
1 *1893:B2 0
2 *1892:Y 0.000283372
3 *269:10 0.000283372
4 *269:10 *566:31 0.000243605
5 *1891:A2 *269:10 0.000143655
6 *188:47 *269:10 1.14452e-05
7 *196:54 *269:10 0
8 *234:16 *269:10 0.000317553
9 *234:27 *269:10 8.52481e-05
*RES
1 *1892:Y *269:10 45.7471 
2 *269:10 *1893:B2 38 
*END

*D_NET *270 0.000139982
*CONN
*I *1895:C1 I *D sky130_fd_sc_hd__a221o_1
*I *1893:X O *D sky130_fd_sc_hd__o22a_1
*CAP
1 *1895:C1 1.49804e-05
2 *1893:X 1.49804e-05
3 *1895:C1 *1893:A1 5.50106e-05
4 *267:6 *1895:C1 5.50106e-05
*RES
1 *1893:X *1895:C1 46.6214 
*END

*D_NET *271 0.000506395
*CONN
*I *1896:B1 I *D sky130_fd_sc_hd__a211o_1
*I *1894:X O *D sky130_fd_sc_hd__a32o_1
*CAP
1 *1896:B1 0
2 *1894:X 0.000136202
3 *271:10 0.000136202
4 *271:10 *272:18 1.14452e-05
5 *271:10 *518:54 0
6 *271:10 *519:88 0.000167535
7 *271:10 *524:113 5.50106e-05
*RES
1 *1894:X *271:10 40.8793 
2 *271:10 *1896:B1 38 
*END

*D_NET *272 0.00667862
*CONN
*I *1896:C1 I *D sky130_fd_sc_hd__a211o_1
*I *1895:X O *D sky130_fd_sc_hd__a221o_1
*CAP
1 *1896:C1 0
2 *1895:X 2.51288e-05
3 *272:18 0.0019519
4 *272:10 0.00197702
5 *272:10 *1892:A1 5.04995e-05
6 *272:18 *1607:B1 0.000136477
7 *272:18 *391:12 4.34824e-05
8 *272:18 *440:14 0.000266636
9 *272:18 *518:54 5.58873e-06
10 *272:18 *519:88 6.6663e-06
11 *272:18 *540:97 9.71145e-05
12 *272:18 *546:142 0.000538498
13 *196:35 *272:18 0.000848634
14 *205:62 *272:18 8.99815e-06
15 *205:64 *272:18 0.000710528
16 *268:10 *272:10 0
17 *271:10 *272:18 1.14452e-05
*RES
1 *1895:X *272:10 46.6732 
2 *272:10 *272:18 29.6453 
3 *272:18 *1896:C1 23 
*END

*D_NET *273 0.0113703
*CONN
*I *1839:A I *D sky130_fd_sc_hd__xnor2_1
*I *1804:A1 I *D sky130_fd_sc_hd__a2111o_1
*I *2054:A I *D sky130_fd_sc_hd__buf_2
*I *1590:Y O *D sky130_fd_sc_hd__inv_2
*CAP
1 *1839:A 0.000527954
2 *1804:A1 0
3 *2054:A 0.000264421
4 *1590:Y 3.41136e-05
5 *273:27 0.00165999
6 *273:23 0.00185572
7 *273:8 0.00102222
8 *1839:A *1844:A2 0
9 *1839:A *536:16 0
10 *2054:A *1637:A2 0.000265417
11 *2054:A *423:10 0.000579678
12 *2054:A *454:18 4.30894e-05
13 *2054:A *518:54 1.58805e-05
14 *2054:A *519:88 0.000165182
15 *2054:A *543:42 0
16 *273:8 *518:50 9.67842e-05
17 *273:8 *550:32 5.12254e-05
18 *273:23 *518:54 0.000194438
19 *273:23 *519:88 0.000193324
20 *273:23 *524:121 0.000729761
21 *273:23 *534:116 0.00162189
22 *273:23 *543:42 0.000136697
23 *273:27 *1796:A1 2.13834e-05
24 *273:27 *515:33 1.83667e-05
25 *273:27 *515:42 0.000835907
26 *273:27 *536:16 0
27 *273:27 *536:20 0
28 *1843:A2 *1839:A 0.000122386
29 *103:8 *273:23 0.00011081
30 *103:10 *273:23 6.17437e-06
31 *103:27 *273:27 0
32 *105:8 *273:27 0.000262936
33 *167:25 *273:27 0.000107212
34 *168:10 *273:27 0.000338418
35 *212:16 *1839:A 2.93747e-05
36 *213:12 *1839:A 5.9511e-05
*RES
1 *1590:Y *273:8 39.0979 
2 *273:8 *2054:A 46.5964 
3 *273:8 *273:23 38.6764 
4 *273:23 *273:27 40.8514 
5 *273:27 *1804:A1 38 
6 *273:27 *1839:A 48.0464 
*END

*D_NET *274 0.00628948
*CONN
*I *1897:A_N I *D sky130_fd_sc_hd__nand2b_1
*I *1896:X O *D sky130_fd_sc_hd__a211o_1
*CAP
1 *1897:A_N 0
2 *1896:X 0.000122406
3 *274:20 0.0015099
4 *274:8 0.00163231
5 *274:8 *1867:A1 6.17437e-06
6 *274:8 *1896:A1 7.44257e-05
7 *274:20 *1865:A1 6.16531e-05
8 *274:20 *1924:A1 5.58873e-06
9 *274:20 *277:8 0
10 *274:20 *303:12 0.00107568
11 *274:20 *326:18 4.03539e-05
12 *274:20 *326:90 4.92653e-05
13 *274:20 *506:12 0.000789543
14 *274:20 *519:88 0.000136486
15 *274:20 *519:105 0.000168306
16 *274:20 *524:121 4.95442e-05
17 *274:20 *552:10 0
18 *1850:B *274:20 1.75562e-05
19 *1897:B *274:20 1.28818e-05
20 *192:64 *274:20 0
21 *192:75 *274:20 2.00528e-05
22 *243:14 *274:20 0
23 *245:8 *274:20 0.000322892
24 *246:10 *274:20 0
25 *249:8 *274:20 8.62783e-05
26 *250:10 *274:20 0
27 *252:8 *274:20 0.000108179
*RES
1 *1896:X *274:8 39.5743 
2 *274:8 *274:20 49.9036 
3 *274:20 *1897:A_N 23 
*END

*D_NET *275 0.000333033
*CONN
*I *1899:B I *D sky130_fd_sc_hd__xor2_1
*I *1898:Y O *D sky130_fd_sc_hd__nand2_1
*CAP
1 *1899:B 6.957e-05
2 *1898:Y 6.957e-05
3 *1899:B *518:82 9.91798e-05
4 *191:14 *1899:B 2.02872e-05
5 *191:22 *1899:B 7.44257e-05
*RES
1 *1898:Y *1899:B 48.0507 
*END

*D_NET *276 0.00117446
*CONN
*I *1955:A2 I *D sky130_fd_sc_hd__a21o_1
*I *1900:B I *D sky130_fd_sc_hd__xnor2_1
*I *1899:X O *D sky130_fd_sc_hd__xor2_1
*CAP
1 *1955:A2 0.000248173
2 *1900:B 0.000114235
3 *1899:X 0
4 *276:6 0.000362409
5 *1900:B *277:8 0
6 *1900:B *303:12 0
7 *1900:B *518:74 5.67058e-05
8 *1900:B *518:151 2.87018e-05
9 *1955:A2 *277:8 0
10 *1955:A2 *279:23 1.19727e-05
11 *1955:A2 *518:151 0.000322892
12 *1901:B *1955:A2 0
13 *191:22 *1900:B 2.93747e-05
14 *250:10 *1955:A2 0
*RES
1 *1899:X *276:6 38 
2 *276:6 *1900:B 40.3614 
3 *276:6 *1955:A2 43.075 
*END

*D_NET *277 0.00124831
*CONN
*I *1902:B1 I *D sky130_fd_sc_hd__a21oi_1
*I *1901:C I *D sky130_fd_sc_hd__and3_1
*I *1900:Y O *D sky130_fd_sc_hd__xnor2_1
*CAP
1 *1902:B1 0.000187288
2 *1901:C 4.71902e-05
3 *1900:Y 0.0001978
4 *277:10 0.000234479
5 *277:8 0.0001978
6 *1902:B1 *526:98 3.53115e-05
7 *277:8 *303:12 6.7177e-06
8 *1900:B *277:8 0
9 *1901:B *277:8 4.08641e-05
10 *1902:A1 *1902:B1 9.75779e-05
11 *1955:A2 *277:8 0
12 *247:10 *277:8 7.461e-05
13 *247:14 *1902:B1 0
14 *247:25 *1901:C 6.25657e-05
15 *247:25 *1902:B1 4.2573e-05
16 *250:10 *277:8 2.3529e-05
17 *274:20 *277:8 0
*RES
1 *1900:Y *277:8 41.3143 
2 *277:8 *277:10 15 
3 *277:10 *1901:C 23.7043 
4 *277:10 *1902:B1 26.0243 
*END

*D_NET *278 0.000476347
*CONN
*I *1925:A2 I *D sky130_fd_sc_hd__o31ai_1
*I *1901:X O *D sky130_fd_sc_hd__and3_1
*CAP
1 *1925:A2 6.62216e-05
2 *1901:X 6.62216e-05
3 *1925:A2 *1925:A3 0.000139346
4 *1925:A2 *526:98 0.000204558
*RES
1 *1901:X *1925:A2 48.2889 
*END

*D_NET *279 0.00221657
*CONN
*I *1955:B1 I *D sky130_fd_sc_hd__a21o_1
*I *1925:A3 I *D sky130_fd_sc_hd__o31ai_1
*I *1902:Y O *D sky130_fd_sc_hd__a21oi_1
*CAP
1 *1955:B1 0
2 *1925:A3 0.000288556
3 *1902:Y 0
4 *279:23 0.000306173
5 *279:4 0.000594728
6 *1925:A3 *526:98 0.000324766
7 *279:23 *2075:A 6.16531e-05
8 *279:23 *518:151 6.67764e-05
9 *279:23 *526:98 0.000264553
10 *279:23 *538:12 1.86973e-05
11 *1901:B *1925:A3 0.000139352
12 *1925:A2 *1925:A3 0.000139346
13 *1955:A2 *279:23 1.19727e-05
14 *211:22 *279:23 0
*RES
1 *1902:Y *279:4 23 
2 *279:4 *1925:A3 29.0279 
3 *279:4 *279:23 36.3179 
4 *279:23 *1955:B1 23 
*END

*D_NET *280 0.00289443
*CONN
*I *1905:A I *D sky130_fd_sc_hd__or2_1
*I *1977:A1 I *D sky130_fd_sc_hd__a21o_1
*I *1947:A I *D sky130_fd_sc_hd__xnor2_1
*I *1903:X O *D sky130_fd_sc_hd__and4_1
*CAP
1 *1905:A 0
2 *1977:A1 0
3 *1947:A 0
4 *1903:X 0.000189197
5 *280:34 0.000162636
6 *280:26 0.000361794
7 *280:22 0.000335695
8 *280:16 0.000325734
9 *280:16 *526:31 2.46922e-05
10 *280:16 *526:58 2.26406e-05
11 *280:16 *527:76 0.000118914
12 *280:22 *1912:A_N 9.20311e-06
13 *280:22 *281:20 5.94125e-05
14 *280:22 *289:14 0.000222059
15 *280:22 *526:19 4.95339e-05
16 *280:22 *526:58 7.77448e-05
17 *280:26 *1912:B 8.04322e-05
18 *280:26 *1977:A2 2.64616e-05
19 *280:26 *288:8 0.000269769
20 *280:26 *289:6 3.22879e-05
21 *280:34 *323:27 0.000274553
22 *280:34 *325:10 4.18313e-05
23 *280:34 *327:21 0.000194318
24 *280:34 *388:10 1.55169e-05
*RES
1 *1903:X *280:16 46.7877 
2 *280:16 *280:22 26.4904 
3 *280:22 *280:26 4.93 
4 *280:26 *280:34 34.7643 
5 *280:34 *1947:A 23 
6 *280:26 *1977:A1 23 
7 *280:22 *1905:A 23 
*END

*D_NET *281 0.00119988
*CONN
*I *1905:B I *D sky130_fd_sc_hd__or2_1
*I *1904:Y O *D sky130_fd_sc_hd__a22oi_1
*CAP
1 *1905:B 0
2 *1904:Y 5.03385e-05
3 *281:20 0.000185879
4 *281:8 0.000236218
5 *281:8 *1912:A_N 3.47781e-05
6 *281:8 *1913:A 8.62876e-05
7 *281:8 *1944:B 3.70187e-05
8 *281:8 *1945:A2 7.70737e-05
9 *281:20 *1912:B 0.000139357
10 *281:20 *282:8 5.50049e-05
11 *281:20 *288:8 2.93845e-05
12 *281:20 *289:6 0.000147474
13 *281:20 *526:19 6.16531e-05
14 *280:22 *281:20 5.94125e-05
*RES
1 *1904:Y *281:8 39.5536 
2 *281:8 *281:20 48.9979 
3 *281:20 *1905:B 23 
*END

*D_NET *282 0.00118673
*CONN
*I *1913:A I *D sky130_fd_sc_hd__xnor2_1
*I *1912:A_N I *D sky130_fd_sc_hd__nand2b_1
*I *1905:X O *D sky130_fd_sc_hd__or2_1
*CAP
1 *1913:A 0.000182656
2 *1912:A_N 4.46813e-05
3 *1905:X 4.25104e-05
4 *282:8 0.000269848
5 *1912:A_N *1944:B 2.49733e-05
6 *1912:A_N *289:14 2.96154e-05
7 *1913:A *1945:A2 1.09358e-05
8 *1913:A *289:14 0.00016449
9 *1913:A *527:76 7.22111e-05
10 *1913:A *527:89 0.00015954
11 *280:22 *1912:A_N 9.20311e-06
12 *281:8 *1912:A_N 3.47781e-05
13 *281:8 *1913:A 8.62876e-05
14 *281:20 *282:8 5.50049e-05
*RES
1 *1905:X *282:8 38.6214 
2 *282:8 *1912:A_N 39.2014 
3 *282:8 *1913:A 42.7229 
*END

*D_NET *283 0.0190208
*CONN
*I *1786:C1 I *D sky130_fd_sc_hd__a211o_1
*I *1787:C1 I *D sky130_fd_sc_hd__o211a_1
*I *1747:A I *D sky130_fd_sc_hd__xnor2_1
*I *2026:C I *D sky130_fd_sc_hd__or4b_1
*I *1646:A I *D sky130_fd_sc_hd__xnor2_2
*I *1702:B1 I *D sky130_fd_sc_hd__a21oi_1
*I *1703:B1 I *D sky130_fd_sc_hd__a21o_1
*I *1701:A I *D sky130_fd_sc_hd__and3_1
*I *1591:Y O *D sky130_fd_sc_hd__inv_2
*CAP
1 *1786:C1 2.58872e-05
2 *1787:C1 0
3 *1747:A 0
4 *2026:C 0.000114477
5 *1646:A 0
6 *1702:B1 0
7 *1703:B1 2.842e-05
8 *1701:A 7.47328e-05
9 *1591:Y 3.56949e-05
10 *283:101 0.000761294
11 *283:93 0.00109428
12 *283:85 0.00129574
13 *283:67 0.000901811
14 *283:32 0.00016655
15 *283:26 0.0011079
16 *283:12 0.00271292
17 *283:8 0.00185363
18 *2026:C *477:8 0.000295607
19 *2026:C *539:125 0.000180224
20 *283:8 *1591:A 0.000143655
21 *283:8 *471:49 0.000228903
22 *283:8 *542:84 8.52481e-05
23 *283:12 *1673:C 0.00026507
24 *283:12 *471:26 5.23664e-05
25 *283:12 *471:41 2.11887e-05
26 *283:12 *471:49 0.000701263
27 *283:12 *531:72 0
28 *283:12 *534:74 0.000151907
29 *283:12 *536:20 1.12487e-05
30 *283:12 *536:22 2.41047e-05
31 *283:12 *536:24 1.34354e-05
32 *283:26 *1709:B1 0.000100061
33 *283:26 *484:35 0.000193737
34 *283:26 *546:81 8.04127e-05
35 *283:67 *1645:A 0.000183682
36 *283:67 *477:8 0.000214064
37 *283:67 *477:10 0.000228001
38 *283:67 *477:20 5.50106e-05
39 *283:67 *479:10 1.56762e-05
40 *283:67 *539:125 0.000141954
41 *283:67 *546:81 0.000153769
42 *283:85 *531:72 0
43 *283:85 *536:16 0.000237501
44 *283:85 *536:20 0.000567685
45 *283:85 *542:63 0.000118797
46 *283:85 *543:142 0.000244517
47 *283:93 *1787:A2 0.000108794
48 *283:93 *497:27 0.000140931
49 *283:101 *531:21 0.000191276
50 *283:101 *565:73 0
51 *1700:B *1701:A 0
52 *1711:B *1701:A 8.56334e-05
53 *1711:B *1703:B1 2.64616e-05
54 *1747:B *283:101 9.84794e-05
55 *1785:A *283:85 0.000456486
56 *1786:A1 *283:93 1.95443e-05
57 *1786:B1 *1786:C1 1.14154e-05
58 *1786:B1 *283:85 2.79662e-05
59 *1786:B1 *283:93 1.94693e-05
60 *1787:A1 *283:93 0.00018536
61 *33:12 *283:26 0
62 *47:14 *283:12 0.000138727
63 *48:12 *283:12 0.000175438
64 *48:12 *283:26 0
65 *65:10 *283:12 0.000238194
66 *73:12 *1701:A 0
67 *73:31 *1701:A 7.4416e-05
68 *73:31 *1703:B1 2.02872e-05
69 *74:8 *283:26 0.000183353
70 *74:14 *283:26 0.000142636
71 *74:46 *283:26 5.56279e-05
72 *77:10 *283:32 0.000166513
73 *84:44 *283:32 0.000164291
74 *97:10 *283:85 0.000989364
75 *97:21 *283:85 0.000167452
76 *107:46 *283:85 2.24608e-05
77 *155:14 *283:85 0
78 *162:10 *283:93 0.000227819
*RES
1 *1591:Y *283:8 40.5271 
2 *283:8 *283:12 37.33 
3 *283:12 *283:26 48.27 
4 *283:26 *283:32 32.2579 
5 *283:32 *1701:A 25.0714 
6 *283:32 *1703:B1 23.6214 
7 *283:26 *1702:B1 23 
8 *283:12 *283:67 16.3643 
9 *283:67 *1646:A 23 
10 *283:67 *2026:C 26.48 
11 *283:8 *283:85 42.9021 
12 *283:85 *283:93 7.95429 
13 *283:93 *283:101 42.76 
14 *283:101 *1747:A 23 
15 *283:93 *1787:C1 23 
16 *283:85 *1786:C1 23.8493 
*END

*D_NET *284 0.00142455
*CONN
*I *1910:A_N I *D sky130_fd_sc_hd__nand2b_1
*I *1911:A I *D sky130_fd_sc_hd__xnor2_2
*I *1906:X O *D sky130_fd_sc_hd__o21ba_1
*CAP
1 *1910:A_N 0.000164352
2 *1911:A 0
3 *1906:X 0.000244238
4 *284:8 0.00040859
5 *1910:A_N *1910:B 0.000441972
6 *1910:A_N *289:6 5.3304e-05
7 *284:8 *1910:B 5.09577e-05
8 *1882:A *284:8 3.17516e-05
9 *1882:B *284:8 2.93845e-05
*RES
1 *1906:X *284:8 27.4536 
2 *284:8 *1911:A 23 
3 *284:8 *1910:A_N 27.9093 
*END

*D_NET *285 0.000719018
*CONN
*I *2124:A I *D sky130_fd_sc_hd__dlymetal6s2s_1
*I *1908:B1 I *D sky130_fd_sc_hd__a21oi_2
*I *1907:X O *D sky130_fd_sc_hd__and3_1
*CAP
1 *2124:A 3.65708e-05
2 *1908:B1 0
3 *1907:X 2.34823e-05
4 *285:14 0.000150589
5 *285:6 0.000210642
6 *285:14 *1907:B 0.000228288
7 *285:14 *486:36 4.6318e-06
8 *285:14 *517:58 0
9 *38:27 *285:14 6.48142e-05
*RES
1 *1907:X *285:6 23.4971 
2 *285:6 *285:14 33.5836 
3 *285:14 *1908:B1 23 
4 *285:6 *2124:A 23.6214 
*END

*D_NET *286 0.00161255
*CONN
*I *1932:A1 I *D sky130_fd_sc_hd__a31oi_2
*I *2122:A I *D sky130_fd_sc_hd__buf_2
*I *1908:Y O *D sky130_fd_sc_hd__a21oi_2
*CAP
1 *1932:A1 0
2 *2122:A 0
3 *1908:Y 0.000262083
4 *286:18 0.000280306
5 *286:8 0.000542389
6 *286:8 *1932:A3 0.000182826
7 *286:18 *1932:A3 0.000166522
8 *286:18 *569:10 0.00017842
*RES
1 *1908:Y *286:8 27.4536 
2 *286:8 *286:18 35.2821 
3 *286:18 *2122:A 23 
4 *286:8 *1932:A1 23 
*END

*D_NET *287 0.00263701
*CONN
*I *1911:B I *D sky130_fd_sc_hd__xnor2_2
*I *1910:B I *D sky130_fd_sc_hd__nand2b_1
*I *1909:Y O *D sky130_fd_sc_hd__xnor2_2
*CAP
1 *1911:B 0
2 *1910:B 0.000353248
3 *1909:Y 0.000218051
4 *287:12 0.000353248
5 *287:10 0.000218051
6 *1910:B *289:6 2.69947e-05
7 *287:10 *523:16 0.000126847
8 *287:10 *537:69 0.000407199
9 *287:10 *544:26 0.000226295
10 *287:10 *563:41 0.000200422
11 *1882:A *1910:B 1.37232e-05
12 *1910:A_N *1910:B 0.000441972
13 *284:8 *1910:B 5.09577e-05
*RES
1 *1909:Y *287:10 45.9543 
2 *287:10 *287:12 15 
3 *287:12 *1910:B 30.483 
4 *287:12 *1911:B 23 
*END

*D_NET *288 0.00267905
*CONN
*I *1945:A1 I *D sky130_fd_sc_hd__a21oi_1
*I *1944:A I *D sky130_fd_sc_hd__and3_1
*I *1910:Y O *D sky130_fd_sc_hd__nand2b_1
*CAP
1 *1945:A1 9.61782e-05
2 *1944:A 0.000213474
3 *1910:Y 0.00044784
4 *288:8 0.000757492
5 *1944:A *1944:B 0.000152396
6 *1944:A *323:14 1.95448e-05
7 *1944:A *323:27 0.000124252
8 *1945:A1 *1944:B 0.000134896
9 *1945:A1 *1945:A2 0.000167535
10 *1945:A1 *323:27 0.000155417
11 *288:8 *289:6 0.000110871
12 *280:26 *288:8 0.000269769
13 *281:20 *288:8 2.93845e-05
*RES
1 *1910:Y *288:8 44.815 
2 *288:8 *1944:A 42.4536 
3 *288:8 *1945:A1 42.0186 
*END

*D_NET *289 0.00247719
*CONN
*I *1912:B I *D sky130_fd_sc_hd__nand2b_1
*I *1913:B I *D sky130_fd_sc_hd__xnor2_1
*I *1911:Y O *D sky130_fd_sc_hd__xnor2_2
*CAP
1 *1912:B 5.45446e-05
2 *1913:B 0
3 *1911:Y 0.000349056
4 *289:14 0.000252062
5 *289:6 0.000655662
6 *1912:B *1977:A2 0
7 *289:14 *526:45 0.000110383
8 *289:14 *526:58 4.08426e-05
9 *289:14 *527:89 7.75329e-06
10 *1910:A_N *289:6 5.3304e-05
11 *1910:B *289:6 2.69947e-05
12 *1912:A_N *289:14 2.96154e-05
13 *1913:A *289:14 0.00016449
14 *280:22 *289:14 0.000222059
15 *280:26 *1912:B 8.04322e-05
16 *280:26 *289:6 3.22879e-05
17 *281:20 *1912:B 0.000139357
18 *281:20 *289:6 0.000147474
19 *288:8 *289:6 0.000110871
*RES
1 *1911:Y *289:6 29.815 
2 *289:6 *289:14 36.4007 
3 *289:14 *1913:B 23 
4 *289:6 *1912:B 25.2216 
*END

*D_NET *290 0.00138997
*CONN
*I *1945:A2 I *D sky130_fd_sc_hd__a21oi_1
*I *1944:B I *D sky130_fd_sc_hd__and3_1
*I *1912:Y O *D sky130_fd_sc_hd__nand2b_1
*CAP
1 *1945:A2 6.81072e-05
2 *1944:B 0.000243171
3 *1912:Y 0
4 *290:6 0.000311278
5 *1944:B *323:14 0.000115013
6 *1944:B *388:10 0
7 *1944:B *526:19 0
8 *1945:A2 *527:76 4.75766e-05
9 *1912:A_N *1944:B 2.49733e-05
10 *1913:A *1945:A2 1.09358e-05
11 *1944:A *1944:B 0.000152396
12 *1945:A1 *1944:B 0.000134896
13 *1945:A1 *1945:A2 0.000167535
14 *281:8 *1944:B 3.70187e-05
15 *281:8 *1945:A2 7.70737e-05
*RES
1 *1912:Y *290:6 38 
2 *290:6 *1944:B 43.3443 
3 *290:6 *1945:A2 40.2579 
*END

*D_NET *291 0.00125187
*CONN
*I *1914:B1 I *D sky130_fd_sc_hd__o21ai_1
*I *1915:C I *D sky130_fd_sc_hd__or3_1
*I *1913:Y O *D sky130_fd_sc_hd__xnor2_1
*CAP
1 *1914:B1 0.000159176
2 *1915:C 0
3 *1913:Y 0.000184118
4 *291:8 0.000343294
5 *1914:B1 *292:10 1.94693e-05
6 *1914:B1 *526:58 0
7 *291:8 *388:10 0
8 *291:8 *527:89 0.000129973
9 *1914:A1 *1914:B1 0.000207507
10 *1914:A2 *1914:B1 5.50049e-05
11 *260:10 *1914:B1 1.14452e-05
12 *260:10 *291:8 0.000141879
13 *264:8 *1914:B1 0
*RES
1 *1913:Y *291:8 43.075 
2 *291:8 *1915:C 38 
3 *291:8 *1914:B1 41.5836 
*END

*D_NET *292 0.00130684
*CONN
*I *1950:A I *D sky130_fd_sc_hd__nand2_1
*I *1948:A I *D sky130_fd_sc_hd__or2_4
*I *1916:A I *D sky130_fd_sc_hd__and2_1
*I *1914:Y O *D sky130_fd_sc_hd__o21ai_1
*CAP
1 *1950:A 8.65418e-05
2 *1948:A 0
3 *1916:A 0
4 *1914:Y 0.000224291
5 *292:19 0.000270965
6 *292:12 0.000184423
7 *292:10 0.000224291
8 *1950:A *1950:B 5.50106e-05
9 *292:10 *293:10 0.000141879
10 *292:10 *388:10 6.79006e-05
11 *1914:A1 *292:10 2.64616e-05
12 *1914:A2 *292:10 5.61255e-06
13 *1914:B1 *292:10 1.94693e-05
*RES
1 *1914:Y *292:10 41.9564 
2 *292:10 *292:12 15 
3 *292:12 *1916:A 23 
4 *292:12 *292:19 3.00357 
5 *292:19 *1948:A 23 
6 *292:19 *1950:A 24.5743 
*END

*D_NET *293 0.000888974
*CONN
*I *1916:B I *D sky130_fd_sc_hd__and2_1
*I *1915:X O *D sky130_fd_sc_hd__or3_1
*CAP
1 *1916:B 0
2 *1915:X 0.000256363
3 *293:10 0.000256363
4 *293:10 *388:10 6.78463e-05
5 *293:10 *526:58 0
6 *1914:A1 *293:10 0.000166522
7 *292:10 *293:10 0.000141879
*RES
1 *1915:X *293:10 43.8207 
2 *293:10 *1916:B 38 
*END

*D_NET *294 0.018327
*CONN
*I *1626:B I *D sky130_fd_sc_hd__and3_1
*I *1627:B1 I *D sky130_fd_sc_hd__a21oi_1
*I *1666:A2 I *D sky130_fd_sc_hd__a221o_1
*I *1696:A I *D sky130_fd_sc_hd__xnor2_1
*I *1781:C1 I *D sky130_fd_sc_hd__o211a_1
*I *1592:Y O *D sky130_fd_sc_hd__inv_2
*CAP
1 *1626:B 0.000101001
2 *1627:B1 9.34083e-05
3 *1666:A2 5.15337e-05
4 *1696:A 0.000231855
5 *1781:C1 0
6 *1592:Y 0
7 *294:55 0.00155405
8 *294:51 0.00184951
9 *294:47 0.000711893
10 *294:43 0.000381954
11 *294:39 0.00119761
12 *294:24 0.000836124
13 *294:4 0.00179242
14 *1626:B *565:58 0.000127821
15 *1627:B1 *1626:A 7.85468e-05
16 *1627:B1 *457:14 0.000123436
17 *1627:B1 *458:10 0.000181125
18 *1627:B1 *565:58 4.5051e-05
19 *1666:A2 *1666:A1 1.46586e-05
20 *1666:A2 *484:10 2.71291e-05
21 *1666:A2 *484:35 1.12487e-05
22 *1666:A2 *485:10 7.70737e-05
23 *1696:A *1696:B 0.00010018
24 *1696:A *484:10 7.03663e-05
25 *1696:A *485:10 0.000331714
26 *1696:A *495:12 0
27 *1696:A *546:73 0
28 *294:24 *1867:A1 2.64616e-05
29 *294:24 *1867:A2 0.000559378
30 *294:24 *475:102 0.000114083
31 *294:24 *543:14 0.000189855
32 *294:24 *543:23 0.0003347
33 *294:24 *552:10 3.31683e-05
34 *294:39 *1610:A 0.000270382
35 *294:39 *494:32 0.000127409
36 *294:39 *515:88 0.000770146
37 *294:39 *518:50 0.000786768
38 *294:39 *524:121 8.4047e-05
39 *294:39 *548:94 0.00018282
40 *294:39 *550:14 0.000222104
41 *294:39 *552:10 0.000265042
42 *294:39 *552:12 0.00058795
43 *294:43 *565:58 0.000308033
44 *294:47 *457:14 7.79942e-05
45 *294:47 *458:10 1.83667e-05
46 *294:47 *552:46 1.4471e-05
47 *294:51 *1656:A1 0.000166513
48 *294:51 *1657:A1 0.000268231
49 *294:51 *1657:B1 0.000190227
50 *294:51 *457:14 3.70187e-05
51 *294:51 *458:10 6.18245e-05
52 *294:51 *459:8 8.85189e-05
53 *294:51 *472:8 0
54 *294:51 *473:10 6.42902e-05
55 *294:51 *474:18 0.000237525
56 *294:51 *515:94 0
57 *294:51 *518:50 0
58 *294:51 *552:46 0.000123723
59 *294:55 *517:8 0.000272646
60 *294:55 *517:14 1.76557e-05
61 *294:55 *518:25 8.04014e-05
62 *1776:B *294:24 5.50049e-05
63 *32:10 *294:55 7.96152e-06
64 *34:6 *294:55 0.00108799
65 *39:10 *1666:A2 1.46586e-05
66 *50:35 *294:39 0.00037951
67 *103:27 *294:24 5.50049e-05
68 *151:6 *294:24 0.000137896
69 *153:10 *294:24 1.18939e-05
70 *243:8 *294:24 5.61255e-06
*RES
1 *1592:Y *294:4 23 
2 *294:4 *294:24 48.8707 
3 *294:24 *1781:C1 23 
4 *294:4 *294:39 43.3164 
5 *294:39 *294:43 18.48 
6 *294:43 *294:47 16.2014 
7 *294:47 *294:51 29.935 
8 *294:51 *294:55 35.155 
9 *294:55 *1696:A 44.2971 
10 *294:55 *1666:A2 39.3723 
11 *294:47 *1627:B1 41.0036 
12 *294:43 *1626:B 24.5743 
*END

*D_NET *295 0.000633467
*CONN
*I *1917:B I *D sky130_fd_sc_hd__or2_1
*I *1918:B I *D sky130_fd_sc_hd__nand2_1
*I *1916:X O *D sky130_fd_sc_hd__and2_1
*CAP
1 *1917:B 0.000107767
2 *1918:B 0
3 *1916:X 0.000189869
4 *295:12 0.000107767
5 *295:10 0.000189869
6 *1917:B *1951:A 0
7 *295:10 *388:10 0
8 *1918:A *1917:B 3.81946e-05
9 *266:10 *295:10 0
*RES
1 *1916:X *295:10 40.8793 
2 *295:10 *295:12 15 
3 *295:12 *1918:B 23 
4 *295:12 *1917:B 25.0714 
*END

*D_NET *296 0.00140817
*CONN
*I *1923:A2 I *D sky130_fd_sc_hd__a311o_1
*I *1917:X O *D sky130_fd_sc_hd__or2_1
*CAP
1 *1923:A2 0
2 *1917:X 0.000614986
3 *296:10 0.000614986
4 *296:10 *2059:A 3.3577e-05
5 *296:10 *518:117 0
6 *296:10 *520:8 5.83407e-05
7 *296:10 *534:145 0
8 *196:54 *296:10 8.62783e-05
*RES
1 *1917:X *296:10 46.845 
2 *296:10 *1923:A2 38 
*END

*D_NET *297 0.00316285
*CONN
*I *1953:A I *D sky130_fd_sc_hd__nor2_1
*I *1954:A1 I *D sky130_fd_sc_hd__o21a_1
*I *1952:A I *D sky130_fd_sc_hd__nand2_1
*I *1923:A3 I *D sky130_fd_sc_hd__a311o_1
*I *1918:Y O *D sky130_fd_sc_hd__nand2_1
*CAP
1 *1953:A 0
2 *1954:A1 6.1801e-05
3 *1952:A 2.34823e-05
4 *1923:A3 0
5 *1918:Y 0.000262989
6 *297:36 0.000224807
7 *297:20 0.000299581
8 *297:12 0.00066946
9 *297:8 0.000772392
10 *1952:A *554:98 0
11 *1954:A1 *332:21 0.000141954
12 *297:8 *332:8 0
13 *297:8 *345:10 0
14 *297:12 *332:29 0.000399291
15 *297:12 *333:10 5.37348e-06
16 *297:20 *299:10 0
17 *297:20 *300:10 4.9662e-05
18 *297:20 *333:10 1.76557e-05
19 *297:20 *497:87 9.30151e-05
20 *297:20 *518:117 0
21 *297:20 *554:98 8.80821e-05
22 *297:36 *332:8 0
23 *297:36 *332:29 0
24 *1921:B *297:20 5.3304e-05
25 *196:74 *297:8 0
*RES
1 *1918:Y *297:8 42.7229 
2 *297:8 *297:12 22.2914 
3 *297:12 *297:20 35.9657 
4 *297:20 *1923:A3 23 
5 *297:12 *1952:A 23.4971 
6 *297:8 *297:36 17.9621 
7 *297:36 *1954:A1 24.5743 
8 *297:36 *1953:A 23 
*END

*D_NET *298 0.00127521
*CONN
*I *1920:B2 I *D sky130_fd_sc_hd__o22a_1
*I *1919:Y O *D sky130_fd_sc_hd__a21oi_1
*CAP
1 *1920:B2 0
2 *1919:Y 0.000167005
3 *298:8 0.000167005
4 *298:8 *1920:A1 0.000239116
5 *298:8 *335:10 2.80512e-05
6 *298:8 *350:14 5.50106e-05
7 *298:8 *497:87 5.50049e-05
8 *298:8 *518:124 2.11101e-05
9 *1920:B1 *298:8 0.000422679
10 *205:38 *298:8 0.000120222
*RES
1 *1919:Y *298:8 29.7114 
2 *298:8 *1920:B2 23 
*END

*D_NET *299 0.00136853
*CONN
*I *1923:B1 I *D sky130_fd_sc_hd__a311o_1
*I *1920:X O *D sky130_fd_sc_hd__o22a_1
*CAP
1 *1923:B1 0
2 *1920:X 0.000393092
3 *299:10 0.000393092
4 *299:10 *300:10 0.000166513
5 *299:10 *335:10 0.000223698
6 *299:10 *497:87 0.000108681
7 *299:10 *534:145 3.11674e-05
8 *299:10 *554:98 5.22857e-05
9 *297:20 *299:10 0
*RES
1 *1920:X *299:10 45.6021 
2 *299:10 *1923:B1 38 
*END

*D_NET *300 0.000611644
*CONN
*I *1923:C1 I *D sky130_fd_sc_hd__a311o_1
*I *1921:X O *D sky130_fd_sc_hd__and2_1
*CAP
1 *1923:C1 0
2 *1921:X 0.000156922
3 *300:10 0.000156922
4 *300:10 *534:145 8.16253e-05
5 *297:20 *300:10 4.9662e-05
6 *299:10 *300:10 0.000166513
*RES
1 *1921:X *300:10 41.3557 
2 *300:10 *1923:C1 38 
*END

*D_NET *301 0.000287744
*CONN
*I *1924:B1 I *D sky130_fd_sc_hd__a211oi_1
*I *1922:X O *D sky130_fd_sc_hd__a32o_1
*CAP
1 *1924:B1 5.88697e-05
2 *1922:X 5.88697e-05
3 *1924:B1 *302:14 0.000124954
4 *1924:B1 *531:122 4.5051e-05
*RES
1 *1922:X *1924:B1 47.5743 
*END

*D_NET *302 0.00817091
*CONN
*I *1924:C1 I *D sky130_fd_sc_hd__a211oi_1
*I *1923:X O *D sky130_fd_sc_hd__a311o_1
*CAP
1 *1924:C1 0
2 *1923:X 0
3 *302:14 0.00212588
4 *302:4 0.00212588
5 *302:14 *1596:C 0.000591006
6 *302:14 *345:12 0.00213322
7 *302:14 *351:10 0.000520201
8 *302:14 *454:44 0.000112087
9 *302:14 *531:122 0.000105921
10 *302:14 *538:12 4.41393e-05
11 *302:14 *538:20 6.74344e-05
12 *1924:B1 *302:14 0.000124954
13 *211:10 *302:14 0.000220177
*RES
1 *1923:X *302:4 23 
2 *302:4 *302:14 42.63 
3 *302:14 *1924:C1 23 
*END

*D_NET *303 0.00302281
*CONN
*I *1925:B1 I *D sky130_fd_sc_hd__o31ai_1
*I *1924:Y O *D sky130_fd_sc_hd__a211oi_1
*CAP
1 *1925:B1 0
2 *1924:Y 0
3 *303:12 0.000439251
4 *303:6 0.000439251
5 *303:12 *518:67 0
6 *303:12 *519:105 0.000797351
7 *303:12 *526:98 5.3304e-05
8 *1873:B *303:12 5.3304e-05
9 *1900:B *303:12 0
10 *247:10 *303:12 0.00015795
11 *274:20 *303:12 0.00107568
12 *277:8 *303:12 6.7177e-06
*RES
1 *1924:Y *303:6 38 
2 *303:6 *303:12 30.2043 
3 *303:12 *1925:B1 23 
*END

*D_NET *304 0.000975211
*CONN
*I *1753:A1_N I *D sky130_fd_sc_hd__o2bb2a_1
*I *1752:A1 I *D sky130_fd_sc_hd__o21bai_1
*I *1593:Y O *D sky130_fd_sc_hd__inv_2
*CAP
1 *1753:A1_N 0
2 *1752:A1 2.41801e-05
3 *1593:Y 0.000115141
4 *304:12 5.93539e-05
5 *304:8 0.000150315
6 *304:8 *471:65 0
7 *304:8 *534:50 0.000159669
8 *113:6 *304:12 8.29713e-05
9 *113:10 *1752:A1 0.000122285
10 *113:10 *304:12 3.57395e-05
11 *127:8 *1752:A1 0.000121179
12 *127:8 *304:12 0.000104377
*RES
1 *1593:Y *304:8 40.2579 
2 *304:8 *304:12 16.3361 
3 *304:12 *1752:A1 24.3361 
4 *304:12 *1753:A1_N 23 
*END

*D_NET *305 0.00140935
*CONN
*I *1929:B1 I *D sky130_fd_sc_hd__o21a_1
*I *1930:A I *D sky130_fd_sc_hd__nor3_1
*I *1926:Y O *D sky130_fd_sc_hd__nand2_1
*CAP
1 *1929:B1 0
2 *1930:A 0
3 *1926:Y 0.000102787
4 *305:25 0.00010679
5 *305:12 0.000226131
6 *305:8 0.000222129
7 *305:8 *365:10 4.48568e-05
8 *305:8 *566:31 0
9 *305:12 *1930:C 5.50106e-05
10 *305:12 *535:28 0.000310653
11 *305:25 *1930:C 0.000122624
12 *305:25 *306:27 0.000163361
13 *305:25 *535:28 5.50049e-05
*RES
1 *1926:Y *305:8 39.9057 
2 *305:8 *305:12 18.48 
3 *305:12 *1930:A 23 
4 *305:12 *305:25 32.8793 
5 *305:25 *1929:B1 23 
*END

*D_NET *306 0.0024325
*CONN
*I *1979:B1 I *D sky130_fd_sc_hd__a211oi_1
*I *1978:A1 I *D sky130_fd_sc_hd__o211a_1
*I *1930:B I *D sky130_fd_sc_hd__nor3_1
*I *1929:A1 I *D sky130_fd_sc_hd__o21a_1
*I *1927:X O *D sky130_fd_sc_hd__and4_1
*CAP
1 *1979:B1 0.000152918
2 *1978:A1 2.0995e-05
3 *1930:B 0
4 *1929:A1 0.00015076
5 *1927:X 9.18913e-05
6 *306:36 0.000352508
7 *306:27 0.000155683
8 *306:12 0.000359324
9 *306:10 0.000231476
10 *306:8 9.18913e-05
11 *1929:A1 *527:18 4.21378e-05
12 *1929:A1 *534:155 9.67842e-05
13 *1978:A1 *1978:A2 1.14154e-05
14 *1978:A1 *1979:C1 0
15 *1978:A1 *534:155 0
16 *1979:B1 *1979:C1 0.000119467
17 *1979:B1 *527:8 1.5769e-05
18 *306:8 *323:14 0
19 *306:8 *534:155 0
20 *306:12 *534:155 8.60475e-05
21 *306:27 *1930:C 1.17152e-05
22 *306:27 *308:10 6.68793e-05
23 *306:27 *309:16 0
24 *306:27 *527:134 0
25 *306:27 *534:155 1.58805e-05
26 *306:27 *566:31 0
27 *306:36 *1979:C1 1.76557e-05
28 *306:36 *309:16 4.75206e-05
29 *306:36 *534:155 0.000130423
30 *305:25 *306:27 0.000163361
*RES
1 *1927:X *306:8 39.5536 
2 *306:8 *306:10 15 
3 *306:10 *306:12 1.09786 
4 *306:12 *1929:A1 25.5479 
5 *306:12 *306:27 33.6664 
6 *306:27 *1930:B 23 
7 *306:10 *306:36 3.97714 
8 *306:36 *1978:A1 23.4971 
9 *306:36 *1979:B1 26.0036 
*END

*D_NET *307 0.00194865
*CONN
*I *1929:A2 I *D sky130_fd_sc_hd__o21a_1
*I *1930:C I *D sky130_fd_sc_hd__nor3_1
*I *1928:Y O *D sky130_fd_sc_hd__a22oi_1
*CAP
1 *1929:A2 0
2 *1930:C 0.000205442
3 *1928:Y 0.000289232
4 *307:10 0.000494674
5 *1930:C *309:8 7.53384e-06
6 *1930:C *534:155 6.38845e-05
7 *1930:C *535:28 4.5051e-05
8 *1930:C *541:36 0.000141897
9 *1930:C *566:31 5.87192e-05
10 *307:10 *527:30 9.58714e-05
11 *307:10 *529:14 0.000195889
12 *307:10 *534:155 8.62783e-05
13 *307:10 *541:36 7.48331e-05
14 *305:12 *1930:C 5.50106e-05
15 *305:25 *1930:C 0.000122624
16 *306:27 *1930:C 1.17152e-05
*RES
1 *1928:Y *307:10 42.6814 
2 *307:10 *1930:C 43.7171 
3 *307:10 *1929:A2 38 
*END

*D_NET *308 0.000421665
*CONN
*I *1931:A I *D sky130_fd_sc_hd__nor2_1
*I *1929:X O *D sky130_fd_sc_hd__o21a_1
*CAP
1 *1931:A 0
2 *1929:X 0.000116461
3 *308:10 0.000116461
4 *308:10 *309:16 6.68587e-05
5 *308:10 *527:18 5.50049e-05
6 *306:27 *308:10 6.68793e-05
*RES
1 *1929:X *308:10 40.5271 
2 *308:10 *1931:A 38 
*END

*D_NET *309 0.00165835
*CONN
*I *1931:B I *D sky130_fd_sc_hd__nor2_1
*I *1979:C1 I *D sky130_fd_sc_hd__a211oi_1
*I *1978:A2 I *D sky130_fd_sc_hd__o211a_1
*I *1930:Y O *D sky130_fd_sc_hd__nor3_1
*CAP
1 *1931:B 0
2 *1979:C1 9.50595e-05
3 *1978:A2 1.92397e-05
4 *1930:Y 0.000107066
5 *309:16 0.000314288
6 *309:8 0.000307054
7 *1978:A2 *527:18 0
8 *1978:A2 *534:155 4.00259e-06
9 *1979:C1 *527:8 0.000253936
10 *309:8 *310:10 1.32314e-05
11 *309:8 *535:28 3.98818e-05
12 *309:16 *323:14 0
13 *309:16 *527:8 5.50106e-05
14 *309:16 *527:18 0.000140259
15 *309:16 *527:134 9.48381e-06
16 *309:16 *534:155 2.93845e-05
17 *1930:C *309:8 7.53384e-06
18 *1978:A1 *1978:A2 1.14154e-05
19 *1978:A1 *1979:C1 0
20 *1979:B1 *1979:C1 0.000119467
21 *306:27 *309:16 0
22 *306:36 *1979:C1 1.76557e-05
23 *306:36 *309:16 4.75206e-05
24 *308:10 *309:16 6.68587e-05
*RES
1 *1930:Y *309:8 25.4236 
2 *309:8 *309:16 34.3086 
3 *309:16 *1978:A2 23.4971 
4 *309:16 *1979:C1 26.5007 
5 *309:8 *1931:B 23 
*END

*D_NET *310 0.00165712
*CONN
*I *1942:A I *D sky130_fd_sc_hd__nand2_1
*I *1941:A I *D sky130_fd_sc_hd__or2_1
*I *1931:Y O *D sky130_fd_sc_hd__nor2_1
*CAP
1 *1942:A 0
2 *1941:A 0.0001734
3 *1931:Y 0.000419762
4 *310:12 0.0001734
5 *310:10 0.000419762
6 *1941:A *1942:B 0.000187129
7 *310:10 *1943:B 0.000171906
8 *310:10 *2000:A 0
9 *310:10 *322:8 9.48318e-05
10 *310:10 *323:14 0
11 *310:10 *363:10 0
12 *310:10 *382:16 0
13 *310:10 *535:28 3.70071e-06
14 *310:10 *566:31 0
15 *309:8 *310:10 1.32314e-05
*RES
1 *1931:Y *310:10 46.5136 
2 *310:10 *310:12 15 
3 *310:12 *1941:A 26.5007 
4 *310:12 *1942:A 23 
*END

*D_NET *311 0.00160053
*CONN
*I *1940:A I *D sky130_fd_sc_hd__xnor2_1
*I *1939:A I *D sky130_fd_sc_hd__or3_1
*I *1932:Y O *D sky130_fd_sc_hd__a31oi_2
*CAP
1 *1940:A 0
2 *1939:A 0.00014858
3 *1932:Y 0.000564415
4 *311:10 0.000712995
5 *1939:A *1938:A 5.67058e-05
6 *1939:A *1938:B 5.50049e-05
7 *1939:A *318:8 4.83778e-05
8 *1939:A *368:8 0
9 *1939:A *490:27 0
10 *311:10 *318:8 1.44546e-05
11 *311:10 *368:8 0
12 *311:10 *490:27 0
*RES
1 *1932:Y *311:10 47.425 
2 *311:10 *1939:A 41.2314 
3 *311:10 *1940:A 38 
*END

*D_NET *312 0.000947268
*CONN
*I *1937:A I *D sky130_fd_sc_hd__nor3_1
*I *1936:B1 I *D sky130_fd_sc_hd__o21a_1
*I *1933:Y O *D sky130_fd_sc_hd__nand2_1
*CAP
1 *1937:A 3.38477e-05
2 *1936:B1 0
3 *1933:Y 0.00023066
4 *312:12 3.38477e-05
5 *312:10 0.00023066
6 *1937:A *1937:C 0.000139357
7 *1937:A *313:18 0.000141052
8 *312:10 *417:12 9.39159e-05
9 *312:10 *519:6 2.65879e-05
10 *312:10 *519:12 1.73399e-05
11 *312:10 *546:44 0
*RES
1 *1933:Y *312:10 42.6607 
2 *312:10 *312:12 15 
3 *312:12 *1936:B1 23 
4 *312:12 *1937:A 24.5743 
*END

*D_NET *313 0.00200376
*CONN
*I *1936:A1 I *D sky130_fd_sc_hd__o21a_1
*I *1937:B I *D sky130_fd_sc_hd__nor3_1
*I *1993:A1 I *D sky130_fd_sc_hd__o21a_1
*I *1992:A I *D sky130_fd_sc_hd__nor3_1
*I *1934:X O *D sky130_fd_sc_hd__and3_1
*CAP
1 *1936:A1 0
2 *1937:B 0
3 *1993:A1 0.000153273
4 *1992:A 0
5 *1934:X 0.000112406
6 *313:24 0.000234117
7 *313:18 0.000282545
8 *313:8 0.000314107
9 *1993:A1 *1993:B1 5.49603e-05
10 *1993:A1 *375:12 0.000141052
11 *313:8 *1934:C 1.37232e-05
12 *313:8 *314:8 0.000184527
13 *313:18 *1937:C 0.000127182
14 *313:18 *314:8 2.4754e-05
15 *313:24 *417:12 5.26101e-05
16 *313:24 *490:27 0.000167452
17 *1937:A *313:18 0.000141052
*RES
1 *1934:X *313:8 25.9 
2 *313:8 *313:18 5.26143 
3 *313:18 *313:24 32.2579 
4 *313:24 *1992:A 23 
5 *313:24 *1993:A1 26.0243 
6 *313:18 *1937:B 23 
7 *313:8 *1936:A1 23 
*END

*D_NET *314 0.00152993
*CONN
*I *1937:C I *D sky130_fd_sc_hd__nor3_1
*I *1936:A2 I *D sky130_fd_sc_hd__o21a_1
*I *1935:Y O *D sky130_fd_sc_hd__a21oi_1
*CAP
1 *1937:C 0.000164777
2 *1936:A2 0
3 *1935:Y 0.000219724
4 *314:8 0.000384502
5 *1937:C *316:10 0.000100733
6 *1937:C *317:8 3.7122e-06
7 *314:8 *1934:C 0.000126637
8 *314:8 *448:33 2.46468e-05
9 *314:8 *518:31 2.93747e-05
10 *1937:A *1937:C 0.000139357
11 *313:8 *314:8 0.000184527
12 *313:18 *1937:C 0.000127182
13 *313:18 *314:8 2.4754e-05
*RES
1 *1935:Y *314:8 28.4064 
2 *314:8 *1936:A2 23 
3 *314:8 *1937:C 27.4536 
*END

*D_NET *315 0.00305588
*CONN
*I *1817:C I *D sky130_fd_sc_hd__or4b_4
*I *1595:B I *D sky130_fd_sc_hd__and3b_2
*I *1812:D1 I *D sky130_fd_sc_hd__o2111a_1
*I *1594:Y O *D sky130_fd_sc_hd__nor2_1
*CAP
1 *1817:C 2.58545e-05
2 *1595:B 0
3 *1812:D1 0.000199596
4 *1594:Y 7.47652e-05
5 *315:31 0.000169522
6 *315:23 0.000340868
7 *315:8 0.000419852
8 *1812:D1 *1586:A 0
9 *1812:D1 *500:35 5.70419e-05
10 *1812:D1 *500:46 2.08253e-05
11 *1812:D1 *500:56 6.01895e-05
12 *1812:D1 *530:17 0
13 *1812:D1 *530:66 2.76611e-06
14 *1817:C *1817:B 9.5877e-05
15 *1817:C *2068:A 3.53115e-05
16 *315:8 *489:21 0
17 *315:8 *500:56 0.000101708
18 *315:23 *1814:A 9.58714e-05
19 *315:23 *1816:C 0.000270682
20 *315:23 *1817:B 4.17736e-05
21 *315:23 *2068:A 3.53115e-05
22 *315:23 *500:48 5.12254e-05
23 *315:23 *530:6 8.34394e-05
24 *315:23 *530:94 0.000173898
25 *315:31 *326:6 8.60475e-05
26 *315:31 *326:12 5.3304e-05
27 *315:31 *326:56 0.000108681
28 *315:31 *530:100 8.62876e-05
29 *1812:B1 *1812:D1 9.84794e-05
30 *1817:D_N *315:23 9.74722e-05
31 *189:10 *315:23 3.17634e-05
32 *192:20 *1812:D1 0.00013185
33 *192:20 *315:23 5.61255e-06
*RES
1 *1594:Y *315:8 39.5536 
2 *315:8 *1812:D1 42.4121 
3 *315:8 *315:23 21.3386 
4 *315:23 *315:31 33.1279 
5 *315:31 *1595:B 23 
6 *315:23 *1817:C 24.0979 
*END

*D_NET *316 0.00170742
*CONN
*I *1938:A I *D sky130_fd_sc_hd__nor2_1
*I *1939:B I *D sky130_fd_sc_hd__or3_1
*I *1936:X O *D sky130_fd_sc_hd__o21a_1
*CAP
1 *1938:A 0.000145731
2 *1939:B 0
3 *1936:X 0.000352257
4 *316:10 0.000497989
5 *1938:A *1938:B 9.97793e-05
6 *1938:A *2058:A 0.000282098
7 *1938:A *317:34 2.60152e-05
8 *1938:A *319:10 4.6595e-05
9 *1938:A *368:8 0
10 *316:10 *317:8 1.32289e-05
11 *316:10 *317:34 8.62876e-05
12 *316:10 *368:8 0
13 *1937:C *316:10 0.000100733
14 *1939:A *1938:A 5.67058e-05
*RES
1 *1936:X *316:10 43.1579 
2 *316:10 *1939:B 38 
3 *316:10 *1938:A 42.9714 
*END

*D_NET *317 0.00229959
*CONN
*I *1938:B I *D sky130_fd_sc_hd__nor2_1
*I *1939:C I *D sky130_fd_sc_hd__or3_1
*I *1993:A2 I *D sky130_fd_sc_hd__o21a_1
*I *1992:B I *D sky130_fd_sc_hd__nor3_1
*I *1937:Y O *D sky130_fd_sc_hd__nor3_1
*CAP
1 *1938:B 0.000136582
2 *1939:C 0
3 *1993:A2 5.87223e-05
4 *1992:B 9.17572e-05
5 *1937:Y 0.000126393
6 *317:34 0.000327311
7 *317:12 0.000339272
8 *317:8 0.000505915
9 *1938:B *2058:A 1.03836e-05
10 *1938:B *319:10 5.50984e-05
11 *1992:B *375:12 1.76557e-05
12 *1992:B *376:8 5.50049e-05
13 *1993:A2 *376:8 9.84851e-05
14 *317:12 *490:27 6.95665e-05
15 *317:34 *2058:A 2.93845e-05
16 *317:34 *368:8 0
17 *317:34 *490:27 9.40265e-05
18 *1937:C *317:8 3.7122e-06
19 *1938:A *1938:B 9.97793e-05
20 *1938:A *317:34 2.60152e-05
21 *1939:A *1938:B 5.50049e-05
22 *316:10 *317:8 1.32289e-05
23 *316:10 *317:34 8.62876e-05
*RES
1 *1937:Y *317:8 39.5743 
2 *317:8 *317:12 17.9621 
3 *317:12 *1992:B 24.595 
4 *317:12 *1993:A2 24.0979 
5 *317:8 *317:34 19.64 
6 *317:34 *1939:C 23 
7 *317:34 *1938:B 26.6664 
*END

*D_NET *318 0.0005004
*CONN
*I *1940:B I *D sky130_fd_sc_hd__xnor2_1
*I *1938:Y O *D sky130_fd_sc_hd__nor2_1
*CAP
1 *1940:B 6.80978e-05
2 *1938:Y 6.5849e-05
3 *318:8 0.000133947
4 *318:8 *368:8 0.000169674
5 *1939:A *318:8 4.83778e-05
6 *311:10 *318:8 1.44546e-05
*RES
1 *1938:Y *318:8 40.2579 
2 *318:8 *1940:B 39.0979 
*END

*D_NET *319 0.00220287
*CONN
*I *1998:A1 I *D sky130_fd_sc_hd__a21oi_1
*I *1997:A I *D sky130_fd_sc_hd__and3_1
*I *1939:X O *D sky130_fd_sc_hd__or3_1
*CAP
1 *1998:A1 0.000217403
2 *1997:A 0
3 *1939:X 0.000503524
4 *319:10 0.000720928
5 *1998:A1 *1998:B1 0.000175724
6 *1998:A1 *381:14 1.95448e-05
7 *1998:A1 *566:14 2.80394e-05
8 *319:10 *2058:A 0.000307608
9 *319:10 *566:14 0.000128401
10 *1938:A *319:10 4.6595e-05
11 *1938:B *319:10 5.50984e-05
*RES
1 *1939:X *319:10 33.7921 
2 *319:10 *1997:A 23 
3 *319:10 *1998:A1 26.5007 
*END

*D_NET *320 0.00165625
*CONN
*I *1942:B I *D sky130_fd_sc_hd__nand2_1
*I *1941:B I *D sky130_fd_sc_hd__or2_1
*I *1940:Y O *D sky130_fd_sc_hd__xnor2_1
*CAP
1 *1942:B 0.000124232
2 *1941:B 0
3 *1940:Y 0.000598812
4 *320:8 0.000723044
5 *1942:B *321:10 2.30292e-05
6 *1941:A *1942:B 0.000187129
*RES
1 *1940:Y *320:8 30.7886 
2 *320:8 *1941:B 23 
3 *320:8 *1942:B 26.5007 
*END

*D_NET *321 0.000376839
*CONN
*I *1943:A I *D sky130_fd_sc_hd__nand2_1
*I *1941:X O *D sky130_fd_sc_hd__or2_1
*CAP
1 *1943:A 0
2 *1941:X 0.000134339
3 *321:10 0.000134339
4 *321:10 *1943:B 8.05011e-05
5 *321:10 *322:8 4.6318e-06
6 *321:10 *566:31 0
7 *1942:B *321:10 2.30292e-05
*RES
1 *1941:X *321:10 40.8793 
2 *321:10 *1943:A 38 
*END

*D_NET *322 0.00138572
*CONN
*I *1943:B I *D sky130_fd_sc_hd__nand2_1
*I *1998:A2 I *D sky130_fd_sc_hd__a21oi_1
*I *1997:B I *D sky130_fd_sc_hd__and3_1
*I *1942:Y O *D sky130_fd_sc_hd__nand2_1
*CAP
1 *1943:B 5.1847e-05
2 *1998:A2 1.49804e-05
3 *1997:B 0.000156611
4 *1942:Y 0
5 *322:8 0.000367046
6 *322:6 0.000247301
7 *1997:B *381:10 4.4382e-05
8 *1997:B *382:16 0
9 *1997:B *566:14 2.93845e-05
10 *1998:A2 *1998:B1 5.50106e-05
11 *1998:A2 *566:14 5.50106e-05
12 *322:8 *381:10 1.22803e-05
13 *322:8 *382:16 0
14 *322:8 *566:31 0
15 *310:10 *1943:B 0.000171906
16 *310:10 *322:8 9.48318e-05
17 *321:10 *1943:B 8.05011e-05
18 *321:10 *322:8 4.6318e-06
*RES
1 *1942:Y *322:6 38 
2 *322:6 *322:8 3.66643 
3 *322:8 *1997:B 40.4443 
4 *322:8 *1998:A2 38.6214 
5 *322:6 *1943:B 40.2579 
*END

*D_NET *323 0.00433485
*CONN
*I *1945:B1 I *D sky130_fd_sc_hd__a21oi_1
*I *1944:C I *D sky130_fd_sc_hd__and3_1
*I *1943:Y O *D sky130_fd_sc_hd__nand2_1
*CAP
1 *1945:B1 0
2 *1944:C 0
3 *1943:Y 0.000318698
4 *323:27 0.000302751
5 *323:14 0.00118212
6 *323:8 0.00119807
7 *323:14 *2020:A 0.000279927
8 *323:14 *2063:A 0
9 *323:14 *360:8 0
10 *323:14 *361:8 0.000203416
11 *323:14 *363:10 6.43005e-05
12 *323:14 *388:10 0
13 *323:14 *523:8 0
14 *323:14 *526:19 0
15 *323:14 *527:134 0
16 *323:14 *529:116 0
17 *323:14 *555:14 0
18 *323:27 *324:10 9.67842e-05
19 *323:27 *388:10 0
20 *1944:A *323:14 1.95448e-05
21 *1944:A *323:27 0.000124252
22 *1944:B *323:14 0.000115013
23 *1945:A1 *323:27 0.000155417
24 *280:34 *323:27 0.000274553
25 *306:8 *323:14 0
26 *309:16 *323:14 0
27 *310:10 *323:14 0
*RES
1 *1943:Y *323:8 41.9564 
2 *323:8 *323:14 31.9236 
3 *323:14 *1944:C 23 
4 *323:14 *323:27 37.395 
5 *323:27 *1945:B1 23 
*END

*D_NET *324 0.00118915
*CONN
*I *1946:A I *D sky130_fd_sc_hd__nor2_1
*I *1944:X O *D sky130_fd_sc_hd__and3_1
*CAP
1 *1946:A 0
2 *1944:X 0.000462537
3 *324:10 0.000462537
4 *324:10 *360:8 2.5415e-05
5 *324:10 *388:10 0
6 *324:10 *431:10 0.000141879
7 *323:27 *324:10 9.67842e-05
*RES
1 *1944:X *324:10 44.815 
2 *324:10 *1946:A 38 
*END

*D_NET *325 0.00106501
*CONN
*I *1946:B I *D sky130_fd_sc_hd__nor2_1
*I *1977:B1 I *D sky130_fd_sc_hd__a21o_1
*I *1945:Y O *D sky130_fd_sc_hd__a21oi_1
*CAP
1 *1946:B 7.71005e-05
2 *1977:B1 0
3 *1945:Y 0.000212851
4 *325:12 7.71005e-05
5 *325:10 0.000212851
6 *1946:B *327:6 0.000139352
7 *325:10 *327:21 0.000139647
8 *325:10 *388:10 0.000164282
9 *280:34 *325:10 4.18313e-05
*RES
1 *1945:Y *325:10 41.8321 
2 *325:10 *325:12 15 
3 *325:12 *1977:B1 23 
4 *325:12 *1946:B 24.5743 
*END

*D_NET *326 0.0257511
*CONN
*I *2011:A1 I *D sky130_fd_sc_hd__a211o_1
*I *2048:B2 I *D sky130_fd_sc_hd__a32o_1
*I *1968:A1 I *D sky130_fd_sc_hd__a31o_1
*I *1924:A1 I *D sky130_fd_sc_hd__a211oi_1
*I *1896:A1 I *D sky130_fd_sc_hd__a211o_1
*I *1867:A1 I *D sky130_fd_sc_hd__a211o_1
*I *1806:B1 I *D sky130_fd_sc_hd__o21a_1
*I *1844:A1 I *D sky130_fd_sc_hd__a22o_1
*I *1595:X O *D sky130_fd_sc_hd__and3b_2
*CAP
1 *2011:A1 2.97774e-05
2 *2048:B2 0
3 *1968:A1 0
4 *1924:A1 1.42805e-05
5 *1896:A1 7.95726e-05
6 *1867:A1 0.000159024
7 *1806:B1 0
8 *1844:A1 0.000193848
9 *1595:X 5.50393e-05
10 *326:90 0.000481063
11 *326:86 0.00112495
12 *326:78 0.00149523
13 *326:68 0.000681004
14 *326:64 0.000580696
15 *326:56 0.00139852
16 *326:37 0.000679418
17 *326:18 0.00137024
18 *326:12 0.00141162
19 *326:6 0.00181171
20 *1844:A1 *1844:A2 1.14452e-05
21 *1844:A1 *501:8 0
22 *1844:A1 *544:49 0
23 *1924:A1 *552:10 1.38978e-05
24 *2011:A1 *359:14 2.64616e-05
25 *326:12 *1594:A 4.75937e-05
26 *326:12 *2113:A 2.18506e-05
27 *326:12 *489:21 9.84794e-05
28 *326:12 *491:6 0.000656742
29 *326:12 *500:10 9.84794e-05
30 *326:12 *505:10 0
31 *326:12 *511:51 9.8971e-06
32 *326:18 *501:35 2.02872e-05
33 *326:18 *505:10 0.000187129
34 *326:18 *534:139 0.000147467
35 *326:18 *544:49 0.000357631
36 *326:37 *501:35 8.48633e-05
37 *326:37 *534:139 0.000133147
38 *326:56 *1821:B 7.36618e-05
39 *326:56 *336:6 1.21972e-05
40 *326:56 *359:14 2.31875e-05
41 *326:56 *489:23 0
42 *326:56 *522:10 2.10236e-05
43 *326:56 *530:100 1.22803e-05
44 *326:56 *532:14 0.000851651
45 *326:64 *435:10 0.000112906
46 *326:78 *1598:A1 0.000141725
47 *326:78 *1807:B 0.000137651
48 *326:78 *348:32 7.73823e-06
49 *326:78 *348:53 2.75733e-06
50 *326:78 *351:18 0.000853316
51 *326:78 *492:56 0.000184598
52 *326:78 *547:45 5.33851e-05
53 *326:78 *550:67 0.000379137
54 *326:78 *550:95 0.00016778
55 *326:78 *554:75 6.73383e-05
56 *326:86 *434:51 2.26497e-05
57 *326:86 *546:142 0
58 *326:86 *547:45 1.05984e-05
59 *326:86 *554:75 2.14538e-05
60 *326:90 *1865:A1 2.60152e-05
61 *326:90 *524:121 0.000162786
62 *326:90 *552:10 0.000389574
63 *1827:B *326:18 0.000162831
64 *1843:A2 *1844:A1 0
65 *1850:A *326:18 5.50049e-05
66 *1850:B *326:18 4.64105e-05
67 *1867:C1 *1867:A1 5.65874e-05
68 *1867:C1 *1896:A1 6.53382e-05
69 *1868:A2 *326:18 0.000272383
70 *1897:B *326:18 1.28818e-05
71 *2010:A2 *326:56 0.000228417
72 *3:11 *326:12 0.000228001
73 *5:13 *326:6 0.000185434
74 *5:13 *326:12 5.50049e-05
75 *6:15 *326:12 9.32275e-05
76 *23:8 *326:12 0.000317553
77 *181:8 *326:18 0.00131057
78 *181:8 *326:37 0.000837546
79 *182:40 *326:78 3.12477e-05
80 *190:93 *2011:A1 2.02872e-05
81 *190:93 *326:56 0.000221084
82 *196:8 *326:56 0
83 *196:8 *326:64 0.00013185
84 *196:12 *326:64 0.000603138
85 *196:12 *326:68 7.89883e-05
86 *196:12 *326:78 0.000246176
87 *197:12 *326:56 0
88 *197:63 *326:86 0.00120288
89 *199:41 *326:56 5.3304e-05
90 *199:45 *326:56 3.18198e-05
91 *199:65 *326:86 0.000655309
92 *199:89 *326:64 4.00606e-05
93 *205:22 *326:64 0.000328982
94 *205:28 *326:68 1.05984e-05
95 *205:38 *326:64 9.5877e-05
96 *205:47 *326:68 4.59051e-05
97 *205:47 *326:78 0.000246176
98 *213:12 *1844:A1 0
99 *215:10 *1844:A1 0
100 *217:10 *1844:A1 4.21594e-06
101 *224:10 *326:18 2.45032e-05
102 *243:8 *1867:A1 2.93845e-05
103 *243:14 *326:18 5.50049e-05
104 *274:8 *1867:A1 6.17437e-06
105 *274:8 *1896:A1 7.44257e-05
106 *274:20 *1924:A1 5.58873e-06
107 *274:20 *326:18 4.03539e-05
108 *274:20 *326:90 4.92653e-05
109 *294:24 *1867:A1 2.64616e-05
110 *315:31 *326:6 8.60475e-05
111 *315:31 *326:12 5.3304e-05
112 *315:31 *326:56 0.000108681
*RES
1 *1595:X *326:6 25.0507 
2 *326:6 *326:12 35.9836 
3 *326:12 *326:18 49.6786 
4 *326:18 *1844:A1 40.9621 
5 *326:18 *326:37 27.3457 
6 *326:37 *1806:B1 23 
7 *326:6 *326:56 48.9743 
8 *326:56 *326:64 41.455 
9 *326:64 *326:68 16.2014 
10 *326:68 *326:78 49.0571 
11 *326:78 *326:86 19.5628 
12 *326:86 *326:90 20.2511 
13 *326:90 *1867:A1 26.0243 
14 *326:90 *1896:A1 25.0714 
15 *326:86 *1924:A1 38.3211 
16 *326:78 *1968:A1 38 
17 *326:68 *2048:B2 38 
18 *326:56 *2011:A1 23.6214 
*END

*D_NET *327 0.00111442
*CONN
*I *1947:B I *D sky130_fd_sc_hd__xnor2_1
*I *1977:A2 I *D sky130_fd_sc_hd__a21o_1
*I *1946:Y O *D sky130_fd_sc_hd__nor2_1
*CAP
1 *1947:B 0
2 *1977:A2 9.82654e-05
3 *1946:Y 0.000129064
4 *327:21 6.57479e-05
5 *327:6 0.000293077
6 *327:21 *388:10 2.84912e-05
7 *1912:B *1977:A2 0
8 *1946:B *327:6 0.000139352
9 *280:26 *1977:A2 2.64616e-05
10 *280:34 *327:21 0.000194318
11 *325:10 *327:21 0.000139647
*RES
1 *1946:Y *327:6 25.5271 
2 *327:6 *1977:A2 24.595 
3 *327:6 *327:21 32.61 
4 *327:21 *1947:B 23 
*END

*D_NET *328 0.00244158
*CONN
*I *1950:B I *D sky130_fd_sc_hd__nand2_1
*I *1948:B I *D sky130_fd_sc_hd__or2_4
*I *1947:Y O *D sky130_fd_sc_hd__xnor2_1
*CAP
1 *1950:B 0.000111569
2 *1948:B 0
3 *1947:Y 0.00013334
4 *328:12 0.0005708
5 *328:8 0.000592571
6 *328:12 *431:10 0.000978289
7 *1950:A *1950:B 5.50106e-05
*RES
1 *1947:Y *328:8 39.5743 
2 *328:8 *328:12 27.8221 
3 *328:12 *1948:B 23 
4 *328:12 *1950:B 25.0714 
*END

*D_NET *329 0.00190783
*CONN
*I *1949:A I *D sky130_fd_sc_hd__inv_2
*I *2004:B I *D sky130_fd_sc_hd__xnor2_1
*I *1951:A I *D sky130_fd_sc_hd__nand2_1
*I *1948:X O *D sky130_fd_sc_hd__or2_4
*CAP
1 *1949:A 8.53955e-05
2 *2004:B 6.89744e-05
3 *1951:A 0.000117587
4 *1948:X 9.79436e-05
5 *329:23 0.000372601
6 *329:8 0.000433762
7 *1951:A *1951:B 5.3304e-05
8 *2004:B *2004:A 5.50049e-05
9 *329:8 *388:10 0.00019747
10 *329:8 *431:10 0
11 *329:23 *388:10 0.00042579
12 *329:23 *431:10 0
13 *1917:B *1951:A 0
14 *1918:A *1951:A 0
*RES
1 *1948:X *329:8 40.61 
2 *329:8 *1951:A 40.0714 
3 *329:8 *329:23 20.7793 
4 *329:23 *2004:B 24.0979 
5 *329:23 *1949:A 24.595 
*END

*D_NET *330 0.00054343
*CONN
*I *2019:A1 I *D sky130_fd_sc_hd__o21ai_1
*I *1949:Y O *D sky130_fd_sc_hd__inv_2
*CAP
1 *2019:A1 7.38321e-05
2 *1949:Y 5.74083e-05
3 *330:8 0.00013124
4 *2019:A1 *405:10 5.3304e-05
5 *330:8 *389:8 5.09885e-05
6 *330:8 *405:10 3.47781e-05
7 *330:8 *431:10 0.000141879
*RES
1 *1949:Y *330:8 39.9057 
2 *330:8 *2019:A1 39.0979 
*END

*D_NET *331 0.000803104
*CONN
*I *1951:B I *D sky130_fd_sc_hd__nand2_1
*I *1950:Y O *D sky130_fd_sc_hd__nand2_1
*CAP
1 *1951:B 0.000245076
2 *1950:Y 0.000101759
3 *331:8 0.000346834
4 *331:8 *431:10 5.61311e-05
5 *1951:A *1951:B 5.3304e-05
*RES
1 *1950:Y *331:8 40.2579 
2 *331:8 *1951:B 41.9564 
*END

*D_NET *332 0.00276051
*CONN
*I *1954:A2 I *D sky130_fd_sc_hd__o21a_1
*I *1952:B I *D sky130_fd_sc_hd__nand2_1
*I *1953:B I *D sky130_fd_sc_hd__nor2_1
*I *1951:Y O *D sky130_fd_sc_hd__nand2_1
*CAP
1 *1954:A2 0
2 *1952:B 0
3 *1953:B 0
4 *1951:Y 0.000313532
5 *332:29 0.000307591
6 *332:21 0.000470258
7 *332:12 0.000251148
8 *332:8 0.000402014
9 *332:8 *2019:B1 9.27917e-05
10 *332:8 *388:10 0.000196178
11 *332:12 *334:6 6.7063e-05
12 *332:21 *334:6 7.53384e-06
13 *332:29 *345:10 0.000111158
14 *1954:A1 *332:21 0.000141954
15 *297:8 *332:8 0
16 *297:12 *332:29 0.000399291
17 *297:36 *332:8 0
18 *297:36 *332:29 0
*RES
1 *1951:Y *332:8 45.54 
2 *332:8 *332:12 17.0507 
3 *332:12 *1953:B 23 
4 *332:12 *332:21 3.50071 
5 *332:21 *332:29 37.395 
6 *332:29 *1952:B 23 
7 *332:21 *1954:A2 23 
*END

*D_NET *333 0.000983356
*CONN
*I *1967:B1 I *D sky130_fd_sc_hd__a221o_1
*I *1952:Y O *D sky130_fd_sc_hd__nand2_1
*CAP
1 *1967:B1 0
2 *1952:Y 0.00030482
3 *333:10 0.00030482
4 *333:10 *497:56 0
5 *333:10 *497:87 0.000267167
6 *333:10 *518:117 2.79004e-05
7 *333:10 *554:98 5.56203e-05
8 *297:12 *333:10 5.37348e-06
9 *297:20 *333:10 1.76557e-05
*RES
1 *1952:Y *333:10 43.0336 
2 *333:10 *1967:B1 38 
*END

*D_NET *334 0.00137111
*CONN
*I *2019:A2 I *D sky130_fd_sc_hd__o21ai_1
*I *2005:A I *D sky130_fd_sc_hd__or2_1
*I *2006:A I *D sky130_fd_sc_hd__nand2_1
*I *1953:Y O *D sky130_fd_sc_hd__nor2_1
*CAP
1 *2019:A2 0
2 *2005:A 0
3 *2006:A 0.000122761
4 *1953:Y 0.000236913
5 *334:12 0.000251679
6 *334:6 0.000365831
7 *2006:A *2006:B 4.6439e-05
8 *2006:A *389:12 5.3304e-05
9 *2006:A *390:10 1.21972e-05
10 *334:6 *2019:B1 2.93747e-05
11 *334:6 *405:10 1.14876e-05
12 *334:12 *389:8 0.000166522
13 *332:12 *334:6 6.7063e-05
14 *332:21 *334:6 7.53384e-06
*RES
1 *1953:Y *334:6 26.48 
2 *334:6 *334:12 32.2579 
3 *334:12 *2006:A 25.5686 
4 *334:12 *2005:A 23 
5 *334:6 *2019:A2 23 
*END

*D_NET *335 0.000945479
*CONN
*I *1967:B2 I *D sky130_fd_sc_hd__a221o_1
*I *1954:X O *D sky130_fd_sc_hd__o21a_1
*CAP
1 *1967:B2 0
2 *1954:X 0.000286997
3 *335:10 0.000286997
4 *335:10 *1920:A1 8.04758e-05
5 *335:10 *497:87 2.93747e-05
6 *1920:B1 *335:10 9.88574e-06
7 *298:8 *335:10 2.80512e-05
8 *299:10 *335:10 0.000223698
*RES
1 *1954:X *335:10 29.5095 
2 *335:10 *1967:B2 23 
*END

*D_NET *336 0.00832071
*CONN
*I *1962:A I *D sky130_fd_sc_hd__or2_1
*I *1961:A I *D sky130_fd_sc_hd__nand2_1
*I *1955:X O *D sky130_fd_sc_hd__a21o_1
*CAP
1 *1962:A 5.66285e-05
2 *1961:A 0
3 *1955:X 0.000979187
4 *336:24 0.0001323
5 *336:18 0.00138925
6 *336:12 0.00133625
7 *336:6 0.00111511
8 *1962:A *342:14 9.84851e-05
9 *1962:A *344:6 4.95081e-05
10 *336:6 *498:62 0.000100139
11 *336:6 *529:63 0.000435849
12 *336:12 *396:10 5.95172e-05
13 *336:18 *342:14 9.58714e-05
14 *336:18 *344:6 2.81138e-05
15 *336:18 *554:88 0.000119489
16 *336:18 *554:111 3.71228e-05
17 *336:24 *2050:C1 0
18 *1823:A *336:18 9.67842e-05
19 *1823:B *336:18 0.000221084
20 *1826:A3 *336:6 0.000269775
21 *1826:C1 *336:6 0.000355007
22 *1956:A2 *336:18 0.00043586
23 *1963:A_N *1962:A 4.34745e-05
24 *1963:A_N *336:18 5.50106e-05
25 *1963:A_N *336:24 0.000184825
26 *2010:A2 *336:12 5.72853e-05
27 *183:20 *336:6 1.41077e-05
28 *191:90 *336:18 9.84794e-05
29 *196:8 *336:12 4.87543e-05
30 *196:12 *336:12 1.3822e-05
31 *199:18 *336:6 5.49622e-05
32 *199:41 *336:6 5.52339e-05
33 *199:45 *336:12 0.000155078
34 *199:89 *336:18 1.76557e-05
35 *201:10 *336:6 9.84794e-05
36 *326:56 *336:6 1.21972e-05
*RES
1 *1955:X *336:6 42.2021 
2 *336:6 *336:12 32.9621 
3 *336:12 *336:18 22.7029 
4 *336:18 *336:24 32.61 
5 *336:24 *1961:A 23 
6 *336:18 *1962:A 25.0507 
*END

*D_NET *337 0.00638133
*CONN
*I *1598:C1 I *D sky130_fd_sc_hd__a2111oi_1
*I *1808:A I *D sky130_fd_sc_hd__or2_1
*I *1601:B1 I *D sky130_fd_sc_hd__a211o_1
*I *1599:A4 I *D sky130_fd_sc_hd__o41ai_4
*I *1641:B1 I *D sky130_fd_sc_hd__a21o_1
*I *1605:B1 I *D sky130_fd_sc_hd__a211oi_2
*I *1596:X O *D sky130_fd_sc_hd__or4_4
*CAP
1 *1598:C1 0
2 *1808:A 0
3 *1601:B1 0
4 *1599:A4 0.000329935
5 *1641:B1 0.000184938
6 *1605:B1 9.78133e-05
7 *1596:X 0
8 *337:66 8.01119e-05
9 *337:60 0.000324354
10 *337:29 0.000514873
11 *337:18 0.000187713
12 *337:16 0.000562139
13 *337:6 0.000716481
14 *1599:A4 *369:6 0.000264564
15 *1599:A4 *369:10 0.000122599
16 *1599:A4 *547:82 1.40958e-05
17 *1605:B1 *454:44 0.000243587
18 *1605:B1 *543:76 1.01436e-05
19 *1605:B1 *543:95 0.000234663
20 *1641:B1 *1641:A1 8.06804e-06
21 *1641:B1 *369:10 0.000278288
22 *1641:B1 *380:27 1.94693e-05
23 *1641:B1 *412:6 0.000180218
24 *1641:B1 *412:29 0.000167786
25 *337:16 *454:44 0.000585905
26 *337:16 *524:64 5.02006e-05
27 *337:16 *536:70 0
28 *337:16 *540:10 0.00012516
29 *337:16 *540:12 3.53031e-05
30 *337:16 *540:18 0.000221592
31 *337:16 *543:95 6.72009e-05
32 *337:18 *412:29 0.000136486
33 *337:18 *454:44 0.000189621
34 *337:18 *543:95 1.68198e-05
35 *337:60 *524:64 8.51329e-05
36 *337:60 *536:70 0
37 *337:60 *538:12 0
38 *337:60 *547:45 3.7122e-06
39 *337:66 *358:8 0.000113153
40 *337:66 *524:64 2.70469e-05
41 *337:66 *554:75 0
42 *182:16 *337:66 8.62783e-05
43 *242:8 *337:16 9.5877e-05
*RES
1 *1596:X *337:6 38 
2 *337:6 *337:16 40.5436 
3 *337:16 *337:18 2.61 
4 *337:18 *1605:B1 41.3143 
5 *337:18 *337:29 15 
6 *337:29 *1641:B1 28.2821 
7 *337:29 *1599:A4 28.7586 
8 *337:16 *1601:B1 38 
9 *337:6 *337:60 19.3086 
10 *337:60 *337:66 32.2579 
11 *337:66 *1808:A 23 
12 *337:60 *1598:C1 23 
*END

*D_NET *338 0.00162619
*CONN
*I *1970:B1 I *D sky130_fd_sc_hd__a21o_1
*I *1957:B I *D sky130_fd_sc_hd__xnor2_1
*I *1956:X O *D sky130_fd_sc_hd__o21a_1
*CAP
1 *1970:B1 7.00503e-05
2 *1957:B 5.72879e-05
3 *1956:X 0.000233568
4 *338:8 0.000360906
5 *1957:B *1957:A 0.000139352
6 *1957:B *2008:A1 5.3304e-05
7 *1970:B1 *2008:A1 0.000167452
8 *1970:B1 *393:10 8.68016e-06
9 *1970:B1 *535:82 0.000222113
10 *1970:B1 *553:68 3.70187e-05
11 *338:8 *339:10 0
12 *338:8 *393:10 6.33614e-05
13 *338:8 *498:62 4.67998e-05
14 *338:8 *535:82 5.94125e-05
15 *338:8 *537:12 2.06022e-05
16 *338:8 *537:42 8.62783e-05
17 *338:8 *554:111 0
*RES
1 *1956:X *338:8 42.7229 
2 *338:8 *1957:B 39.5743 
3 *338:8 *1970:B1 40.9621 
*END

*D_NET *339 0.000641645
*CONN
*I *1958:B I *D sky130_fd_sc_hd__or2_1
*I *1959:B I *D sky130_fd_sc_hd__nand2_1
*I *1957:Y O *D sky130_fd_sc_hd__xnor2_1
*CAP
1 *1958:B 1.9139e-05
2 *1959:B 0
3 *1957:Y 0.000163931
4 *339:12 1.9139e-05
5 *339:10 0.000163931
6 *1958:B *1958:A 5.50049e-05
7 *1958:B *341:6 5.3304e-05
8 *339:10 *534:145 0.000161121
9 *339:10 *554:111 6.07611e-06
10 *338:8 *339:10 0
*RES
1 *1957:Y *339:10 40.8793 
2 *339:10 *339:12 15 
3 *339:12 *1959:B 23 
4 *339:12 *1958:B 23.6214 
*END

*D_NET *340 0.000186828
*CONN
*I *1960:A I *D sky130_fd_sc_hd__and2_1
*I *1958:X O *D sky130_fd_sc_hd__or2_1
*CAP
1 *1960:A 1.48031e-05
2 *1958:X 1.48031e-05
3 *1960:A *341:6 0.00010018
4 *1960:A *397:14 5.70419e-05
*RES
1 *1958:X *1960:A 47.0979 
*END

*D_NET *341 0.00267591
*CONN
*I *1975:A1 I *D sky130_fd_sc_hd__a31o_1
*I *1974:A1 I *D sky130_fd_sc_hd__a21oi_1
*I *1960:B I *D sky130_fd_sc_hd__and2_1
*I *1959:Y O *D sky130_fd_sc_hd__nand2_1
*CAP
1 *1975:A1 1.38584e-05
2 *1974:A1 0.000173797
3 *1960:B 2.34823e-05
4 *1959:Y 8.87961e-05
5 *341:19 0.000442249
6 *341:6 0.000366872
7 *1974:A1 *1975:A3 0.000114074
8 *1974:A1 *2050:C1 0
9 *1974:A1 *343:29 9.07778e-05
10 *1975:A1 *2050:C1 0
11 *341:6 *1958:A 7.27182e-05
12 *341:6 *359:14 0.000442766
13 *341:6 *397:14 6.52495e-05
14 *341:19 *2050:C1 0
15 *341:19 *342:6 5.3304e-05
16 *341:19 *343:29 3.35885e-06
17 *341:19 *359:14 0.000397596
18 *341:19 *397:14 0.000173529
19 *1958:B *341:6 5.3304e-05
20 *1960:A *341:6 0.00010018
21 *1963:A_N *341:19 0
*RES
1 *1959:Y *341:6 27.9093 
2 *341:6 *1960:B 23.4971 
3 *341:6 *341:19 21.8668 
4 *341:19 *1974:A1 41.6768 
5 *341:19 *1975:A1 38.3211 
*END

*D_NET *342 0.0011402
*CONN
*I *1961:B I *D sky130_fd_sc_hd__nand2_1
*I *1962:B I *D sky130_fd_sc_hd__or2_1
*I *1960:X O *D sky130_fd_sc_hd__and2_1
*CAP
1 *1961:B 0
2 *1962:B 0
3 *1960:X 2.32701e-05
4 *342:14 0.000143215
5 *342:6 0.000166485
6 *342:6 *397:14 5.3304e-05
7 *342:14 *1963:B 0.000108681
8 *342:14 *343:23 5.94125e-05
9 *342:14 *344:6 0.000180218
10 *1962:A *342:14 9.84851e-05
11 *1963:A_N *342:14 0.00015795
12 *336:18 *342:14 9.58714e-05
13 *341:19 *342:6 5.3304e-05
*RES
1 *1960:X *342:6 23.6214 
2 *342:6 *342:14 34.3086 
3 *342:14 *1962:B 23 
4 *342:6 *1961:B 23 
*END

*D_NET *343 0.00233158
*CONN
*I *1975:A2 I *D sky130_fd_sc_hd__a31o_1
*I *1974:A2 I *D sky130_fd_sc_hd__a21oi_1
*I *1963:B I *D sky130_fd_sc_hd__and3b_1
*I *1961:Y O *D sky130_fd_sc_hd__nand2_1
*CAP
1 *1975:A2 0.000130034
2 *1974:A2 0
3 *1963:B 0.000170536
4 *1961:Y 8.81957e-05
5 *343:29 0.000100748
6 *343:23 0.000527559
7 *343:8 0.000555509
8 *1963:B *345:10 6.07611e-06
9 *1963:B *433:10 0
10 *1963:B *534:145 0
11 *1975:A2 *1975:A3 2.93845e-05
12 *1975:A2 *1976:B 0
13 *343:8 *397:14 9.41704e-05
14 *343:23 *534:145 0
15 *343:29 *1975:A3 2.04774e-05
16 *1963:A_N *1963:B 2.49733e-05
17 *1963:A_N *343:23 8.57765e-05
18 *1963:A_N *343:29 3.0647e-05
19 *1974:A1 *343:29 9.07778e-05
20 *1975:B1 *1975:A2 5.41385e-05
21 *1975:B1 *343:23 5.12254e-05
22 *192:99 *343:29 9.98995e-05
23 *341:19 *343:29 3.35885e-06
24 *342:14 *1963:B 0.000108681
25 *342:14 *343:23 5.94125e-05
*RES
1 *1961:Y *343:8 39.0979 
2 *343:8 *1963:B 40.9621 
3 *343:8 *343:23 20.365 
4 *343:23 *343:29 33.3143 
5 *343:29 *1974:A2 23 
6 *343:23 *1975:A2 25.5479 
*END

*D_NET *344 0.000880018
*CONN
*I *1963:C I *D sky130_fd_sc_hd__and3b_1
*I *1962:X O *D sky130_fd_sc_hd__or2_1
*CAP
1 *1963:C 0
2 *1962:X 0.000311089
3 *344:6 0.000311089
4 *1962:A *344:6 4.95081e-05
5 *336:18 *344:6 2.81138e-05
6 *342:14 *344:6 0.000180218
*RES
1 *1962:X *344:6 27.4329 
2 *344:6 *1963:C 23 
*END

*D_NET *345 0.00773027
*CONN
*I *1968:B1 I *D sky130_fd_sc_hd__a31o_1
*I *1963:X O *D sky130_fd_sc_hd__and3b_1
*CAP
1 *1968:B1 0
2 *1963:X 0
3 *345:12 0.00103381
4 *345:10 0.00155016
5 *345:6 0.000516354
6 *345:10 *534:145 0
7 *345:12 *524:52 0.000727942
8 *345:12 *524:56 8.48502e-06
9 *345:12 *538:20 0.000168975
10 *1835:A2 *345:12 0.000182702
11 *1963:B *345:10 6.07611e-06
12 *196:46 *345:12 0.000154747
13 *196:63 *345:12 2.63049e-05
14 *196:74 *345:10 0.000404986
15 *196:74 *345:12 0.000297212
16 *196:93 *345:10 0.000408138
17 *297:8 *345:10 0
18 *302:14 *345:12 0.00213322
19 *332:29 *345:10 0.000111158
*RES
1 *1963:X *345:6 38 
2 *345:6 *345:10 28.1743 
3 *345:10 *345:12 32.0657 
4 *345:12 *1968:B1 23 
*END

*D_NET *346 0.000610945
*CONN
*I *1965:B2 I *D sky130_fd_sc_hd__o22a_1
*I *1964:Y O *D sky130_fd_sc_hd__a21oi_1
*CAP
1 *1965:B2 0
2 *1964:Y 0.00018339
3 *346:10 0.00018339
4 *346:10 *1964:A2 3.75171e-05
5 *346:10 *347:10 5.67058e-05
6 *346:10 *537:42 6.38845e-05
7 *346:10 *537:46 2.93845e-05
8 *1920:B1 *346:10 1.22906e-05
9 *190:67 *346:10 4.4382e-05
*RES
1 *1964:Y *346:10 41.2521 
2 *346:10 *1965:B2 38 
*END

*D_NET *347 0.000775445
*CONN
*I *1967:C1 I *D sky130_fd_sc_hd__a221o_1
*I *1965:X O *D sky130_fd_sc_hd__o22a_1
*CAP
1 *1967:C1 0
2 *1965:X 0.000190835
3 *347:10 0.000190835
4 *347:10 *1964:A2 0.000139346
5 *347:10 *497:87 1.19692e-05
6 *347:10 *534:145 0
7 *347:10 *554:98 0.000185755
8 *346:10 *347:10 5.67058e-05
*RES
1 *1965:X *347:10 42.1843 
2 *347:10 *1967:C1 38 
*END

*D_NET *348 0.00420876
*CONN
*I *1807:C I *D sky130_fd_sc_hd__or3_1
*I *1598:D1 I *D sky130_fd_sc_hd__a2111oi_1
*I *1601:C1 I *D sky130_fd_sc_hd__a211o_1
*I *1599:A3 I *D sky130_fd_sc_hd__o41ai_4
*I *1597:X O *D sky130_fd_sc_hd__or2_4
*CAP
1 *1807:C 0
2 *1598:D1 0
3 *1601:C1 8.63805e-05
4 *1599:A3 0.000168015
5 *1597:X 0
6 *348:53 0.000355298
7 *348:32 0.000535867
8 *348:10 0.000525834
9 *348:6 0.000452007
10 *1599:A3 *1607:B1 9.85586e-06
11 *1599:A3 *369:48 0.000217408
12 *1599:A3 *434:51 5.85467e-05
13 *1599:A3 *440:14 2.22373e-05
14 *1599:A3 *540:18 2.29617e-05
15 *1601:C1 *1601:A1 1.75562e-05
16 *1601:C1 *1832:B1 1.73928e-05
17 *1601:C1 *412:29 3.74519e-05
18 *1601:C1 *547:37 0.000137651
19 *348:10 *434:51 4.99125e-06
20 *348:10 *540:10 3.70187e-05
21 *348:10 *540:12 4.45839e-05
22 *348:10 *540:18 0.000328427
23 *348:10 *547:45 0.000172508
24 *348:32 *524:64 0.000231825
25 *348:32 *540:10 3.8776e-05
26 *348:32 *547:45 0.000303616
27 *348:53 *1598:A1 5.50106e-05
28 *348:53 *524:64 1.38978e-05
29 *348:53 *529:43 1.79749e-05
30 *348:53 *550:67 5.50049e-05
31 *348:53 *563:77 0
32 *1598:A2 *348:53 9.67842e-05
33 *197:63 *348:53 0.000133385
34 *199:51 *348:53 0
35 *326:78 *348:32 7.73823e-06
36 *326:78 *348:53 2.75733e-06
*RES
1 *1597:X *348:6 38 
2 *348:6 *348:10 6.40071 
3 *348:10 *1599:A3 41.6664 
4 *348:10 *1601:C1 40.0714 
5 *348:6 *348:32 4.72286 
6 *348:32 *1598:D1 38 
7 *348:32 *348:53 33.8351 
8 *348:53 *1807:C 23 
*END

*D_NET *349 0.000256809
*CONN
*I *1969:A I *D sky130_fd_sc_hd__or3_1
*I *1966:X O *D sky130_fd_sc_hd__a32o_1
*CAP
1 *1969:A 4.45235e-05
2 *1966:X 4.45235e-05
3 *1969:A *1966:A2 2.02872e-05
4 *1969:A *1969:C 5.3304e-05
5 *205:38 *1969:A 9.41704e-05
*RES
1 *1966:X *1969:A 47.0979 
*END

*D_NET *350 0.00103486
*CONN
*I *1969:B I *D sky130_fd_sc_hd__or3_1
*I *1967:X O *D sky130_fd_sc_hd__a221o_1
*CAP
1 *1969:B 0
2 *1967:X 0.000303811
3 *350:14 0.000303811
4 *350:14 *507:8 9.5877e-05
5 *205:38 *350:14 0.000276347
6 *298:8 *350:14 5.50106e-05
*RES
1 *1967:X *350:14 28.7171 
2 *350:14 *1969:B 23 
*END

*D_NET *351 0.00533137
*CONN
*I *1969:C I *D sky130_fd_sc_hd__or3_1
*I *1968:X O *D sky130_fd_sc_hd__a31o_1
*CAP
1 *1969:C 4.45235e-05
2 *1968:X 0.000464989
3 *351:18 0.00109831
4 *351:10 0.00151878
5 *1969:C *1966:A2 9.41704e-05
6 *351:18 *490:27 0.000216721
7 *351:18 *563:69 0.00026599
8 *1969:A *1969:C 5.3304e-05
9 *182:40 *351:18 2.19571e-05
10 *197:28 *351:18 1.05441e-05
11 *197:40 *351:18 2.26497e-05
12 *199:51 *351:10 8.4047e-05
13 *199:95 *351:18 4.1581e-05
14 *205:38 *1969:C 2.02872e-05
15 *302:14 *351:10 0.000520201
16 *326:78 *351:18 0.000853316
*RES
1 *1968:X *351:10 45.0636 
2 *351:10 *351:18 46.675 
3 *351:18 *1969:C 39.0979 
*END

*D_NET *352 0.00166119
*CONN
*I *1971:B I *D sky130_fd_sc_hd__xor2_1
*I *2015:B1 I *D sky130_fd_sc_hd__a21o_1
*I *1970:X O *D sky130_fd_sc_hd__a21o_1
*CAP
1 *1971:B 0.000240183
2 *2015:B1 0
3 *1970:X 0.000219769
4 *352:10 0.000459952
5 *1971:B *400:10 4.55358e-05
6 *1971:B *402:10 0.000274078
7 *1971:B *507:12 0
8 *1971:B *534:145 0
9 *1971:B *553:68 3.92407e-05
10 *352:10 *507:12 0
11 *352:10 *553:47 2.45549e-06
12 *352:10 *553:68 0.000166522
13 *191:76 *352:10 7.03766e-05
14 *192:97 *1971:B 0.000143071
*RES
1 *1970:X *352:10 41.8321 
2 *352:10 *2015:B1 38 
3 *352:10 *1971:B 44.9186 
*END

*D_NET *353 0.00130804
*CONN
*I *1972:A I *D sky130_fd_sc_hd__inv_2
*I *1973:B I *D sky130_fd_sc_hd__xor2_1
*I *1971:X O *D sky130_fd_sc_hd__xor2_1
*CAP
1 *1972:A 0
2 *1973:B 0
3 *1971:X 7.4127e-05
4 *353:19 0.000178679
5 *353:6 0.000252806
6 *353:6 *402:10 0.000404502
7 *353:19 *354:10 0.000138727
8 *353:19 *402:10 9.84794e-05
9 *192:97 *353:6 0.000160715
*RES
1 *1971:X *353:6 27.4329 
2 *353:6 *1973:B 23 
3 *353:6 *353:19 34.06 
4 *353:19 *1972:A 23 
*END

*D_NET *354 0.000750689
*CONN
*I *2013:A2 I *D sky130_fd_sc_hd__a21oi_1
*I *1972:Y O *D sky130_fd_sc_hd__inv_2
*CAP
1 *2013:A2 0
2 *1972:Y 0.000201996
3 *354:10 0.000201996
4 *354:10 *355:8 0.000113624
5 *354:10 *553:74 8.51432e-05
6 *192:97 *354:10 9.20311e-06
7 *353:19 *354:10 0.000138727
*RES
1 *1972:Y *354:10 43.3443 
2 *354:10 *2013:A2 38 
*END

*D_NET *355 0.00123947
*CONN
*I *1974:B1 I *D sky130_fd_sc_hd__a21oi_1
*I *1975:A3 I *D sky130_fd_sc_hd__a31o_1
*I *1973:X O *D sky130_fd_sc_hd__xor2_1
*CAP
1 *1974:B1 0
2 *1975:A3 0.000173825
3 *1973:X 0.000267224
4 *355:8 0.000441049
5 *1975:A3 *1976:B 0
6 *1975:A3 *2050:C1 0
7 *355:8 *2050:C1 0
8 *355:8 *356:14 0
9 *355:8 *398:10 7.98155e-05
10 *1974:A1 *1975:A3 0.000114074
11 *1975:A2 *1975:A3 2.93845e-05
12 *192:97 *355:8 0
13 *192:99 *355:8 0
14 *343:29 *1975:A3 2.04774e-05
15 *354:10 *355:8 0.000113624
*RES
1 *1973:X *355:8 44.1314 
2 *355:8 *1975:A3 41.8529 
3 *355:8 *1974:B1 38 
*END

*D_NET *356 0.00172229
*CONN
*I *1976:A I *D sky130_fd_sc_hd__nor2_1
*I *2013:B1 I *D sky130_fd_sc_hd__a21oi_1
*I *1974:Y O *D sky130_fd_sc_hd__a21oi_1
*CAP
1 *1976:A 0
2 *2013:B1 0
3 *1974:Y 0.00017345
4 *356:27 0.000205793
5 *356:14 0.00025575
6 *356:6 0.000634993
7 *356:14 *2050:C1 0.000111852
8 *356:14 *398:10 2.71291e-05
9 *356:14 *403:8 4.6318e-06
10 *356:27 *2050:C1 8.40811e-05
11 *2018:A *356:14 0.000224605
12 *355:8 *356:14 0
*RES
1 *1974:Y *356:6 25.5271 
2 *356:6 *356:14 35.1371 
3 *356:14 *2013:B1 23 
4 *356:6 *356:27 34.4121 
5 *356:27 *1976:A 23 
*END

*D_NET *357 0.000140539
*CONN
*I *1976:B I *D sky130_fd_sc_hd__nor2_1
*I *1975:X O *D sky130_fd_sc_hd__a31o_1
*CAP
1 *1976:B 7.02696e-05
2 *1975:X 7.02696e-05
3 *1975:A2 *1976:B 0
4 *1975:A3 *1976:B 0
*RES
1 *1975:X *1976:B 47.1186 
*END

*D_NET *358 0.00100814
*CONN
*I *2131:A I *D sky130_fd_sc_hd__clkbuf_1
*I *1598:Y O *D sky130_fd_sc_hd__a2111oi_1
*CAP
1 *2131:A 0.000230725
2 *1598:Y 6.36028e-05
3 *358:8 0.000294328
4 *2131:A *552:116 5.67058e-05
5 *358:8 *524:64 0.000137788
6 *358:8 *554:75 0
7 *182:16 *2131:A 4.67488e-05
8 *183:8 *2131:A 6.50913e-05
9 *337:66 *358:8 0.000113153
*RES
1 *1598:Y *358:8 39.9057 
2 *358:8 *2131:A 42.4329 
*END

*D_NET *359 0.00494007
*CONN
*I *2011:B1 I *D sky130_fd_sc_hd__a211o_1
*I *1976:Y O *D sky130_fd_sc_hd__nor2_1
*CAP
1 *2011:B1 0
2 *1976:Y 6.90544e-05
3 *359:14 0.0012944
4 *359:8 0.00136346
5 *359:8 *2050:C1 0.000114092
6 *359:14 *1958:A 1.41077e-05
7 *359:14 *393:10 0.000138444
8 *359:14 *397:14 0.00103292
9 *2011:A1 *359:14 2.64616e-05
10 *190:93 *359:14 2.35777e-05
11 *326:56 *359:14 2.31875e-05
12 *341:6 *359:14 0.000442766
13 *341:19 *359:14 0.000397596
*RES
1 *1976:Y *359:8 39.5536 
2 *359:8 *359:14 41.245 
3 *359:14 *2011:B1 23 
*END

*D_NET *360 0.00343494
*CONN
*I *2003:A I *D sky130_fd_sc_hd__xnor2_1
*I *2002:A I *D sky130_fd_sc_hd__and3_1
*I *1977:X O *D sky130_fd_sc_hd__a21o_1
*CAP
1 *2003:A 0
2 *2002:A 0
3 *1977:X 0.00023333
4 *360:12 0.000279391
5 *360:8 0.000512721
6 *360:8 *386:12 3.70094e-05
7 *360:8 *388:10 0.000299178
8 *360:8 *431:10 0
9 *360:12 *386:12 0.00102664
10 *360:12 *555:14 0.00102125
11 *323:14 *360:8 0
12 *324:10 *360:8 2.5415e-05
*RES
1 *1977:X *360:8 43.075 
2 *360:8 *360:12 28.5264 
3 *360:12 *2002:A 23 
4 *360:8 *2003:A 38 
*END

*D_NET *361 0.00162124
*CONN
*I *1980:A I *D sky130_fd_sc_hd__or2_1
*I *2020:A I *D sky130_fd_sc_hd__xnor2_1
*I *1978:X O *D sky130_fd_sc_hd__o211a_1
*CAP
1 *1980:A 2.73013e-05
2 *2020:A 0.000265305
3 *1978:X 0.000107223
4 *361:8 0.000399829
5 *1980:A *363:10 1.05235e-05
6 *1980:A *535:28 5.50106e-05
7 *2020:A *362:8 4.6318e-06
8 *2020:A *363:10 0.000167443
9 *2020:A *555:14 0
10 *361:8 *362:8 0.000100625
11 *323:14 *2020:A 0.000279927
12 *323:14 *361:8 0.000203416
*RES
1 *1978:X *361:8 40.9621 
2 *361:8 *2020:A 44.1936 
3 *361:8 *1980:A 38.6214 
*END

*D_NET *362 0.00056971
*CONN
*I *1980:B I *D sky130_fd_sc_hd__or2_1
*I *1979:Y O *D sky130_fd_sc_hd__a211oi_1
*CAP
1 *1980:B 2.24548e-05
2 *1979:Y 0.000171675
3 *362:8 0.00019413
4 *1980:B *535:28 5.50106e-05
5 *362:8 *529:116 2.11827e-05
6 *362:8 *555:14 0
7 *2020:A *362:8 4.6318e-06
8 *361:8 *362:8 0.000100625
*RES
1 *1979:Y *362:8 40.9621 
2 *362:8 *1980:B 38.6214 
*END

*D_NET *363 0.00150658
*CONN
*I *1999:B1 I *D sky130_fd_sc_hd__o21ai_1
*I *2000:A I *D sky130_fd_sc_hd__or3_1
*I *1980:X O *D sky130_fd_sc_hd__or2_1
*CAP
1 *1999:B1 0
2 *2000:A 0.000136621
3 *1980:X 0.000433851
4 *363:10 0.000570472
5 *2000:A *382:16 6.53342e-05
6 *2000:A *383:23 0
7 *2000:A *430:8 0
8 *363:10 *384:10 0
9 *363:10 *387:8 5.51058e-05
10 *363:10 *430:8 0
11 *363:10 *535:28 2.92911e-06
12 *363:10 *555:14 0
13 *1980:A *363:10 1.05235e-05
14 *2020:A *363:10 0.000167443
15 *310:10 *2000:A 0
16 *310:10 *363:10 0
17 *323:14 *363:10 6.43005e-05
*RES
1 *1980:X *363:10 46.6379 
2 *363:10 *2000:A 40.9621 
3 *363:10 *1999:B1 38 
*END

*D_NET *364 0.000358196
*CONN
*I *1985:A I *D sky130_fd_sc_hd__xnor2_1
*I *1981:Y O *D sky130_fd_sc_hd__nand2_1
*CAP
1 *1985:A 0
2 *1981:Y 0.000170273
3 *364:10 0.000170273
4 *364:10 *1981:A 6.17437e-06
5 *364:10 *367:14 0
6 *364:10 *426:10 0
7 *364:10 *490:27 0
8 *364:10 *537:84 1.14762e-05
*RES
1 *1981:Y *364:10 40.8793 
2 *364:10 *1985:A 38 
*END

*D_NET *365 0.000619293
*CONN
*I *1984:A I *D sky130_fd_sc_hd__nor2_1
*I *1982:Y O *D sky130_fd_sc_hd__a22oi_1
*CAP
1 *1984:A 0
2 *1982:Y 0.000218364
3 *365:10 0.000218364
4 *365:10 *521:39 5.79427e-05
5 *365:10 *527:30 0
6 *365:10 *541:36 5.3304e-05
7 *365:10 *565:62 2.64616e-05
8 *365:10 *566:31 0
9 *305:8 *365:10 4.48568e-05
*RES
1 *1982:Y *365:10 41.5836 
2 *365:10 *1984:A 38 
*END

*D_NET *366 0.00113953
*CONN
*I *1984:B I *D sky130_fd_sc_hd__nor2_1
*I *2038:B1 I *D sky130_fd_sc_hd__a31o_1
*I *1983:X O *D sky130_fd_sc_hd__and4_1
*CAP
1 *1984:B 8.20004e-05
2 *2038:B1 0
3 *1983:X 0.000143278
4 *366:12 8.20004e-05
5 *366:10 0.000143278
6 *1984:B *1981:A 5.50049e-05
7 *1984:B *367:6 0.00014196
8 *1984:B *535:28 9.74722e-05
9 *1984:B *537:84 9.41704e-05
10 *366:10 *1983:C 5.3304e-05
11 *366:10 *490:27 0
12 *366:10 *525:92 0.000182585
13 *366:10 *535:28 3.71198e-05
14 *366:10 *538:63 1.14452e-05
15 *366:10 *565:62 1.59094e-05
*RES
1 *1983:X *366:10 41.2314 
2 *366:10 *366:12 15 
3 *366:12 *2038:B1 23 
4 *366:12 *1984:B 26.0036 
*END

*D_NET *367 0.00089825
*CONN
*I *2038:A3 I *D sky130_fd_sc_hd__a31o_1
*I *1985:B I *D sky130_fd_sc_hd__xnor2_1
*I *1984:Y O *D sky130_fd_sc_hd__nor2_1
*CAP
1 *2038:A3 0
2 *1985:B 0
3 *1984:Y 8.67027e-05
4 *367:14 0.000241699
5 *367:6 0.000328401
6 *367:6 *535:28 1.76557e-05
7 *367:14 *2038:A2 1.14452e-05
8 *367:14 *426:10 7.03869e-05
9 *1984:B *367:6 0.00014196
10 *364:10 *367:14 0
*RES
1 *1984:Y *367:6 25.0507 
2 *367:6 *367:14 34.6607 
3 *367:14 *1985:B 23 
4 *367:6 *2038:A3 23 
*END

*D_NET *368 0.00205735
*CONN
*I *1996:A I *D sky130_fd_sc_hd__xor2_1
*I *2039:A1 I *D sky130_fd_sc_hd__a21oi_1
*I *1985:Y O *D sky130_fd_sc_hd__xnor2_1
*CAP
1 *1996:A 0
2 *2039:A1 0
3 *1985:Y 0.000496971
4 *368:18 6.62916e-05
5 *368:12 0.000255376
6 *368:8 0.000686056
7 *368:8 *426:10 0.000266712
8 *368:18 *378:16 7.03766e-05
9 *368:18 *426:10 4.58924e-05
10 *1938:A *368:8 0
11 *1939:A *368:8 0
12 *311:10 *368:8 0
13 *316:10 *368:8 0
14 *317:34 *368:8 0
15 *318:8 *368:8 0.000169674
*RES
1 *1985:Y *368:8 48.7093 
2 *368:8 *368:12 18.0036 
3 *368:12 *368:18 31.9057 
4 *368:18 *2039:A1 23 
5 *368:12 *1996:A 23 
*END

*D_NET *369 0.00387885
*CONN
*I *1607:A1 I *D sky130_fd_sc_hd__a21oi_1
*I *1641:A2 I *D sky130_fd_sc_hd__a21o_1
*I *1605:A2 I *D sky130_fd_sc_hd__a211oi_2
*I *1604:B1_N I *D sky130_fd_sc_hd__o21bai_1
*I *1608:A2 I *D sky130_fd_sc_hd__a211o_1
*I *1599:Y O *D sky130_fd_sc_hd__o41ai_4
*CAP
1 *1607:A1 0
2 *1641:A2 0
3 *1605:A2 0
4 *1604:B1_N 6.61764e-05
5 *1608:A2 0.000140498
6 *1599:Y 8.31627e-05
7 *369:48 8.58929e-05
8 *369:25 6.61764e-05
9 *369:14 0.000215634
10 *369:10 0.000272866
11 *369:6 0.000366786
12 *1604:B1_N *1604:A1 0.000267167
13 *1604:B1_N *550:32 0.000267167
14 *1608:A2 *412:12 0.000240416
15 *1608:A2 *474:14 0
16 *1608:A2 *542:133 5.94125e-05
17 *369:6 *1599:A2 0.00011639
18 *369:6 *547:82 2.93845e-05
19 *369:10 *1599:A2 2.93845e-05
20 *369:10 *1641:A1 0.000103048
21 *369:14 *412:12 0.000191157
22 *369:14 *542:133 0.000181013
23 *369:48 *540:18 0.000214256
24 *1599:A3 *369:48 0.000217408
25 *1599:A4 *369:6 0.000264564
26 *1599:A4 *369:10 0.000122599
27 *1641:B1 *369:10 0.000278288
*RES
1 *1599:Y *369:6 26.0036 
2 *369:6 *369:10 4.93 
3 *369:10 *369:14 17.61 
4 *369:14 *1608:A2 41.3143 
5 *369:14 *369:25 15 
6 *369:25 *1604:B1_N 26.0036 
7 *369:25 *1605:A2 23 
8 *369:10 *1641:A2 23 
9 *369:6 *369:48 32.9621 
10 *369:48 *1607:A1 23 
*END

*D_NET *370 0.00139715
*CONN
*I *1991:A I *D sky130_fd_sc_hd__xor2_1
*I *2031:A1 I *D sky130_fd_sc_hd__o21bai_1
*I *1986:Y O *D sky130_fd_sc_hd__nand2_1
*CAP
1 *1991:A 0
2 *2031:A1 0.000243657
3 *1986:Y 0.000135915
4 *370:8 0.000379571
5 *2031:A1 *1989:A1 7.00619e-05
6 *2031:A1 *1989:A2 1.46586e-05
7 *2031:A1 *2031:A2 0.000287419
8 *2031:A1 *492:81 2.80394e-05
9 *2031:A1 *554:135 5.3304e-05
10 *370:8 *1986:A 0.000184527
*RES
1 *1986:Y *370:8 26.5007 
2 *370:8 *2031:A1 29.525 
3 *370:8 *1991:A 23 
*END

*D_NET *371 0.000374116
*CONN
*I *2034:A I *D sky130_fd_sc_hd__xor2_1
*I *1987:Y O *D sky130_fd_sc_hd__nand2_1
*CAP
1 *2034:A 0.000187058
2 *1987:Y 0.000187058
3 *2034:A *2033:A 0
4 *2034:A *2033:B 0
*RES
1 *1987:Y *2034:A 49.0243 
*END

*D_NET *372 0.00133908
*CONN
*I *1990:A I *D sky130_fd_sc_hd__or2_1
*I *2031:B1_N I *D sky130_fd_sc_hd__o21bai_1
*I *1988:X O *D sky130_fd_sc_hd__and3_1
*CAP
1 *1990:A 0.000230138
2 *2031:B1_N 0
3 *1988:X 0
4 *372:12 0.000221154
5 *372:4 0.000451292
6 *1990:A *1988:A 5.50106e-05
7 *1990:A *373:21 5.3304e-05
8 *1990:A *448:22 1.95448e-05
9 *1990:A *549:72 3.71251e-05
10 *1990:A *549:81 4.75206e-05
11 *372:12 *1988:A 0
12 *372:12 *492:81 6.38845e-05
13 *372:12 *549:72 1.91479e-05
14 *372:12 *554:23 0.000140958
*RES
1 *1988:X *372:4 23 
2 *372:4 *372:12 33.9564 
3 *372:12 *2031:B1_N 23 
4 *372:4 *1990:A 27.8057 
*END

*D_NET *373 0.00138683
*CONN
*I *1990:B I *D sky130_fd_sc_hd__or2_1
*I *2031:A2 I *D sky130_fd_sc_hd__o21bai_1
*I *1989:Y O *D sky130_fd_sc_hd__a22oi_1
*CAP
1 *1990:B 0
2 *2031:A2 0.000226798
3 *1989:Y 0
4 *373:21 0.000186105
5 *373:4 0.000412902
6 *2031:A2 *1989:A1 3.53115e-05
7 *373:21 *1989:B1 1.37246e-05
8 *373:21 *374:10 0
9 *373:21 *492:73 0.000111852
10 *373:21 *518:31 0
11 *373:21 *554:135 5.94125e-05
12 *1990:A *373:21 5.3304e-05
13 *2031:A1 *2031:A2 0.000287419
*RES
1 *1989:Y *373:4 23 
2 *373:4 *2031:A2 27.8057 
3 *373:4 *373:21 33.5836 
4 *373:21 *1990:B 23 
*END

*D_NET *374 0.000450792
*CONN
*I *1991:B I *D sky130_fd_sc_hd__xor2_1
*I *1990:X O *D sky130_fd_sc_hd__or2_1
*CAP
1 *1991:B 0
2 *1990:X 0.000191446
3 *374:10 0.000191446
4 *374:10 *375:8 0
5 *374:10 *518:31 6.79006e-05
6 *373:21 *374:10 0
*RES
1 *1990:X *374:10 40.8793 
2 *374:10 *1991:B 38 
*END

*D_NET *375 0.00223682
*CONN
*I *1992:C I *D sky130_fd_sc_hd__nor3_1
*I *1993:B1 I *D sky130_fd_sc_hd__o21a_1
*I *1991:X O *D sky130_fd_sc_hd__xor2_1
*CAP
1 *1992:C 0
2 *1993:B1 0.000108097
3 *1991:X 0.000210459
4 *375:12 0.000528901
5 *375:8 0.000631263
6 *1993:B1 *376:8 0.000228001
7 *375:8 *518:31 0.000151497
8 *375:8 *546:35 1.86869e-05
9 *375:8 *546:44 0.000146245
10 *1992:B *375:12 1.76557e-05
11 *1993:A1 *1993:B1 5.49603e-05
12 *1993:A1 *375:12 0.000141052
13 *374:10 *375:8 0
*RES
1 *1991:X *375:8 44.4836 
2 *375:8 *375:12 22.7679 
3 *375:12 *1993:B1 26.5214 
4 *375:12 *1992:C 23 
*END

*D_NET *376 0.000892423
*CONN
*I *1994:A I *D sky130_fd_sc_hd__or2_1
*I *1992:Y O *D sky130_fd_sc_hd__nor3_1
*CAP
1 *1994:A 0
2 *1992:Y 0.000226296
3 *376:8 0.000226296
4 *376:8 *2039:A2 0
5 *376:8 *2039:B1 3.53115e-05
6 *376:8 *377:6 2.30292e-05
7 *376:8 *378:8 0
8 *1992:B *376:8 5.50049e-05
9 *1993:A2 *376:8 9.84851e-05
10 *1993:B1 *376:8 0.000228001
*RES
1 *1992:Y *376:8 28.7586 
2 *376:8 *1994:A 23 
*END

*D_NET *377 0.00041085
*CONN
*I *2039:B1 I *D sky130_fd_sc_hd__a21oi_1
*I *1994:B I *D sky130_fd_sc_hd__or2_1
*I *1993:X O *D sky130_fd_sc_hd__o21a_1
*CAP
1 *2039:B1 0.000134253
2 *1994:B 0
3 *1993:X 2.73094e-05
4 *377:6 0.000161563
5 *2039:B1 *378:8 2.93845e-05
6 *376:8 *2039:B1 3.53115e-05
7 *376:8 *377:6 2.30292e-05
*RES
1 *1993:X *377:6 23.6214 
2 *377:6 *1994:B 23 
3 *377:6 *2039:B1 25.5271 
*END

*D_NET *378 0.000860389
*CONN
*I *1995:A I *D sky130_fd_sc_hd__inv_2
*I *1996:B I *D sky130_fd_sc_hd__xor2_1
*I *1994:X O *D sky130_fd_sc_hd__or2_1
*CAP
1 *1995:A 0
2 *1996:B 0
3 *1994:X 0.000152021
4 *378:16 0.000206441
5 *378:8 0.000358462
6 *378:8 *2039:A2 4.37033e-05
7 *378:16 *426:10 0
8 *378:16 *429:8 0
9 *2039:B1 *378:8 2.93845e-05
10 *368:18 *378:16 7.03766e-05
11 *376:8 *378:8 0
*RES
1 *1994:X *378:8 26.0243 
2 *378:8 *378:16 33.5836 
3 *378:16 *1996:B 23 
4 *378:8 *1995:A 23 
*END

*D_NET *379 0.000205878
*CONN
*I *2039:A2 I *D sky130_fd_sc_hd__a21oi_1
*I *1995:Y O *D sky130_fd_sc_hd__inv_2
*CAP
1 *2039:A2 8.10875e-05
2 *1995:Y 8.10875e-05
3 *376:8 *2039:A2 0
4 *378:8 *2039:A2 4.37033e-05
*RES
1 *1995:Y *2039:A2 47.595 
*END

*D_NET *380 0.00216482
*CONN
*I *1602:B I *D sky130_fd_sc_hd__nor2_1
*I *1601:A2 I *D sky130_fd_sc_hd__a211o_1
*I *1603:B I *D sky130_fd_sc_hd__or2_1
*I *1600:X O *D sky130_fd_sc_hd__and2b_1
*CAP
1 *1602:B 0
2 *1601:A2 0
3 *1603:B 0
4 *1600:X 9.01628e-05
5 *380:27 0.0004936
6 *380:12 0.000581371
7 *380:8 0.000177934
8 *380:12 *1602:A 5.50049e-05
9 *380:12 *401:10 9.67842e-05
10 *380:27 *1602:A 9.84851e-05
11 *380:27 *1832:B1 8.10857e-05
12 *380:27 *401:10 4.08664e-05
13 *380:27 *412:6 3.98818e-05
14 *380:27 *534:122 0
15 *380:27 *542:133 0.000269151
16 *380:27 *543:42 0
17 *380:27 *547:12 6.17437e-06
18 *380:27 *547:26 0.000114846
19 *1641:B1 *380:27 1.94693e-05
*RES
1 *1600:X *380:8 24.595 
2 *380:8 *380:12 2.07143 
3 *380:12 *1603:B 23 
4 *380:12 *380:27 40.15 
5 *380:27 *1601:A2 23 
6 *380:8 *1602:B 23 
*END

*D_NET *381 0.00172439
*CONN
*I *1998:B1 I *D sky130_fd_sc_hd__a21oi_1
*I *1997:C I *D sky130_fd_sc_hd__and3_1
*I *1996:X O *D sky130_fd_sc_hd__xor2_1
*CAP
1 *1998:B1 7.88205e-05
2 *1997:C 0
3 *1996:X 0.000502291
4 *381:14 8.89852e-05
5 *381:10 0.000512455
6 *1998:B1 *566:14 0.000152749
7 *381:10 *2042:B 7.24484e-05
8 *381:10 *566:31 0
9 *381:14 *566:14 9.70259e-06
10 *1997:B *381:10 4.4382e-05
11 *1998:A1 *1998:B1 0.000175724
12 *1998:A1 *381:14 1.95448e-05
13 *1998:A2 *1998:B1 5.50106e-05
14 *322:8 *381:10 1.22803e-05
*RES
1 *1996:X *381:10 45.5193 
2 *381:10 *381:14 15.2279 
3 *381:14 *1997:C 23 
4 *381:14 *1998:B1 25.9207 
*END

*D_NET *382 0.00120875
*CONN
*I *2000:B I *D sky130_fd_sc_hd__or3_1
*I *1999:A1 I *D sky130_fd_sc_hd__o21ai_1
*I *1997:X O *D sky130_fd_sc_hd__and3_1
*CAP
1 *2000:B 3.54465e-05
2 *1999:A1 0
3 *1997:X 0.000183872
4 *382:16 0.00022263
5 *382:10 0.000441949
6 *2000:B *383:6 5.50106e-05
7 *382:10 *383:6 0.000132975
8 *382:10 *566:14 7.1533e-05
9 *382:16 *383:23 0
10 *1997:B *382:16 0
11 *2000:A *382:16 6.53342e-05
12 *310:10 *382:16 0
13 *322:8 *382:16 0
*RES
1 *1997:X *382:10 26.6457 
2 *382:10 *382:16 33.3143 
3 *382:16 *1999:A1 23 
4 *382:10 *2000:B 24.1186 
*END

*D_NET *383 0.00277744
*CONN
*I *2021:A_N I *D sky130_fd_sc_hd__and2b_1
*I *1999:A2 I *D sky130_fd_sc_hd__o21ai_1
*I *2000:C I *D sky130_fd_sc_hd__or3_1
*I *1998:Y O *D sky130_fd_sc_hd__a21oi_1
*CAP
1 *2021:A_N 0
2 *1999:A2 0
3 *2000:C 2.14194e-05
4 *1998:Y 4.3882e-05
5 *383:36 0.000289608
6 *383:23 0.000333416
7 *383:15 0.000734966
8 *383:6 0.000177243
9 *2000:C *566:14 5.90675e-06
10 *383:6 *566:14 0.000121067
11 *383:15 *385:8 0.00010655
12 *383:15 *566:14 0.000143059
13 *383:23 *384:10 0.000105861
14 *383:23 *430:8 7.06124e-05
15 *383:23 *555:8 3.7122e-06
16 *383:36 *2021:B 0
17 *383:36 *385:8 0.0001164
18 *383:36 *385:23 0
19 *383:36 *430:8 0
20 *383:36 *566:14 0.000132178
21 *2000:A *383:23 0
22 *2000:B *383:6 5.50106e-05
23 *2109:A *383:36 0.000183572
24 *382:10 *383:6 0.000132975
25 *382:16 *383:23 0
*RES
1 *1998:Y *383:6 24.9523 
2 *383:6 *2000:C 23.4971 
3 *383:6 *383:15 3.95643 
4 *383:15 *383:23 36.9186 
5 *383:23 *1999:A2 23 
6 *383:15 *383:36 37.0429 
7 *383:36 *2021:A_N 23 
*END

*D_NET *384 0.00107273
*CONN
*I *2001:A I *D sky130_fd_sc_hd__nand2_1
*I *2002:B I *D sky130_fd_sc_hd__and3_1
*I *1999:Y O *D sky130_fd_sc_hd__o21ai_1
*CAP
1 *2001:A 0.00013525
2 *2002:B 0
3 *1999:Y 0.000264742
4 *384:12 0.00013525
5 *384:10 0.000264742
6 *2001:A *2002:C 7.44257e-05
7 *2001:A *386:8 6.17437e-06
8 *384:10 *555:14 8.62876e-05
9 *363:10 *384:10 0
10 *383:23 *384:10 0.000105861
*RES
1 *1999:Y *384:10 42.205 
2 *384:10 *384:12 15 
3 *384:12 *2002:B 23 
4 *384:12 *2001:A 25.7757 
*END

*D_NET *385 0.00250219
*CONN
*I *2002:C I *D sky130_fd_sc_hd__and3_1
*I *2001:B I *D sky130_fd_sc_hd__nand2_1
*I *2021:B I *D sky130_fd_sc_hd__and2b_1
*I *2000:X O *D sky130_fd_sc_hd__or3_1
*CAP
1 *2002:C 0.00024904
2 *2001:B 0
3 *2021:B 7.59561e-05
4 *2000:X 0.000284339
5 *385:23 0.000584608
6 *385:8 0.000695863
7 *2002:C *386:8 8.06804e-06
8 *2021:B *430:8 5.561e-05
9 *385:23 *430:8 0.000251328
10 *2001:A *2002:C 7.44257e-05
11 *2108:A *385:23 0
12 *2109:A *385:23 0
13 *383:15 *385:8 0.00010655
14 *383:36 *2021:B 0
15 *383:36 *385:8 0.0001164
16 *383:36 *385:23 0
*RES
1 *2000:X *385:8 42.4329 
2 *385:8 *2021:B 39.5536 
3 *385:8 *385:23 22.4571 
4 *385:23 *2001:B 23 
5 *385:23 *2002:C 26.4593 
*END

*D_NET *386 0.00250229
*CONN
*I *2003:B I *D sky130_fd_sc_hd__xnor2_1
*I *2001:Y O *D sky130_fd_sc_hd__nand2_1
*CAP
1 *2003:B 0
2 *2001:Y 4.4176e-05
3 *386:12 0.000386152
4 *386:8 0.000430328
5 *386:12 *430:8 0.000246757
6 *386:12 *431:10 0.000276219
7 *386:12 *544:18 0
8 *386:12 *555:14 4.07715e-05
9 *2001:A *386:8 6.17437e-06
10 *2002:C *386:8 8.06804e-06
11 *360:8 *386:12 3.70094e-05
12 *360:12 *386:12 0.00102664
*RES
1 *2001:Y *386:8 38.6214 
2 *386:8 *386:12 29.935 
3 *386:12 *2003:B 23 
*END

*D_NET *387 0.00027237
*CONN
*I *2020:B I *D sky130_fd_sc_hd__xnor2_1
*I *2002:X O *D sky130_fd_sc_hd__and3_1
*CAP
1 *2020:B 0
2 *2002:X 8.10791e-05
3 *387:8 8.10791e-05
4 *387:8 *555:14 5.51058e-05
5 *363:10 *387:8 5.51058e-05
*RES
1 *2002:X *387:8 40.2579 
2 *387:8 *2020:B 38 
*END

*D_NET *388 0.00492533
*CONN
*I *2019:B1 I *D sky130_fd_sc_hd__o21ai_1
*I *2004:A I *D sky130_fd_sc_hd__xnor2_1
*I *2003:Y O *D sky130_fd_sc_hd__xnor2_1
*CAP
1 *2019:B1 0.000127979
2 *2004:A 6.4145e-05
3 *2003:Y 6.81739e-05
4 *388:10 0.00149056
5 *388:8 0.00136661
6 *2019:B1 *389:8 8.16356e-05
7 *2019:B1 *405:10 2.93747e-05
8 *2019:B1 *431:10 0
9 *388:8 *544:18 5.70419e-05
10 *388:10 *431:10 0
11 *388:10 *527:76 0
12 *388:10 *527:89 0
13 *1914:A1 *388:10 0
14 *1944:B *388:10 0
15 *2004:B *2004:A 5.50049e-05
16 *260:10 *388:10 0
17 *280:34 *388:10 1.55169e-05
18 *291:8 *388:10 0
19 *292:10 *388:10 6.79006e-05
20 *293:10 *388:10 6.78463e-05
21 *295:10 *388:10 0
22 *323:14 *388:10 0
23 *323:27 *388:10 0
24 *324:10 *388:10 0
25 *325:10 *388:10 0.000164282
26 *327:21 *388:10 2.84912e-05
27 *329:8 *388:10 0.00019747
28 *329:23 *388:10 0.00042579
29 *332:8 *2019:B1 9.27917e-05
30 *332:8 *388:10 0.000196178
31 *334:6 *2019:B1 2.93747e-05
32 *360:8 *388:10 0.000299178
*RES
1 *2003:Y *388:8 39.0979 
2 *388:8 *388:10 30.4293 
3 *388:10 *2004:A 39.0979 
4 *388:10 *2019:B1 41.5836 
*END

*D_NET *389 0.00130394
*CONN
*I *2006:B I *D sky130_fd_sc_hd__nand2_1
*I *2005:B I *D sky130_fd_sc_hd__or2_1
*I *2004:Y O *D sky130_fd_sc_hd__xnor2_1
*CAP
1 *2006:B 0.000130116
2 *2005:B 0
3 *2004:Y 0.000152353
4 *389:12 0.00016093
5 *389:8 0.000183166
6 *389:8 *405:10 0.000272312
7 *389:12 *390:10 6.17437e-06
8 *2006:A *2006:B 4.6439e-05
9 *2006:A *389:12 5.3304e-05
10 *2019:B1 *389:8 8.16356e-05
11 *330:8 *389:8 5.09885e-05
12 *334:12 *389:8 0.000166522
*RES
1 *2004:Y *389:8 43.075 
2 *389:8 *389:12 15.6214 
3 *389:12 *2005:B 23 
4 *389:12 *2006:B 25.5686 
*END

*D_NET *390 0.0006553
*CONN
*I *2012:A2 I *D sky130_fd_sc_hd__a31o_1
*I *2005:X O *D sky130_fd_sc_hd__or2_1
*CAP
1 *2012:A2 0
2 *2005:X 0.00019407
3 *390:10 0.00019407
4 *390:10 *392:8 2.60152e-05
5 *390:10 *405:10 8.62876e-05
6 *390:10 *438:16 0.000136486
7 *2006:A *390:10 1.21972e-05
8 *389:12 *390:10 6.17437e-06
*RES
1 *2005:X *390:10 41.48 
2 *390:10 *2012:A2 38 
*END

*D_NET *391 0.00430415
*CONN
*I *1607:B1 I *D sky130_fd_sc_hd__a21oi_1
*I *1604:A1 I *D sky130_fd_sc_hd__o21bai_1
*I *1608:B1 I *D sky130_fd_sc_hd__a211o_1
*I *1601:X O *D sky130_fd_sc_hd__a211o_1
*CAP
1 *1607:B1 0.000390857
2 *1604:A1 0.000209205
3 *1608:B1 8.61064e-05
4 *1601:X 0.000106848
5 *391:16 0.000536892
6 *391:12 0.000739284
7 *1604:A1 *1590:A 0
8 *1604:A1 *1605:A1 5.50049e-05
9 *1604:A1 *423:10 2.4754e-05
10 *1604:A1 *423:38 0.000189118
11 *1604:A1 *518:50 5.50049e-05
12 *1604:A1 *542:139 0.000178517
13 *1604:A1 *550:32 0.000150819
14 *1607:B1 *1832:B1 4.07131e-05
15 *1607:B1 *412:29 2.93104e-06
16 *1607:B1 *434:51 2.11157e-05
17 *1607:B1 *440:14 2.81221e-05
18 *1607:B1 *547:37 2.93747e-05
19 *1608:B1 *1599:A1 0.000207507
20 *1608:B1 *412:12 2.24973e-05
21 *1608:B1 *423:38 0.000166513
22 *1608:B1 *516:79 1.14452e-05
23 *391:12 *542:133 1.27424e-05
24 *391:12 *543:95 3.34818e-06
25 *391:16 *1599:A1 0.000215791
26 *391:16 *412:12 0.000137797
27 *391:16 *542:133 0
28 *391:16 *543:95 0.000224862
29 *1599:A3 *1607:B1 9.85586e-06
30 *1604:B1_N *1604:A1 0.000267167
31 *272:18 *1607:B1 0.000136477
32 *272:18 *391:12 4.34824e-05
*RES
1 *1601:X *391:12 46.5488 
2 *391:12 *391:16 14.3075 
3 *391:16 *1608:B1 40.9621 
4 *391:16 *1604:A1 45.3121 
5 *391:12 *1607:B1 48.0924 
*END

*D_NET *392 0.000510681
*CONN
*I *2012:A3 I *D sky130_fd_sc_hd__a31o_1
*I *2006:Y O *D sky130_fd_sc_hd__nand2_1
*CAP
1 *2012:A3 2.06242e-05
2 *2006:Y 7.77313e-05
3 *392:8 9.83554e-05
4 *2012:A3 *2044:A 2.02872e-05
5 *2012:A3 *2045:A 1.32314e-05
6 *2012:A3 *2045:B 5.50049e-05
7 *392:8 *405:10 8.62783e-05
8 *392:8 *431:10 0.000113153
9 *390:10 *392:8 2.60152e-05
*RES
1 *2006:Y *392:8 39.9057 
2 *392:8 *2012:A3 38.6214 
*END

*D_NET *393 0.000791186
*CONN
*I *2008:B2 I *D sky130_fd_sc_hd__o22a_1
*I *2007:Y O *D sky130_fd_sc_hd__a21oi_1
*CAP
1 *2008:B2 0
2 *2007:Y 0.00019788
3 *393:10 0.00019788
4 *393:10 *1970:A1 6.48142e-05
5 *393:10 *2008:A1 1.14452e-05
6 *393:10 *537:12 0.000108681
7 *1970:B1 *393:10 8.68016e-06
8 *338:8 *393:10 6.33614e-05
9 *359:14 *393:10 0.000138444
*RES
1 *2007:Y *393:10 41.8321 
2 *393:10 *2008:B2 38 
*END

*D_NET *394 0.00105421
*CONN
*I *2010:B1 I *D sky130_fd_sc_hd__a211o_1
*I *2008:X O *D sky130_fd_sc_hd__o22a_1
*CAP
1 *2010:B1 0
2 *2008:X 0.000153543
3 *394:8 0.000153543
4 *394:8 *2010:C1 0.00010018
5 *394:8 *535:69 3.05808e-05
6 *2009:A3 *394:8 7.13587e-05
7 *2009:B1 *394:8 5.87649e-05
8 *188:119 *394:8 0.00048624
*RES
1 *2008:X *394:8 28.8829 
2 *394:8 *2010:B1 23 
*END

*D_NET *395 0.000224196
*CONN
*I *2010:C1 I *D sky130_fd_sc_hd__a211o_1
*I *2009:X O *D sky130_fd_sc_hd__a32o_1
*CAP
1 *2010:C1 1.19175e-05
2 *2009:X 1.19175e-05
3 *2009:A3 *2010:C1 0.00010018
4 *394:8 *2010:C1 0.00010018
*RES
1 *2009:X *2010:C1 47.0979 
*END

*D_NET *396 0.000676375
*CONN
*I *2011:C1 I *D sky130_fd_sc_hd__a211o_1
*I *2010:X O *D sky130_fd_sc_hd__a211o_1
*CAP
1 *2011:C1 0
2 *2010:X 0.000153545
3 *396:10 0.000153545
4 *2010:A2 *396:10 5.01419e-05
5 *196:8 *396:10 0.00016375
6 *205:14 *396:10 9.5877e-05
7 *336:12 *396:10 5.95172e-05
*RES
1 *2010:X *396:10 41.3557 
2 *396:10 *2011:C1 38 
*END

*D_NET *397 0.00533541
*CONN
*I *2012:B1 I *D sky130_fd_sc_hd__a31o_1
*I *2011:X O *D sky130_fd_sc_hd__a211o_1
*CAP
1 *2012:B1 0
2 *2011:X 0.00111515
3 *397:20 0.000184698
4 *397:14 0.00129984
5 *397:14 *1958:A 0.000265445
6 *397:14 *2007:A2 9.41704e-05
7 *397:14 *535:16 5.50106e-05
8 *397:14 *535:61 5.50049e-05
9 *397:14 *537:6 3.16784e-05
10 *397:14 *537:12 3.3577e-05
11 *397:20 *2050:C1 0.000166522
12 *397:20 *433:10 2.34364e-05
13 *397:20 *438:16 0.000218952
14 *397:20 *508:10 0
15 *1960:A *397:14 5.70419e-05
16 *190:93 *397:14 0.000149194
17 *196:114 *397:20 0.000166522
18 *341:6 *397:14 6.52495e-05
19 *341:19 *397:14 0.000173529
20 *342:6 *397:14 5.3304e-05
21 *343:8 *397:14 9.41704e-05
22 *359:14 *397:14 0.00103292
*RES
1 *2011:X *397:14 48.0021 
2 *397:14 *397:20 35.075 
3 *397:20 *2012:B1 23 
*END

*D_NET *398 0.000692349
*CONN
*I *2017:A I *D sky130_fd_sc_hd__xnor2_1
*I *2013:Y O *D sky130_fd_sc_hd__a21oi_1
*CAP
1 *2017:A 0
2 *2013:Y 0.000222573
3 *398:10 0.000222573
4 *398:10 *403:8 0
5 *2018:A *398:10 0.000140259
6 *355:8 *398:10 7.98155e-05
7 *356:14 *398:10 2.71291e-05
*RES
1 *2013:Y *398:10 42.8886 
2 *398:10 *2017:A 38 
*END

*D_NET *399 0.000752558
*CONN
*I *2016:A I *D sky130_fd_sc_hd__xnor2_1
*I *2014:Y O *D sky130_fd_sc_hd__xnor2_1
*CAP
1 *2016:A 0
2 *2014:Y 0.000295925
3 *399:8 0.000295925
4 *399:8 *532:6 5.67058e-05
5 *192:97 *399:8 0.000104002
*RES
1 *2014:Y *399:8 28.7586 
2 *399:8 *2016:A 23 
*END

*D_NET *400 0.000420031
*CONN
*I *2016:B I *D sky130_fd_sc_hd__xnor2_1
*I *2015:X O *D sky130_fd_sc_hd__a21o_1
*CAP
1 *2016:B 0
2 *2015:X 0.000175657
3 *400:10 0.000175657
4 *400:10 *507:12 0
5 *1971:B *400:10 4.55358e-05
6 *2015:A2 *400:10 3.7122e-06
7 *191:72 *400:10 1.94693e-05
*RES
1 *2015:X *400:10 40.8793 
2 *400:10 *2016:B 38 
*END

*D_NET *401 0.000703554
*CONN
*I *1604:A2 I *D sky130_fd_sc_hd__o21bai_1
*I *1602:Y O *D sky130_fd_sc_hd__nor2_1
*CAP
1 *1604:A2 0
2 *1602:Y 0.000180159
3 *401:10 0.000180159
4 *401:10 *518:54 0.000138718
5 *401:10 *543:42 6.6869e-05
6 *380:12 *401:10 9.67842e-05
7 *380:27 *401:10 4.08664e-05
*RES
1 *1602:Y *401:10 41.48 
2 *401:10 *1604:A2 38 
*END

*D_NET *402 0.00213077
*CONN
*I *2017:B I *D sky130_fd_sc_hd__xnor2_1
*I *2016:Y O *D sky130_fd_sc_hd__xnor2_1
*CAP
1 *2017:B 0
2 *2016:Y 0.000640531
3 *402:10 0.000640531
4 *402:10 *1971:A 2.93747e-05
5 *1971:B *402:10 0.000274078
6 *192:97 *402:10 4.32774e-05
7 *353:6 *402:10 0.000404502
8 *353:19 *402:10 9.84794e-05
*RES
1 *2016:Y *402:10 36.6507 
2 *402:10 *2017:B 23 
*END

*D_NET *403 0.000302234
*CONN
*I *2018:B I *D sky130_fd_sc_hd__nor2_1
*I *2017:Y O *D sky130_fd_sc_hd__xnor2_1
*CAP
1 *2018:B 2.81701e-05
2 *2017:Y 0.000109116
3 *403:8 0.000137286
4 *2018:B *404:8 2.30292e-05
5 *356:14 *403:8 4.6318e-06
6 *398:10 *403:8 0
*RES
1 *2017:Y *403:8 39.9057 
2 *403:8 *2018:B 38.6214 
*END

*D_NET *404 0.0018385
*CONN
*I *2050:C1 I *D sky130_fd_sc_hd__a311o_1
*I *2018:Y O *D sky130_fd_sc_hd__nor2_1
*CAP
1 *2050:C1 0.000476278
2 *2018:Y 0.000149843
3 *404:8 0.000626121
4 *2050:C1 *433:10 3.70094e-05
5 op_out[7] *2050:C1 0
6 *1963:A_N *2050:C1 0
7 *1974:A1 *2050:C1 0
8 *1975:A1 *2050:C1 0
9 *1975:A3 *2050:C1 0
10 *2018:A *404:8 4.96717e-05
11 *2018:B *404:8 2.30292e-05
12 *336:24 *2050:C1 0
13 *341:19 *2050:C1 0
14 *355:8 *2050:C1 0
15 *356:14 *2050:C1 0.000111852
16 *356:27 *2050:C1 8.40811e-05
17 *359:8 *2050:C1 0.000114092
18 *397:20 *2050:C1 0.000166522
*RES
1 *2018:Y *404:8 40.0507 
2 *404:8 *2050:C1 48.3571 
*END

*D_NET *405 0.00242693
*CONN
*I *2044:A I *D sky130_fd_sc_hd__or2_1
*I *2045:A I *D sky130_fd_sc_hd__nand2_1
*I *2019:Y O *D sky130_fd_sc_hd__o21ai_1
*CAP
1 *2044:A 0.000197665
2 *2045:A 0.000160251
3 *2019:Y 0.000328156
4 *405:12 0.000357916
5 *405:10 0.000328156
6 *2044:A *2044:B 5.50106e-05
7 *2044:A *2045:B 1.24876e-05
8 *2044:A *432:10 2.65879e-05
9 *2045:A *2045:B 4.18702e-05
10 *405:10 *431:10 0.000137704
11 *2012:A1 *2045:A 0.000109895
12 *2012:A3 *2044:A 2.02872e-05
13 *2012:A3 *2045:A 1.32314e-05
14 *2019:A1 *405:10 5.3304e-05
15 *2019:B1 *405:10 2.93747e-05
16 *196:93 *2045:A 6.38926e-05
17 *330:8 *405:10 3.47781e-05
18 *334:6 *405:10 1.14876e-05
19 *389:8 *405:10 0.000272312
20 *390:10 *405:10 8.62876e-05
21 *392:8 *405:10 8.62783e-05
*RES
1 *2019:Y *405:10 45.4779 
2 *405:10 *405:12 15 
3 *405:12 *2045:A 26.5214 
4 *405:12 *2044:A 26.0243 
*END

*D_NET *406 0.000368862
*CONN
*I *2043:B I *D sky130_fd_sc_hd__xnor2_1
*I *2020:Y O *D sky130_fd_sc_hd__xnor2_1
*CAP
1 *2043:B 0.000116632
2 *2020:Y 0.000116632
3 *2043:B *2043:A 7.88926e-05
4 *2043:B *431:8 5.67058e-05
*RES
1 *2020:Y *2043:B 48.5479 
*END

*D_NET *407 0.000486239
*CONN
*I *2042:A I *D sky130_fd_sc_hd__xnor2_2
*I *2021:X O *D sky130_fd_sc_hd__and2b_1
*CAP
1 *2042:A 0
2 *2021:X 0.000243119
3 *407:8 0.000243119
*RES
1 *2021:X *407:8 27.4536 
2 *407:8 *2042:A 23 
*END

*D_NET *408 0.000520176
*CONN
*I *2030:A I *D sky130_fd_sc_hd__xnor2_1
*I *2022:Y O *D sky130_fd_sc_hd__nand2_1
*CAP
1 *2030:A 0.000189285
2 *2022:Y 0.000189285
3 *2030:A *2030:B 4.9662e-05
4 *2030:A *415:10 5.67058e-05
5 *2030:A *417:8 3.52383e-05
*RES
1 *2022:Y *2030:A 49.5007 
*END

*D_NET *409 0.000772036
*CONN
*I *2027:A I *D sky130_fd_sc_hd__and4_1
*I *2028:A1 I *D sky130_fd_sc_hd__a22o_1
*I *2023:X O *D sky130_fd_sc_hd__a22o_1
*CAP
1 *2027:A 0
2 *2028:A1 8.91339e-05
3 *2023:X 6.88066e-05
4 *409:8 0.000157941
5 *2028:A1 *411:12 0.000114074
6 *2028:A1 *413:18 7.75329e-06
7 *2028:A1 *492:73 0.000221174
8 *2028:A1 *540:33 0
9 *2028:A1 *540:47 0
10 *409:8 *492:73 0.000113153
11 *409:8 *540:33 0
*RES
1 *2023:X *409:8 39.5536 
2 *409:8 *2028:A1 40.9621 
3 *409:8 *2027:A 38 
*END

*D_NET *410 0.000858161
*CONN
*I *2027:B I *D sky130_fd_sc_hd__and4_1
*I *2028:A2 I *D sky130_fd_sc_hd__a22o_1
*I *2024:Y O *D sky130_fd_sc_hd__nand4_1
*CAP
1 *2027:B 0
2 *2028:A2 0.000164415
3 *2024:Y 9.04372e-05
4 *410:8 0.000254852
5 *2028:A2 *492:73 0.000191157
6 *410:8 *492:73 0.000157299
7 *38:27 *2028:A2 0
8 *38:27 *410:8 0
*RES
1 *2024:Y *410:8 40.2579 
2 *410:8 *2028:A2 41.2314 
3 *410:8 *2027:B 38 
*END

*D_NET *411 0.000877302
*CONN
*I *2027:C I *D sky130_fd_sc_hd__and4_1
*I *2028:B1 I *D sky130_fd_sc_hd__a22o_1
*I *2025:X O *D sky130_fd_sc_hd__a22o_1
*CAP
1 *2027:C 0.000148373
2 *2028:B1 0
3 *2025:X 4.25104e-05
4 *411:12 4.53754e-05
5 *411:6 0.000236259
6 *2027:C *413:18 0.00017761
7 *411:6 *413:18 5.50049e-05
8 *411:12 *413:18 5.80963e-05
9 *2028:A1 *411:12 0.000114074
*RES
1 *2025:X *411:6 23.6214 
2 *411:6 *411:12 31.5536 
3 *411:12 *2028:B1 23 
4 *411:6 *2027:C 25.0507 
*END

*D_NET *412 0.00315358
*CONN
*I *1607:A2 I *D sky130_fd_sc_hd__a21oi_1
*I *1608:A1 I *D sky130_fd_sc_hd__a211o_1
*I *1603:X O *D sky130_fd_sc_hd__or2_1
*CAP
1 *1607:A2 0
2 *1608:A1 0
3 *1603:X 0.000235261
4 *412:29 0.000310364
5 *412:12 0.000231019
6 *412:6 0.000776644
7 *412:12 *423:38 0.000166513
8 *412:12 *542:133 3.82852e-05
9 *412:29 *1601:A1 1.24376e-05
10 *412:29 *1832:B1 6.70361e-05
11 *412:29 *543:95 0.000138718
12 *412:29 *547:37 2.06822e-05
13 *1601:C1 *412:29 3.74519e-05
14 *1607:B1 *412:29 2.93104e-06
15 *1608:A2 *412:12 0.000240416
16 *1608:B1 *412:12 2.24973e-05
17 *1641:B1 *412:6 0.000180218
18 *1641:B1 *412:29 0.000167786
19 *337:18 *412:29 0.000136486
20 *369:14 *412:12 0.000191157
21 *380:27 *412:6 3.98818e-05
22 *391:16 *412:12 0.000137797
*RES
1 *1603:X *412:6 26.48 
2 *412:6 *412:12 36.8357 
3 *412:12 *1608:A1 23 
4 *412:6 *412:29 36.0279 
5 *412:29 *1607:A2 23 
*END

*D_NET *413 0.00432348
*CONN
*I *2028:B2 I *D sky130_fd_sc_hd__a22o_1
*I *2027:D I *D sky130_fd_sc_hd__and4_1
*I *2026:X O *D sky130_fd_sc_hd__or4b_1
*CAP
1 *2028:B2 0
2 *2027:D 0
3 *2026:X 0.00149323
4 *413:18 0.000239673
5 *413:10 0.0017329
6 *413:10 *1643:A 2.9853e-05
7 *413:10 *1643:B 2.93845e-05
8 *413:10 *1644:A0 5.41385e-05
9 *413:10 *1644:S 7.54868e-05
10 *413:10 *476:8 8.41122e-05
11 *413:10 *477:8 5.40241e-05
12 *413:18 *492:73 0
13 *413:18 *517:47 0.000141888
14 *413:18 *540:47 1.22803e-05
15 *413:18 *565:62 7.80404e-05
16 *2027:C *413:18 0.00017761
17 *2028:A1 *413:18 7.75329e-06
18 *411:6 *413:18 5.50049e-05
19 *411:12 *413:18 5.80963e-05
*RES
1 *2026:X *413:10 44.5014 
2 *413:10 *413:18 35.7379 
3 *413:18 *2027:D 23 
4 *413:10 *2028:B2 23 
*END

*D_NET *414 9.13191e-05
*CONN
*I *2029:A_N I *D sky130_fd_sc_hd__and2b_1
*I *2027:X O *D sky130_fd_sc_hd__and4_1
*CAP
1 *2029:A_N 3.86937e-05
2 *2027:X 3.86937e-05
3 *2029:A_N *565:62 1.39317e-05
*RES
1 *2027:X *2029:A_N 46.6214 
*END

*D_NET *415 0.000996754
*CONN
*I *2029:B I *D sky130_fd_sc_hd__and2b_1
*I *2028:X O *D sky130_fd_sc_hd__a22o_1
*CAP
1 *2029:B 0
2 *2028:X 0.00033986
3 *415:10 0.00033986
4 *415:10 *519:25 0.00019747
5 *2030:A *415:10 5.67058e-05
6 *38:27 *415:10 6.28591e-05
*RES
1 *2028:X *415:10 44.09 
2 *415:10 *2029:B 38 
*END

*D_NET *416 0.000548921
*CONN
*I *2030:B I *D sky130_fd_sc_hd__xnor2_1
*I *2029:X O *D sky130_fd_sc_hd__and2b_1
*CAP
1 *2030:B 6.07614e-05
2 *2029:X 7.25653e-05
3 *416:8 0.000133327
4 *416:8 *1932:A3 1.83667e-05
5 *416:8 *519:25 0.000166532
6 *416:8 *521:57 4.77066e-05
7 *2030:A *2030:B 4.9662e-05
*RES
1 *2029:X *416:8 40.2579 
2 *416:8 *2030:B 39.0979 
*END

*D_NET *417 0.00315318
*CONN
*I *2037:A I *D sky130_fd_sc_hd__xnor2_1
*I *2030:Y O *D sky130_fd_sc_hd__xnor2_1
*CAP
1 *2037:A 0
2 *2030:Y 0.000179077
3 *417:12 0.00116635
4 *417:8 0.00134542
5 *417:8 *2022:B 0.000103637
6 *417:12 *1932:A2 0
7 *417:12 *1932:A3 0
8 *417:12 *490:27 0
9 *417:12 *519:25 0
10 *417:12 *546:35 0
11 *417:12 *546:44 0
12 *417:12 *567:10 0.000114083
13 *417:12 *569:10 6.28488e-05
14 *2030:A *417:8 3.52383e-05
15 *312:10 *417:12 9.39159e-05
16 *313:24 *417:12 5.26101e-05
*RES
1 *2030:Y *417:8 41.48 
2 *417:8 *417:12 36.9779 
3 *417:12 *2037:A 23 
*END

*D_NET *418 0.00105299
*CONN
*I *2036:A I *D sky130_fd_sc_hd__xnor2_1
*I *2031:Y O *D sky130_fd_sc_hd__o21bai_1
*CAP
1 *2036:A 7.46513e-05
2 *2031:Y 0.000166376
3 *418:8 0.000241027
4 *2036:A *422:8 2.4754e-05
5 *2036:A *546:35 0.00023032
6 *2036:A *554:135 0.000315857
7 *418:8 *490:10 0
8 *418:8 *490:25 0
9 *418:8 *552:56 0
10 *418:8 *554:23 0
11 *418:8 *554:135 0
*RES
1 *2031:Y *418:8 40.2579 
2 *418:8 *2036:A 42.4329 
*END

*D_NET *419 0.000370588
*CONN
*I *2035:A I *D sky130_fd_sc_hd__xnor2_1
*I *2032:Y O *D sky130_fd_sc_hd__nand2_1
*CAP
1 *2035:A 5.39106e-05
2 *2032:Y 5.39106e-05
3 *2035:A *2032:A 6.23433e-05
4 *2035:A *546:35 0.000187129
5 *2035:A *552:56 1.32939e-05
*RES
1 *2032:Y *2035:A 48.5479 
*END

*D_NET *420 0.000296138
*CONN
*I *2034:B I *D sky130_fd_sc_hd__xor2_1
*I *2033:Y O *D sky130_fd_sc_hd__nand2_1
*CAP
1 *2034:B 0.000131925
2 *2033:Y 0.000131925
3 *2034:B *2033:A 3.22879e-05
*RES
1 *2033:Y *2034:B 48.5271 
*END

*D_NET *421 0.000255627
*CONN
*I *2035:B I *D sky130_fd_sc_hd__xnor2_1
*I *2034:X O *D sky130_fd_sc_hd__xor2_1
*CAP
1 *2035:B 0
2 *2034:X 0.000127814
3 *421:8 0.000127814
4 *421:8 *490:25 0
5 *421:8 *546:25 0
*RES
1 *2034:X *421:8 39.9057 
2 *421:8 *2035:B 38 
*END

*D_NET *422 0.00204212
*CONN
*I *2036:B I *D sky130_fd_sc_hd__xnor2_1
*I *2035:Y O *D sky130_fd_sc_hd__xnor2_1
*CAP
1 *2036:B 0
2 *2035:Y 0.000237088
3 *422:8 0.000237088
4 *422:8 *2032:A 0.000356724
5 *422:8 *552:56 0.000701016
6 *422:8 *554:135 0.000485452
7 *2036:A *422:8 2.4754e-05
*RES
1 *2035:Y *422:8 33.1707 
2 *422:8 *2036:B 23 
*END

*D_NET *423 0.00451825
*CONN
*I *1618:B I *D sky130_fd_sc_hd__nor2_1
*I *1637:B1 I *D sky130_fd_sc_hd__a21o_1
*I *1619:B I *D sky130_fd_sc_hd__or2_1
*I *1604:Y O *D sky130_fd_sc_hd__o21bai_1
*CAP
1 *1618:B 0
2 *1637:B1 0.000100599
3 *1619:B 9.14375e-05
4 *1604:Y 0
5 *423:38 0.000551085
6 *423:10 0.000554607
7 *423:4 0.000913656
8 *1619:B *519:88 3.884e-05
9 *1619:B *543:54 6.33511e-05
10 *1637:B1 *1637:A2 5.50106e-05
11 *1637:B1 *443:8 5.53914e-05
12 *1637:B1 *515:10 0.000279495
13 *1637:B1 *515:88 1.4345e-05
14 *423:10 *518:50 5.50106e-05
15 *423:10 *519:88 3.95159e-06
16 *423:10 *543:42 0
17 *423:10 *543:54 0.000389687
18 *423:38 *441:8 0
19 *423:38 *474:14 0
20 *423:38 *516:79 8.47586e-05
21 *423:38 *542:139 0.000136738
22 *1604:A1 *423:10 2.4754e-05
23 *1604:A1 *423:38 0.000189118
24 *1608:B1 *423:38 0.000166513
25 *2054:A *423:10 0.000579678
26 *50:31 *1637:B1 3.7122e-06
27 *412:12 *423:38 0.000166513
*RES
1 *1604:Y *423:4 23 
2 *423:4 *423:10 24.3421 
3 *423:10 *1619:B 39.9057 
4 *423:10 *1637:B1 41.5007 
5 *423:4 *423:38 40.1086 
6 *423:38 *1618:B 23 
*END

*D_NET *424 0.00126926
*CONN
*I *2037:B I *D sky130_fd_sc_hd__xnor2_1
*I *2036:Y O *D sky130_fd_sc_hd__xnor2_1
*CAP
1 *2037:B 0
2 *2036:Y 0.000613982
3 *424:10 0.000613982
4 *424:10 *490:27 0
5 *424:10 *546:35 4.12995e-05
*RES
1 *2036:Y *424:10 46.7207 
2 *424:10 *2037:B 38 
*END

*D_NET *425 0.00197371
*CONN
*I *2041:A I *D sky130_fd_sc_hd__xnor2_1
*I *2037:Y O *D sky130_fd_sc_hd__xnor2_1
*CAP
1 *2041:A 0.000110804
2 *2037:Y 0.000876049
3 *425:8 0.000986853
4 *2041:A *426:10 0
*RES
1 *2037:Y *425:8 49.5793 
2 *425:8 *2041:A 39.9057 
*END

*D_NET *426 0.00226269
*CONN
*I *2040:A I *D sky130_fd_sc_hd__xnor2_1
*I *2038:X O *D sky130_fd_sc_hd__a31o_1
*CAP
1 *2040:A 0
2 *2038:X 0
3 *426:10 0.000867794
4 *426:6 0.000867794
5 *426:10 *427:8 0.00014411
6 *426:10 *566:31 0
7 *2041:A *426:10 0
8 *364:10 *426:10 0
9 *367:14 *426:10 7.03869e-05
10 *368:8 *426:10 0.000266712
11 *368:18 *426:10 4.58924e-05
12 *378:16 *426:10 0
*RES
1 *2038:X *426:6 38 
2 *426:6 *426:10 34.1607 
3 *426:10 *2040:A 23 
*END

*D_NET *427 0.000287602
*CONN
*I *2040:B I *D sky130_fd_sc_hd__xnor2_1
*I *2039:Y O *D sky130_fd_sc_hd__a21oi_1
*CAP
1 *2040:B 0
2 *2039:Y 7.17459e-05
3 *427:8 7.17459e-05
4 *426:10 *427:8 0.00014411
*RES
1 *2039:Y *427:8 39.9057 
2 *427:8 *2040:B 38 
*END

*D_NET *428 0.000340698
*CONN
*I *2041:B I *D sky130_fd_sc_hd__xnor2_1
*I *2040:Y O *D sky130_fd_sc_hd__xnor2_1
*CAP
1 *2041:B 0.000170349
2 *2040:Y 0.000170349
*RES
1 *2040:Y *2041:B 49.0243 
*END

*D_NET *429 0.00122402
*CONN
*I *2042:B I *D sky130_fd_sc_hd__xnor2_2
*I *2041:Y O *D sky130_fd_sc_hd__xnor2_1
*CAP
1 *2042:B 0.000319918
2 *2041:Y 0.000255867
3 *429:8 0.000575785
4 *378:16 *429:8 0
5 *381:10 *2042:B 7.24484e-05
*RES
1 *2041:Y *429:8 42.7229 
2 *429:8 *2042:B 44.3386 
*END

*D_NET *430 0.00190886
*CONN
*I *2043:A I *D sky130_fd_sc_hd__xnor2_1
*I *2042:Y O *D sky130_fd_sc_hd__xnor2_2
*CAP
1 *2043:A 0.000101961
2 *2042:Y 0.00048515
3 *430:8 0.000587111
4 *430:8 *544:18 0
5 *430:8 *555:14 3.14377e-05
6 *2000:A *430:8 0
7 *2021:B *430:8 5.561e-05
8 *2043:B *2043:A 7.88926e-05
9 *363:10 *430:8 0
10 *383:23 *430:8 7.06124e-05
11 *383:36 *430:8 0
12 *385:23 *430:8 0.000251328
13 *386:12 *430:8 0.000246757
*RES
1 *2042:Y *430:8 49.4136 
2 *430:8 *2043:A 40.0507 
*END

*D_NET *431 0.00759016
*CONN
*I *2044:B I *D sky130_fd_sc_hd__or2_1
*I *2045:B I *D sky130_fd_sc_hd__nand2_1
*I *2043:Y O *D sky130_fd_sc_hd__xnor2_1
*CAP
1 *2044:B 1.73388e-05
2 *2045:B 0.000260495
3 *2043:Y 3.83793e-05
4 *431:12 0.000277834
5 *431:10 0.00203883
6 *431:8 0.00207721
7 *2044:B *432:10 1.5769e-05
8 *2045:B *432:10 0.00010018
9 *2045:B *433:10 5.67058e-05
10 *431:10 *544:18 0.000427052
11 *2012:A1 *2045:B 5.87649e-05
12 *2012:A3 *2045:B 5.50049e-05
13 *2019:B1 *431:10 0
14 *2043:B *431:8 5.67058e-05
15 *2044:A *2044:B 5.50106e-05
16 *2044:A *2045:B 1.24876e-05
17 *2045:A *2045:B 4.18702e-05
18 *196:93 *2045:B 0.000155274
19 *324:10 *431:10 0.000141879
20 *328:12 *431:10 0.000978289
21 *329:8 *431:10 0
22 *329:23 *431:10 0
23 *330:8 *431:10 0.000141879
24 *331:8 *431:10 5.61311e-05
25 *360:8 *431:10 0
26 *386:12 *431:10 0.000276219
27 *388:10 *431:10 0
28 *392:8 *431:10 0.000113153
29 *405:10 *431:10 0.000137704
*RES
1 *2043:Y *431:8 38.6214 
2 *431:8 *431:10 49.445 
3 *431:10 *431:12 15 
4 *431:12 *2045:B 29.7736 
5 *431:12 *2044:B 23.6214 
*END

*D_NET *432 0.000871345
*CONN
*I *2050:A2 I *D sky130_fd_sc_hd__a311o_1
*I *2044:X O *D sky130_fd_sc_hd__or2_1
*CAP
1 *2050:A2 0
2 *2044:X 0.000259785
3 *432:10 0.000259785
4 *432:10 *438:16 9.39159e-05
5 *432:10 *508:10 0.000115322
6 *2044:A *432:10 2.65879e-05
7 *2044:B *432:10 1.5769e-05
8 *2045:B *432:10 0.00010018
*RES
1 *2044:X *432:10 44.09 
2 *432:10 *2050:A2 38 
*END

*D_NET *433 0.0010785
*CONN
*I *2050:A3 I *D sky130_fd_sc_hd__a311o_1
*I *2045:Y O *D sky130_fd_sc_hd__nand2_1
*CAP
1 *2050:A3 0.000207539
2 *2045:Y 0.000153156
3 *433:10 0.000360696
4 *2050:A3 *2120:A 2.02517e-05
5 *2050:A3 *438:16 5.3304e-05
6 *1963:B *433:10 0
7 *2045:B *433:10 5.67058e-05
8 *2050:C1 *433:10 3.70094e-05
9 *196:114 *2050:A3 5.23172e-05
10 *196:114 *433:10 0.000114083
11 *397:20 *433:10 2.34364e-05
*RES
1 *2045:Y *433:10 41.2314 
2 *433:10 *2050:A3 41.5007 
*END

*D_NET *434 0.00807258
*CONN
*I *1968:A2 I *D sky130_fd_sc_hd__a31o_1
*I *1623:B2 I *D sky130_fd_sc_hd__a22o_1
*I *1637:A1 I *D sky130_fd_sc_hd__a21o_1
*I *1606:A I *D sky130_fd_sc_hd__inv_2
*I *1605:Y O *D sky130_fd_sc_hd__a211oi_2
*CAP
1 *1968:A2 0
2 *1623:B2 2.77218e-05
3 *1637:A1 8.91096e-05
4 *1606:A 0.000334778
5 *1605:Y 0.000195807
6 *434:51 0.000594436
7 *434:29 0.000917962
8 *434:10 0.00143532
9 *434:8 0.00108966
10 *1606:A *443:33 4.21594e-06
11 *1606:A *444:36 0
12 *1606:A *449:23 0
13 *1606:A *454:10 0
14 *1606:A *554:58 9.35649e-05
15 *1606:A *554:66 0
16 *1606:A *554:75 5.0702e-05
17 *1623:B2 *523:39 5.3304e-05
18 *1623:B2 *552:25 2.64616e-05
19 *1637:A1 *518:50 0.000245818
20 *1637:A1 *519:88 0.000242108
21 *434:8 *550:32 0.000268074
22 *434:10 *454:44 0
23 *434:10 *554:75 0.000152031
24 *434:29 *454:18 0.000931532
25 *434:29 *518:50 1.38978e-05
26 *434:29 *519:88 2.11157e-05
27 *434:51 *440:14 4.51431e-05
28 *434:51 *524:107 0.000161626
29 *434:51 *540:18 0
30 *434:51 *547:45 0.000531976
31 *434:51 *547:65 0.000317247
32 *434:51 *554:75 0.000121664
33 *1599:A3 *434:51 5.85467e-05
34 *1607:B1 *434:51 2.11157e-05
35 *326:86 *434:51 2.26497e-05
36 *348:10 *434:51 4.99125e-06
*RES
1 *1605:Y *434:8 41.0036 
2 *434:8 *434:10 6.3075 
3 *434:10 *1606:A 44.5768 
4 *434:10 *434:29 18.7813 
5 *434:29 *1637:A1 41.3143 
6 *434:29 *1623:B2 38.6214 
7 *434:8 *434:51 28.1743 
8 *434:51 *1968:A2 23 
*END

*D_NET *435 0.000795514
*CONN
*I *2047:B2 I *D sky130_fd_sc_hd__o22a_1
*I *2046:Y O *D sky130_fd_sc_hd__a21oi_1
*CAP
1 *2047:B2 0
2 *2046:Y 0.000167978
3 *435:10 0.000167978
4 *188:71 *435:10 5.12254e-05
5 *199:89 *435:10 0.000240416
6 *205:22 *435:10 5.50106e-05
7 *326:64 *435:10 0.000112906
*RES
1 *2046:Y *435:10 42.4121 
2 *435:10 *2047:B2 38 
*END

*D_NET *436 0.000596085
*CONN
*I *2049:B1 I *D sky130_fd_sc_hd__a211o_1
*I *2047:X O *D sky130_fd_sc_hd__o22a_1
*CAP
1 *2049:B1 0.000194362
2 *2047:X 0.000194362
3 *2049:B1 *438:6 5.3304e-05
4 *2049:B1 *497:50 2.79543e-05
5 *2049:B1 *553:26 7.27986e-05
6 *188:101 *2049:B1 5.3304e-05
*RES
1 *2047:X *2049:B1 49.5007 
*END

*D_NET *437 0.000487651
*CONN
*I *2049:C1 I *D sky130_fd_sc_hd__a211o_1
*I *2048:X O *D sky130_fd_sc_hd__a32o_1
*CAP
1 *2049:C1 4.24639e-05
2 *2048:X 8.16534e-05
3 *437:8 0.000124117
4 *2049:C1 *497:50 2.64616e-05
5 *188:22 *437:8 5.01325e-05
6 *190:14 *437:8 0.000162822
*RES
1 *2048:X *437:8 40.2579 
2 *437:8 *2049:C1 38.6214 
*END

*D_NET *438 0.0058412
*CONN
*I *2050:B1 I *D sky130_fd_sc_hd__a311o_1
*I *2049:X O *D sky130_fd_sc_hd__a211o_1
*CAP
1 *2050:B1 0
2 *2049:X 0.00189717
3 *438:16 0.000355565
4 *438:6 0.00225273
5 *438:6 *1964:A1 0.000430644
6 *438:6 *1964:A2 1.76557e-05
7 *438:6 *490:48 8.71888e-05
8 *438:6 *553:26 0.000147475
9 *2049:B1 *438:6 5.3304e-05
10 *2050:A3 *438:16 5.3304e-05
11 *188:101 *438:6 4.34973e-05
12 *196:114 *438:16 5.3304e-05
13 *390:10 *438:16 0.000136486
14 *397:20 *438:16 0.000218952
15 *432:10 *438:16 9.39159e-05
*RES
1 *2049:X *438:6 47.9193 
2 *438:6 *438:16 37.2707 
3 *438:16 *2050:B1 23 
*END

*D_NET *439 0.00579856
*CONN
*I *1638:C1 I *D sky130_fd_sc_hd__a211o_2
*I *1624:C1 I *D sky130_fd_sc_hd__a211o_1
*I *1629:A1 I *D sky130_fd_sc_hd__o21ai_1
*I *1630:A I *D sky130_fd_sc_hd__or4_4
*I *1606:Y O *D sky130_fd_sc_hd__inv_2
*CAP
1 *1638:C1 0
2 *1624:C1 0
3 *1629:A1 6.88348e-05
4 *1630:A 0
5 *1606:Y 0.000349309
6 *439:20 0.000777518
7 *439:14 0.000870737
8 *439:10 0.000511362
9 *1629:A1 *1629:A2 4.75849e-05
10 *1629:A1 *1629:B1 9.72057e-06
11 *1629:A1 *1630:B 0.000184527
12 *1629:A1 *453:14 0.000182832
13 *439:10 *1617:C 0.000225393
14 *439:10 *1622:B1 0
15 *439:10 *444:30 3.34129e-05
16 *439:10 *449:38 2.18506e-05
17 *439:10 *450:10 0.000308946
18 *439:10 *453:8 8.22585e-05
19 *439:14 *443:33 0
20 *439:14 *453:8 0.000181934
21 *439:20 *1635:A 0.000235303
22 *439:20 *453:8 1.14452e-05
23 *439:20 *453:14 0.00140845
24 *439:20 *466:10 0.00021263
25 *439:20 *549:35 1.47563e-05
26 *38:19 *439:10 5.9761e-05
*RES
1 *1606:Y *439:10 46.4721 
2 *439:10 *439:14 3.23143 
3 *439:14 *439:20 33.9743 
4 *439:20 *1630:A 23 
5 *439:20 *1629:A1 26.0243 
6 *439:14 *1624:C1 38 
7 *439:10 *1638:C1 38 
*END

*D_NET *440 0.00754549
*CONN
*I *2011:A2 I *D sky130_fd_sc_hd__a211o_1
*I *1607:Y O *D sky130_fd_sc_hd__a21oi_1
*CAP
1 *2011:A2 0
2 *1607:Y 0.000846612
3 *440:28 0.00240227
4 *440:14 0.00324889
5 *440:14 *1832:B1 5.50049e-05
6 *440:28 *499:31 0.000158051
7 *1599:A3 *440:14 2.22373e-05
8 *1607:B1 *440:14 2.81221e-05
9 *190:14 *440:28 0.000129592
10 *197:22 *440:28 0.000172586
11 *205:22 *440:28 0.000170345
12 *272:18 *440:14 0.000266636
13 *434:51 *440:14 4.51431e-05
*RES
1 *1607:Y *440:14 49.3685 
2 *440:14 *440:28 46.6363 
3 *440:28 *2011:A2 23 
*END

*D_NET *441 0.00261279
*CONN
*I *1609:C I *D sky130_fd_sc_hd__and3_1
*I *1611:A1 I *D sky130_fd_sc_hd__a21o_1
*I *2129:A I *D sky130_fd_sc_hd__buf_1
*I *1623:A2 I *D sky130_fd_sc_hd__a22o_1
*I *1608:X O *D sky130_fd_sc_hd__a211o_1
*CAP
1 *1609:C 1.48598e-05
2 *1611:A1 0
3 *2129:A 0.000177308
4 *1623:A2 6.17909e-05
5 *1608:X 8.36996e-05
6 *441:25 0.000280507
7 *441:14 0.000268243
8 *441:10 0.000118112
9 *441:8 8.36996e-05
10 *1609:C *523:39 3.07056e-06
11 *1623:A2 *1609:A 2.02872e-05
12 *1623:A2 *523:39 0.000181125
13 *1623:A2 *552:34 7.59794e-05
14 *2129:A *474:14 0.000191157
15 *2129:A *552:38 1.14452e-05
16 *2129:A *552:46 8.92738e-05
17 *2129:A *562:10 4.67488e-05
18 *441:8 *474:14 2.12178e-05
19 *441:14 *1609:A 6.72278e-05
20 *441:14 *523:39 0.000170388
21 *441:25 *474:14 0.000238937
22 *441:25 *552:38 0.000227492
23 *38:19 *2129:A 0.000180218
24 *423:38 *441:8 0
*RES
1 *1608:X *441:8 39.2014 
2 *441:8 *441:10 15 
3 *441:10 *441:14 2.9 
4 *441:14 *1623:A2 25.0507 
5 *441:14 *441:25 18.3143 
6 *441:25 *2129:A 42.6607 
7 *441:25 *1611:A1 38 
8 *441:10 *1609:C 23.2279 
*END

*D_NET *442 0.00102461
*CONN
*I *1621:C1 I *D sky130_fd_sc_hd__a211o_1
*I *1620:C1 I *D sky130_fd_sc_hd__a211oi_2
*I *1609:X O *D sky130_fd_sc_hd__and3_1
*CAP
1 *1621:C1 0
2 *1620:C1 9.96061e-05
3 *1609:X 0.000111465
4 *442:10 0.000211071
5 *1620:C1 *1620:B1 9.64022e-05
6 *1620:C1 *443:16 0.000194327
7 *442:10 *1620:B1 6.07611e-06
8 *442:10 *443:16 8.11552e-05
9 *442:10 *451:10 7.90464e-05
10 *442:10 *515:127 3.3746e-05
11 *442:10 *516:66 5.50106e-05
12 *38:19 *1620:C1 5.67058e-05
*RES
1 *1609:X *442:10 40.8793 
2 *442:10 *1620:C1 41.2314 
3 *442:10 *1621:C1 38 
*END

*D_NET *443 0.00466839
*CONN
*I *1638:A1 I *D sky130_fd_sc_hd__a211o_2
*I *1617:A I *D sky130_fd_sc_hd__nand3_1
*I *1622:A1 I *D sky130_fd_sc_hd__a21o_1
*I *1610:Y O *D sky130_fd_sc_hd__nand3_1
*CAP
1 *1638:A1 0
2 *1617:A 0
3 *1622:A1 0
4 *1610:Y 0.000753938
5 *443:33 0.00022966
6 *443:20 0.000391401
7 *443:16 0.000455934
8 *443:8 0.00104813
9 *443:8 *1637:A2 1.59094e-05
10 *443:8 *444:8 2.45549e-06
11 *443:8 *515:10 4.38068e-06
12 *443:8 *515:110 2.2136e-05
13 *443:8 *515:127 3.82058e-06
14 *443:16 *1621:B1 0
15 *443:16 *1622:B1 0
16 *443:16 *1624:A1 1.14452e-05
17 *443:16 *450:10 0.000160182
18 *443:16 *453:8 0.000187057
19 *443:16 *456:12 5.51294e-05
20 *443:16 *456:16 5.88882e-05
21 *443:16 *515:127 0.000145969
22 *443:20 *1622:B1 5.67058e-05
23 *443:20 *1638:B1 5.55687e-05
24 *443:20 *455:10 0.000181919
25 *443:20 *544:26 8.10184e-05
26 *443:33 *444:36 0.000239487
27 *443:33 *519:50 0
28 *443:33 *544:26 3.71251e-05
29 *443:33 *554:58 0
30 *1606:A *443:33 4.21594e-06
31 *1620:C1 *443:16 0.000194327
32 *1637:B1 *443:8 5.53914e-05
33 *50:31 *443:8 0.000135037
34 *439:14 *443:33 0
35 *442:10 *443:16 8.11552e-05
*RES
1 *1610:Y *443:8 46.7207 
2 *443:8 *443:16 23.0786 
3 *443:16 *443:20 4.45357 
4 *443:20 *1622:A1 23 
5 *443:20 *443:33 34.7643 
6 *443:33 *1617:A 23 
7 *443:16 *1638:A1 23 
*END

*D_NET *444 0.00240641
*CONN
*I *1617:B I *D sky130_fd_sc_hd__nand3_1
*I *1622:A2 I *D sky130_fd_sc_hd__a21o_1
*I *1620:A1 I *D sky130_fd_sc_hd__a211oi_2
*I *1621:A2 I *D sky130_fd_sc_hd__a211o_1
*I *1611:X O *D sky130_fd_sc_hd__a21o_1
*CAP
1 *1617:B 2.91837e-05
2 *1622:A2 0
3 *1620:A1 0
4 *1621:A2 0
5 *1611:X 0.000186432
6 *444:36 0.000154297
7 *444:30 0.000253418
8 *444:21 0.000269775
9 *444:8 0.00038627
10 *1617:B *1617:C 4.34973e-05
11 *444:8 *1611:B1 0
12 *444:8 *1621:A1 7.15623e-05
13 *444:21 *1616:A 8.80821e-05
14 *444:21 *1620:B1 0
15 *444:21 *1621:A1 4.9662e-05
16 *444:21 *1622:B1 6.07611e-06
17 *444:21 *449:23 8.32902e-05
18 *444:30 *1617:C 2.58435e-05
19 *444:30 *449:38 5.50106e-05
20 *444:36 *1622:B1 0.000112906
21 *444:36 *449:23 1.58805e-05
22 *1606:A *444:36 0
23 *38:19 *1617:B 9.84851e-05
24 *38:19 *444:30 0.000201382
25 *439:10 *444:30 3.34129e-05
26 *443:8 *444:8 2.45549e-06
27 *443:33 *444:36 0.000239487
*RES
1 *1611:X *444:8 26.0243 
2 *444:8 *1621:A2 23 
3 *444:8 *444:21 33.7079 
4 *444:21 *1620:A1 23 
5 *444:21 *444:30 2.54786 
6 *444:30 *444:36 33.6664 
7 *444:36 *1622:A2 23 
8 *444:30 *1617:B 24.0979 
*END

*D_NET *445 0.000516856
*CONN
*I *1655:A I *D sky130_fd_sc_hd__nand2_1
*I *1654:A I *D sky130_fd_sc_hd__and2_1
*I *1612:X O *D sky130_fd_sc_hd__or2_1
*CAP
1 *1655:A 0
2 *1654:A 7.99798e-06
3 *1612:X 4.68066e-05
4 *445:8 5.48046e-05
5 *1654:A *1654:B 2.4754e-05
6 *1654:A *488:8 5.67058e-05
7 *445:8 *1654:B 0.000200852
8 *445:8 *1655:B 0.00010018
9 *445:8 *488:8 2.4754e-05
*RES
1 *1612:X *445:8 25.5479 
2 *445:8 *1654:A 23.6214 
3 *445:8 *1655:A 23 
*END

*D_NET *446 0.00810174
*CONN
*I *1634:B1 I *D sky130_fd_sc_hd__a31o_1
*I *1648:A I *D sky130_fd_sc_hd__xnor2_1
*I *1649:A I *D sky130_fd_sc_hd__xor2_1
*I *1613:Y O *D sky130_fd_sc_hd__nor2_1
*CAP
1 *1634:B1 0
2 *1648:A 0
3 *1649:A 0.000151022
4 *1613:Y 7.52965e-05
5 *446:34 0.000881095
6 *446:16 0.000399699
7 *446:10 0.0021539
8 *446:8 0.00109942
9 *1649:A *1648:B 0.000148524
10 *1649:A *480:12 5.67058e-05
11 *446:8 *1613:A 2.93845e-05
12 *446:10 *1650:S 0
13 *446:10 *475:12 0
14 *446:10 *482:10 1.22803e-05
15 *446:10 *493:23 0.00160688
16 *446:10 *517:14 0.000139898
17 *446:10 *517:25 3.89e-05
18 *446:10 *517:108 0.000340246
19 *446:10 *551:14 0
20 *446:10 *551:25 7.76364e-06
21 *446:16 *1650:S 0
22 *446:16 *464:31 0
23 *446:16 *480:8 0
24 *446:16 *481:8 7.28526e-05
25 *446:16 *482:10 0.000148412
26 *446:34 *1634:A2 3.45967e-05
27 *446:34 *1651:A0 4.75774e-05
28 *446:34 *1651:A1 0.000185434
29 *446:34 *1651:S 9.24795e-06
30 *446:34 *464:14 0.000320934
31 *50:31 *446:8 1.32939e-05
32 *251:14 *446:10 1.37246e-05
33 *251:25 *446:10 0.000114656
*RES
1 *1613:Y *446:8 39.0979 
2 *446:8 *446:10 28.3164 
3 *446:10 *446:16 20.6964 
4 *446:16 *1649:A 26.9564 
5 *446:16 *1648:A 23 
6 *446:10 *446:34 28.8579 
7 *446:34 *1634:B1 23 
*END

*D_NET *447 0.000661871
*CONN
*I *1630:B I *D sky130_fd_sc_hd__or4_4
*I *1614:Y O *D sky130_fd_sc_hd__nor2_1
*CAP
1 *1630:B 0.000165362
2 *1614:Y 0.000165362
3 *1630:B *1629:A2 1.76557e-05
4 *1630:B *1629:B1 3.22879e-05
5 *1630:B *1630:C 7.41341e-05
6 *1630:B *551:74 2.25419e-05
7 *1629:A1 *1630:B 0.000184527
*RES
1 *1614:Y *1630:B 49.9564 
*END

*D_NET *448 0.00384557
*CONN
*I *1630:C I *D sky130_fd_sc_hd__or4_4
*I *1934:C I *D sky130_fd_sc_hd__and3_1
*I *1935:B1 I *D sky130_fd_sc_hd__a21oi_1
*I *1988:C I *D sky130_fd_sc_hd__and3_1
*I *1615:X O *D sky130_fd_sc_hd__and2_1
*CAP
1 *1630:C 0.000139431
2 *1934:C 7.40311e-05
3 *1935:B1 0
4 *1988:C 0
5 *1615:X 0.000202557
6 *448:33 0.000240504
7 *448:22 0.000309529
8 *448:14 0.000660585
9 *448:8 0.000526571
10 *1630:C *462:8 2.96369e-05
11 *1630:C *518:25 8.4047e-05
12 *1630:C *551:41 0
13 *1934:C *1934:A 4.17736e-05
14 *448:8 *462:8 1.62015e-05
15 *448:8 *551:41 0
16 *448:8 *554:36 0
17 *448:14 *462:14 1.32939e-05
18 *448:14 *464:14 9.84851e-05
19 *448:14 *518:31 0.000484551
20 *448:22 *1988:A 1.01436e-05
21 *448:22 *1989:B1 3.39231e-05
22 *448:22 *549:92 0.000118004
23 *448:22 *549:107 7.75329e-06
24 *448:22 *554:23 0
25 *448:22 *554:36 0
26 *448:33 *1934:A 9.28753e-05
27 *448:33 *1935:A2 0.000182832
28 *448:33 *518:31 0.000220153
29 *1630:B *1630:C 7.41341e-05
30 *1990:A *448:22 1.95448e-05
31 *313:8 *1934:C 1.37232e-05
32 *314:8 *1934:C 0.000126637
33 *314:8 *448:33 2.46468e-05
*RES
1 *1615:X *448:8 40.61 
2 *448:8 *448:14 20.8829 
3 *448:14 *448:22 36.7114 
4 *448:22 *1988:C 23 
5 *448:14 *448:33 5.55143 
6 *448:33 *1935:B1 23 
7 *448:33 *1934:C 25.2993 
8 *448:8 *1630:C 40.4132 
*END

*D_NET *449 0.00270187
*CONN
*I *1620:A2 I *D sky130_fd_sc_hd__a211oi_2
*I *1617:C I *D sky130_fd_sc_hd__nand3_1
*I *1622:B1 I *D sky130_fd_sc_hd__a21o_1
*I *1621:A1 I *D sky130_fd_sc_hd__a211o_1
*I *1616:X O *D sky130_fd_sc_hd__or2_1
*CAP
1 *1620:A2 0
2 *1617:C 0.000101814
3 *1622:B1 0.000189971
4 *1621:A1 0.000187578
5 *1616:X 6.98545e-05
6 *449:38 0.000118665
7 *449:23 0.000361385
8 *449:6 0.000411996
9 *1621:A1 *1611:B1 0
10 *1621:A1 *1616:A 2.98648e-05
11 *1621:A1 *454:10 0.00010018
12 *1622:B1 *544:26 2.93747e-05
13 *449:6 *1616:A 5.10805e-05
14 *449:6 *454:10 1.32314e-05
15 *449:6 *554:66 0.000185434
16 *449:23 *1616:A 9.21347e-06
17 *449:23 *554:66 3.92407e-05
18 *1606:A *449:23 0
19 *1617:B *1617:C 4.34973e-05
20 *38:19 *1617:C 3.53115e-05
21 *439:10 *1617:C 0.000225393
22 *439:10 *1622:B1 0
23 *439:10 *449:38 2.18506e-05
24 *443:16 *1622:B1 0
25 *443:20 *1622:B1 5.67058e-05
26 *444:8 *1621:A1 7.15623e-05
27 *444:21 *1621:A1 4.9662e-05
28 *444:21 *1622:B1 6.07611e-06
29 *444:21 *449:23 8.32902e-05
30 *444:30 *1617:C 2.58435e-05
31 *444:30 *449:38 5.50106e-05
32 *444:36 *1622:B1 0.000112906
33 *444:36 *449:23 1.58805e-05
*RES
1 *1616:X *449:6 25.5271 
2 *449:6 *1621:A1 27.4743 
3 *449:6 *449:23 18.4593 
4 *449:23 *1622:B1 41.9357 
5 *449:23 *449:38 15.6214 
6 *449:38 *1617:C 26.5214 
7 *449:38 *1620:A2 23 
*END

*D_NET *450 0.00198944
*CONN
*I *1638:A2 I *D sky130_fd_sc_hd__a211o_2
*I *1624:A1 I *D sky130_fd_sc_hd__a211o_1
*I *1617:Y O *D sky130_fd_sc_hd__nand3_1
*CAP
1 *1638:A2 0
2 *1624:A1 7.07512e-05
3 *1617:Y 0.000475038
4 *450:10 0.000545789
5 *1624:A1 *453:8 8.67053e-05
6 *1624:A1 *453:14 6.07611e-06
7 *1624:A1 *455:10 0.000141869
8 *1624:A1 *456:16 2.70366e-05
9 *450:10 *456:16 6.99782e-05
10 *38:19 *450:10 8.56254e-05
11 *439:10 *450:10 0.000308946
12 *443:16 *1624:A1 1.14452e-05
13 *443:16 *450:10 0.000160182
*RES
1 *1617:Y *450:10 45.6436 
2 *450:10 *1624:A1 40.61 
3 *450:10 *1638:A2 38 
*END

*D_NET *451 0.00103445
*CONN
*I *1620:B1 I *D sky130_fd_sc_hd__a211oi_2
*I *1621:B1 I *D sky130_fd_sc_hd__a211o_1
*I *1618:Y O *D sky130_fd_sc_hd__nor2_1
*CAP
1 *1620:B1 0.000144062
2 *1621:B1 3.35262e-05
3 *1618:Y 0.000163208
4 *451:10 0.000340796
5 *1620:B1 *1616:A 9.48381e-06
6 *451:10 *1616:A 5.0135e-05
7 *451:10 *516:66 5.50106e-05
8 *1620:C1 *1620:B1 9.64022e-05
9 *38:19 *1620:B1 5.67058e-05
10 *442:10 *1620:B1 6.07611e-06
11 *442:10 *451:10 7.90464e-05
12 *443:16 *1621:B1 0
13 *444:21 *1620:B1 0
*RES
1 *1618:Y *451:10 40.8793 
2 *451:10 *1621:B1 38.6214 
3 *451:10 *1620:B1 41.2314 
*END

*D_NET *452 0.00139224
*CONN
*I *1638:B1 I *D sky130_fd_sc_hd__a211o_2
*I *1619:X O *D sky130_fd_sc_hd__or2_1
*CAP
1 *1638:B1 0.000168221
2 *1619:X 9.85009e-05
3 *452:8 0.000266722
4 *1638:B1 *455:10 2.63049e-05
5 *1638:B1 *471:6 0.000182826
6 *1638:B1 *544:26 0.000389783
7 *452:8 *474:14 6.33614e-05
8 *452:8 *552:46 0.000140949
9 *443:20 *1638:B1 5.55687e-05
*RES
1 *1619:X *452:8 39.9057 
2 *452:8 *1638:B1 42.93 
*END

*D_NET *453 0.00520504
*CONN
*I *1624:B1 I *D sky130_fd_sc_hd__a211o_1
*I *1629:A2 I *D sky130_fd_sc_hd__o21ai_1
*I *1630:D I *D sky130_fd_sc_hd__or4_4
*I *1620:Y O *D sky130_fd_sc_hd__a211oi_2
*CAP
1 *1624:B1 0
2 *1629:A2 4.11197e-05
3 *1630:D 0
4 *1620:Y 0.000179994
5 *453:14 0.000760673
6 *453:8 0.000899548
7 *1629:A2 *1614:A 0
8 *1629:A2 *1629:B1 5.90675e-06
9 *1629:A2 *551:74 0.00010018
10 *453:14 *1627:A2 1.86869e-05
11 *453:14 *1657:C1 6.7177e-06
12 *453:14 *456:16 0
13 *453:14 *457:25 2.96369e-05
14 *453:14 *460:10 0
15 *453:14 *460:27 0.000428691
16 *453:14 *461:8 0
17 *453:14 *468:8 6.43253e-05
18 *453:14 *518:25 0.000306338
19 *453:14 *549:35 0.000135547
20 *453:14 *551:74 1.56762e-05
21 *1624:A1 *453:8 8.67053e-05
22 *1624:A1 *453:14 6.07611e-06
23 *1629:A1 *1629:A2 4.75849e-05
24 *1629:A1 *453:14 0.000182832
25 *1630:B *1629:A2 1.76557e-05
26 *439:10 *453:8 8.22585e-05
27 *439:14 *453:8 0.000181934
28 *439:20 *453:8 1.14452e-05
29 *439:20 *453:14 0.00140845
30 *443:16 *453:8 0.000187057
*RES
1 *1620:Y *453:8 43.075 
2 *453:8 *453:14 36.0043 
3 *453:14 *1630:D 23 
4 *453:14 *1629:A2 25.0921 
5 *453:8 *1624:B1 38 
*END

*D_NET *454 0.00750157
*CONN
*I *1968:A3 I *D sky130_fd_sc_hd__a31o_1
*I *1623:B1 I *D sky130_fd_sc_hd__a22o_1
*I *1637:A2 I *D sky130_fd_sc_hd__a21o_1
*I *1621:X O *D sky130_fd_sc_hd__a211o_1
*CAP
1 *1968:A3 0
2 *1623:B1 2.77218e-05
3 *1637:A2 0.000137661
4 *1621:X 0.0002379
5 *454:44 0.000884079
6 *454:18 0.000632093
7 *454:10 0.00158869
8 *1623:B1 *523:39 2.64616e-05
9 *1623:B1 *552:25 5.3304e-05
10 *1637:A2 *519:88 0.000264524
11 *454:10 *1616:A 3.56537e-05
12 *454:10 *1618:A 3.06908e-05
13 *454:10 *516:79 1.27191e-05
14 *454:10 *554:66 1.01436e-05
15 *454:18 *519:88 3.72442e-05
16 *454:44 *1618:A 7.00827e-05
17 *454:44 *538:20 0.000219383
18 *454:44 *540:18 0.000371254
19 *454:44 *540:22 0.000135547
20 *454:44 *542:133 0
21 *454:44 *543:76 0.000104051
22 *454:44 *543:95 6.67941e-05
23 *1605:B1 *454:44 0.000243587
24 *1606:A *454:10 0
25 *1621:A1 *454:10 0.00010018
26 *1637:B1 *1637:A2 5.50106e-05
27 *2054:A *1637:A2 0.000265417
28 *2054:A *454:18 4.30894e-05
29 *302:14 *454:44 0.000112087
30 *337:16 *454:44 0.000585905
31 *337:18 *454:44 0.000189621
32 *434:10 *454:44 0
33 *434:29 *454:18 0.000931532
34 *443:8 *1637:A2 1.59094e-05
35 *449:6 *454:10 1.32314e-05
*RES
1 *1621:X *454:10 42.2361 
2 *454:10 *454:18 18.4465 
3 *454:18 *1637:A2 42.2879 
4 *454:18 *1623:B1 38.6214 
5 *454:10 *454:44 36.1596 
6 *454:44 *1968:A3 23 
*END

*D_NET *455 0.00102153
*CONN
*I *1624:A2 I *D sky130_fd_sc_hd__a211o_1
*I *1622:X O *D sky130_fd_sc_hd__a21o_1
*CAP
1 *1624:A2 0
2 *1622:X 0.000263661
3 *455:10 0.000263661
4 *455:10 *456:16 0.00014411
5 *1624:A1 *455:10 0.000141869
6 *1638:B1 *455:10 2.63049e-05
7 *443:20 *455:10 0.000181919
*RES
1 *1622:X *455:10 42.9093 
2 *455:10 *1624:A2 38 
*END

*D_NET *456 0.00379957
*CONN
*I *1627:A1 I *D sky130_fd_sc_hd__a21oi_1
*I *1625:A I *D sky130_fd_sc_hd__nand2_1
*I *1626:A I *D sky130_fd_sc_hd__and3_1
*I *1623:X O *D sky130_fd_sc_hd__a22o_1
*CAP
1 *1627:A1 0
2 *1625:A 8.77601e-05
3 *1626:A 0.000176447
4 *1623:X 0.000384572
5 *456:18 0.000268875
6 *456:16 0.00032186
7 *456:12 0.000701763
8 *1625:A *1625:B 5.90675e-06
9 *1625:A *458:10 5.23232e-05
10 *1626:A *458:10 2.79662e-05
11 *456:12 *474:14 0.000346215
12 *456:12 *515:127 0.000219873
13 *456:12 *516:66 0.000177604
14 *456:16 *1627:A2 6.38845e-05
15 *456:16 *457:25 9.94675e-05
16 *456:16 *460:10 8.94394e-05
17 *456:16 *474:14 0.000230077
18 *456:16 *519:50 0.000111852
19 *1624:A1 *456:16 2.70366e-05
20 *1627:B1 *1626:A 7.85468e-05
21 *443:16 *456:12 5.51294e-05
22 *443:16 *456:16 5.88882e-05
23 *450:10 *456:16 6.99782e-05
24 *453:14 *456:16 0
25 *455:10 *456:16 0.00014411
*RES
1 *1623:X *456:12 45.395 
2 *456:12 *456:16 24.3007 
3 *456:16 *456:18 0.497143 
4 *456:18 *1626:A 26.1693 
5 *456:18 *1625:A 25.1336 
6 *456:16 *1627:A1 23 
*END

*D_NET *457 0.00243089
*CONN
*I *1625:B I *D sky130_fd_sc_hd__nand2_1
*I *1627:A2 I *D sky130_fd_sc_hd__a21oi_1
*I *1626:C I *D sky130_fd_sc_hd__and3_1
*I *1624:X O *D sky130_fd_sc_hd__a211o_1
*CAP
1 *1625:B 8.12103e-05
2 *1627:A2 3.36493e-05
3 *1626:C 0
4 *1624:X 0
5 *457:25 0.000278752
6 *457:14 0.000583209
7 *457:4 0.000747101
8 *1625:B *458:10 9.84851e-05
9 *1625:B *565:62 0.000140259
10 *457:14 *472:8 0
11 *457:14 *565:58 1.21972e-05
12 *1625:A *1625:B 5.90675e-06
13 *1627:B1 *457:14 0.000123436
14 *294:47 *457:14 7.79942e-05
15 *294:51 *457:14 3.70187e-05
16 *453:14 *1627:A2 1.86869e-05
17 *453:14 *457:25 2.96369e-05
18 *456:16 *1627:A2 6.38845e-05
19 *456:16 *457:25 9.94675e-05
*RES
1 *1624:X *457:4 23 
2 *457:4 *457:14 38.4514 
3 *457:14 *1626:C 23 
4 *457:4 *457:25 17.6514 
5 *457:25 *1627:A2 38.8493 
6 *457:25 *1625:B 40.4236 
*END

*D_NET *458 0.00170254
*CONN
*I *1644:A0 I *D sky130_fd_sc_hd__mux2_4
*I *1625:Y O *D sky130_fd_sc_hd__nand2_1
*CAP
1 *1644:A0 2.85733e-05
2 *1625:Y 0.00025295
3 *458:10 0.000281524
4 *1644:A0 *476:8 9.67842e-05
5 *458:10 *459:8 8.62876e-05
6 *458:10 *460:10 5.3304e-05
7 *458:10 *552:46 0.000238194
8 *458:10 *565:58 9.5877e-05
9 *458:10 *565:62 7.48207e-05
10 *1625:A *458:10 5.23232e-05
11 *1625:B *458:10 9.84851e-05
12 *1626:A *458:10 2.79662e-05
13 *1627:B1 *458:10 0.000181125
14 *294:47 *458:10 1.83667e-05
15 *294:51 *458:10 6.18245e-05
16 *413:10 *1644:A0 5.41385e-05
*RES
1 *1625:Y *458:10 45.7471 
2 *458:10 *1644:A0 39.0979 
*END

*D_NET *459 0.00326915
*CONN
*I *1628:A I *D sky130_fd_sc_hd__nor2_1
*I *1640:B1_N I *D sky130_fd_sc_hd__o21ba_4
*I *1636:C1 I *D sky130_fd_sc_hd__a211o_4
*I *1626:X O *D sky130_fd_sc_hd__and3_1
*CAP
1 *1628:A 2.56995e-05
2 *1640:B1_N 3.28483e-05
3 *1636:C1 0.000269547
4 *1626:X 3.55839e-05
5 *459:29 5.85478e-05
6 *459:16 0.000520978
7 *459:8 0.000287015
8 *1628:A *517:33 8.43466e-05
9 *1628:A *540:47 9.67842e-05
10 *1636:C1 *1635:B 6.78463e-05
11 *1636:C1 *1636:A2 0.00014196
12 *1636:C1 *460:27 0
13 *1636:C1 *467:10 1.19796e-05
14 *1636:C1 *469:6 3.7122e-06
15 *1636:C1 *474:14 7.91596e-05
16 *1636:C1 *488:8 5.50106e-05
17 *1636:C1 *549:35 0.000200193
18 *1636:C1 *552:46 0.000428691
19 *1640:B1_N *517:33 9.58714e-05
20 *1640:B1_N *540:47 9.58714e-05
21 *459:16 *474:14 0.000145936
22 *459:16 *476:8 6.99492e-05
23 *459:16 *552:46 0.000286812
24 *294:51 *459:8 8.85189e-05
25 *458:10 *459:8 8.62876e-05
*RES
1 *1626:X *459:8 39.2014 
2 *459:8 *459:16 35.5929 
3 *459:16 *1636:C1 46.7829 
4 *459:16 *459:29 15 
5 *459:29 *1640:B1_N 24.0979 
6 *459:29 *1628:A 24.0979 
*END

*D_NET *460 0.00289301
*CONN
*I *1636:B1 I *D sky130_fd_sc_hd__a211o_4
*I *1628:B I *D sky130_fd_sc_hd__nor2_1
*I *1627:Y O *D sky130_fd_sc_hd__a21oi_1
*CAP
1 *1636:B1 0
2 *1628:B 0
3 *1627:Y 0.000294866
4 *460:27 0.000266112
5 *460:14 0.000276975
6 *460:10 0.000305729
7 *460:10 *461:8 0.000166513
8 *460:10 *468:8 3.82956e-05
9 *460:10 *474:14 0.000475728
10 *460:10 *565:62 5.3304e-05
11 *460:14 *517:33 5.67058e-05
12 *460:14 *540:47 5.50106e-05
13 *460:27 *1635:B 0
14 *460:27 *468:8 6.6869e-05
15 *460:27 *474:14 0
16 *460:27 *517:33 0.00012612
17 *460:27 *540:47 0.000139352
18 *1636:C1 *460:27 0
19 *453:14 *460:10 0
20 *453:14 *460:27 0.000428691
21 *456:16 *460:10 8.94394e-05
22 *458:10 *460:10 5.3304e-05
*RES
1 *1627:Y *460:10 45.105 
2 *460:10 *460:14 15.6214 
3 *460:14 *1628:B 23 
4 *460:14 *460:27 37.3536 
5 *460:27 *1636:B1 23 
*END

*D_NET *461 0.00067523
*CONN
*I *1643:A I *D sky130_fd_sc_hd__xnor2_1
*I *1628:Y O *D sky130_fd_sc_hd__nor2_1
*CAP
1 *1643:A 7.54469e-05
2 *1628:Y 6.60055e-05
3 *461:8 0.000141452
4 *1643:A *1643:B 5.50106e-05
5 *461:8 *468:8 0.000140949
6 *413:10 *1643:A 2.9853e-05
7 *453:14 *461:8 0
8 *460:10 *461:8 0.000166513
*RES
1 *1628:Y *461:8 40.2579 
2 *461:8 *1643:A 39.5743 
*END

*D_NET *462 0.00165719
*CONN
*I *1631:A I *D sky130_fd_sc_hd__nand2_1
*I *1633:A1 I *D sky130_fd_sc_hd__a21o_1
*I *1634:A2 I *D sky130_fd_sc_hd__a31o_1
*I *1629:Y O *D sky130_fd_sc_hd__o21ai_1
*CAP
1 *1631:A 0
2 *1633:A1 0
3 *1634:A2 0.000277384
4 *1629:Y 0.000118374
5 *462:14 0.000438243
6 *462:10 0.000160859
7 *462:8 0.000118374
8 *1634:A2 *1633:B1 9.04257e-05
9 *1634:A2 *1634:A1 1.41077e-05
10 *1634:A2 *463:27 0.000184527
11 *462:8 *554:36 5.15745e-05
12 *462:14 *1631:B 2.32101e-05
13 *462:14 *463:27 6.87281e-05
14 *462:14 *464:14 1.76557e-05
15 *1630:C *462:8 2.96369e-05
16 *446:34 *1634:A2 3.45967e-05
17 *448:8 *462:8 1.62015e-05
18 *448:14 *462:14 1.32939e-05
*RES
1 *1629:Y *462:8 40.2579 
2 *462:8 *462:10 15 
3 *462:10 *462:14 2.9 
4 *462:14 *1634:A2 27.8057 
5 *462:14 *1633:A1 23 
6 *462:10 *1631:A 23 
*END

*D_NET *463 0.00160334
*CONN
*I *1631:B I *D sky130_fd_sc_hd__nand2_1
*I *1633:A2 I *D sky130_fd_sc_hd__a21o_1
*I *1634:A1 I *D sky130_fd_sc_hd__a31o_1
*I *1630:X O *D sky130_fd_sc_hd__or4_4
*CAP
1 *1631:B 1.56221e-05
2 *1633:A2 0
3 *1634:A1 4.79361e-05
4 *1630:X 7.98592e-05
5 *463:27 0.000190367
6 *463:8 0.00030254
7 *1631:B *464:14 5.50106e-05
8 *1634:A1 *1633:B1 5.55032e-05
9 *1634:A1 *464:14 0.000139352
10 *463:8 *466:10 8.62876e-05
11 *463:8 *549:35 6.33614e-05
12 *463:8 *551:41 1.06693e-05
13 *463:27 *1633:B1 0.00011172
14 *463:27 *464:14 6.00624e-05
15 *463:27 *466:10 3.28227e-05
16 *463:27 *549:23 0
17 *463:27 *549:35 0
18 *463:27 *551:41 6.16531e-05
19 *1634:A2 *1634:A1 1.41077e-05
20 *1634:A2 *463:27 0.000184527
21 *462:14 *1631:B 2.32101e-05
22 *462:14 *463:27 6.87281e-05
*RES
1 *1630:X *463:8 39.9057 
2 *463:8 *1634:A1 39.5743 
3 *463:8 *463:27 19.9714 
4 *463:27 *1633:A2 23 
5 *463:27 *1631:B 23.6214 
*END

*D_NET *464 0.00497722
*CONN
*I *1632:A I *D sky130_fd_sc_hd__inv_2
*I *1647:B I *D sky130_fd_sc_hd__xnor2_1
*I *1651:A0 I *D sky130_fd_sc_hd__mux2_4
*I *1631:Y O *D sky130_fd_sc_hd__nand2_1
*CAP
1 *1632:A 0
2 *1647:B 0
3 *1651:A0 6.28059e-05
4 *1631:Y 0.00060738
5 *464:31 0.000463188
6 *464:25 0.000553699
7 *464:14 0.000760697
8 *1651:A0 *1651:S 9.94357e-05
9 *464:14 *1633:B1 0.000122967
10 *464:14 *467:10 0.000274907
11 *464:14 *518:31 2.32004e-05
12 *464:25 *1650:S 0.000205396
13 *464:25 *515:94 0.000107641
14 *464:31 *1650:S 1.58805e-05
15 *464:31 *481:8 0
16 *464:31 *494:14 0.000261168
17 *464:31 *515:94 0.000679774
18 *1631:B *464:14 5.50106e-05
19 *1634:A1 *464:14 0.000139352
20 *446:16 *464:31 0
21 *446:34 *1651:A0 4.75774e-05
22 *446:34 *464:14 0.000320934
23 *448:14 *464:14 9.84851e-05
24 *462:14 *464:14 1.76557e-05
25 *463:27 *464:14 6.00624e-05
*RES
1 *1631:Y *464:14 39.675 
2 *464:14 *1651:A0 24.5743 
3 *464:14 *464:25 17.9621 
4 *464:25 *464:31 27.47 
5 *464:31 *1647:B 23 
6 *464:25 *1632:A 38 
*END

*D_NET *465 0.000547266
*CONN
*I *1650:A0 I *D sky130_fd_sc_hd__mux2_1
*I *1632:Y O *D sky130_fd_sc_hd__inv_2
*CAP
1 *1650:A0 8.83429e-05
2 *1632:Y 8.83429e-05
3 *1650:A0 *1650:S 9.84794e-05
4 *1650:A0 *546:25 0.000272101
*RES
1 *1632:Y *1650:A0 49.0036 
*END

*D_NET *466 0.00188424
*CONN
*I *1635:A I *D sky130_fd_sc_hd__nand2_1
*I *1636:A1 I *D sky130_fd_sc_hd__a211o_4
*I *1633:X O *D sky130_fd_sc_hd__a21o_1
*CAP
1 *1635:A 0.000269176
2 *1636:A1 0
3 *1633:X 0.000219931
4 *466:10 0.000489107
5 *1635:A *487:14 0.000221079
6 *466:10 *549:35 1.62615e-05
7 *466:10 *551:41 0.000101647
8 *439:20 *1635:A 0.000235303
9 *439:20 *466:10 0.00021263
10 *463:8 *466:10 8.62876e-05
11 *463:27 *466:10 3.28227e-05
*RES
1 *1633:X *466:10 43.3443 
2 *466:10 *1636:A1 38 
3 *466:10 *1635:A 43.8414 
*END

*D_NET *467 0.00242716
*CONN
*I *1635:B I *D sky130_fd_sc_hd__nand2_1
*I *1636:A2 I *D sky130_fd_sc_hd__a211o_4
*I *1634:X O *D sky130_fd_sc_hd__a31o_1
*CAP
1 *1635:B 0.000135828
2 *1636:A2 0.000200855
3 *1634:X 0.000467298
4 *467:10 0.000803981
5 *1636:A2 *488:8 0.000110379
6 *467:10 *1657:C1 7.56417e-05
7 *467:10 *549:35 0
8 *467:10 *552:46 0.000136484
9 *1636:C1 *1635:B 6.78463e-05
10 *1636:C1 *1636:A2 0.00014196
11 *1636:C1 *467:10 1.19796e-05
12 *460:27 *1635:B 0
13 *464:14 *467:10 0.000274907
*RES
1 *1634:X *467:10 46.555 
2 *467:10 *1636:A2 41.9564 
3 *467:10 *1635:B 40.9621 
*END

*D_NET *468 0.000823842
*CONN
*I *1643:B I *D sky130_fd_sc_hd__xnor2_1
*I *1635:Y O *D sky130_fd_sc_hd__nand2_1
*CAP
1 *1643:B 1.80182e-05
2 *1635:Y 0.000176683
3 *468:8 0.000194702
4 *468:8 *474:14 3.96053e-05
5 *1643:A *1643:B 5.50106e-05
6 *413:10 *1643:B 2.93845e-05
7 *453:14 *468:8 6.43253e-05
8 *460:10 *468:8 3.82956e-05
9 *460:27 *468:8 6.6869e-05
10 *461:8 *468:8 0.000140949
*RES
1 *1635:Y *468:8 42.7229 
2 *468:8 *1643:B 38.6214 
*END

*D_NET *469 0.00237004
*CONN
*I *1656:A1 I *D sky130_fd_sc_hd__a211o_1
*I *1657:A1 I *D sky130_fd_sc_hd__a211o_1
*I *1642:A2 I *D sky130_fd_sc_hd__a21oi_4
*I *1636:X O *D sky130_fd_sc_hd__a211o_4
*CAP
1 *1656:A1 5.66322e-05
2 *1657:A1 0.000160784
3 *1642:A2 0.000181357
4 *1636:X 0.000229788
5 *469:17 0.000217417
6 *469:6 0.000411145
7 *1642:A2 *1642:A1 9.84794e-05
8 *1642:A2 *549:35 9.00923e-05
9 *1656:A1 *473:10 1.14452e-05
10 *1656:A1 *473:12 0.000157299
11 *1657:A1 *1657:A2 0.000187986
12 *1657:A1 *473:12 8.94487e-05
13 *469:6 *549:35 3.97138e-05
14 *1636:C1 *469:6 3.7122e-06
15 *294:51 *1656:A1 0.000166513
16 *294:51 *1657:A1 0.000268231
*RES
1 *1636:X *469:6 25.5271 
2 *469:6 *1642:A2 26.8529 
3 *469:6 *469:17 15 
4 *469:17 *1657:A1 41.6664 
5 *469:17 *1656:A1 40.2579 
*END

*D_NET *470 0.00155429
*CONN
*I *1639:A I *D sky130_fd_sc_hd__and2_1
*I *1668:A I *D sky130_fd_sc_hd__or2_1
*I *1637:X O *D sky130_fd_sc_hd__a21o_1
*CAP
1 *1639:A 0
2 *1668:A 0.000130123
3 *1637:X 0.000205175
4 *470:12 0.000130123
5 *470:10 0.000205175
6 *1668:A *1668:B 2.93747e-05
7 *1668:A *471:10 7.44963e-05
8 *1668:A *519:77 0
9 *1668:A *544:30 0.000141318
10 *470:10 *475:102 0
11 *470:10 *515:12 5.3304e-05
12 *470:10 *515:88 0.000343064
13 *470:10 *519:77 0.000216721
14 *470:10 *562:10 2.5415e-05
*RES
1 *1637:X *470:10 43.3443 
2 *470:10 *470:12 15 
3 *470:12 *1668:A 26.5007 
4 *470:12 *1639:A 23 
*END

*D_NET *471 0.0214091
*CONN
*I *1639:B I *D sky130_fd_sc_hd__and2_1
*I *1669:A1 I *D sky130_fd_sc_hd__a21oi_1
*I *1672:B I *D sky130_fd_sc_hd__and3_1
*I *1694:A1 I *D sky130_fd_sc_hd__a21o_1
*I *1738:B1 I *D sky130_fd_sc_hd__o21ai_1
*I *1762:A1 I *D sky130_fd_sc_hd__a21oi_1
*I *1763:B I *D sky130_fd_sc_hd__and3_1
*I *1693:B I *D sky130_fd_sc_hd__and3_1
*I *1638:X O *D sky130_fd_sc_hd__a211o_2
*CAP
1 *1639:B 0
2 *1669:A1 0
3 *1672:B 0
4 *1694:A1 6.6134e-05
5 *1738:B1 0
6 *1762:A1 0
7 *1763:B 0.000168774
8 *1693:B 4.24857e-05
9 *1638:X 0.000336864
10 *471:86 0.000166175
11 *471:71 0.000869879
12 *471:65 0.00356
13 *471:49 0.00341214
14 *471:41 0.000731191
15 *471:26 0.000797533
16 *471:20 0.00105474
17 *471:10 0.00157504
18 *471:6 0.00133423
19 *1763:B *1763:A 1.23293e-05
20 *1763:B *531:6 1.05235e-05
21 *471:6 *544:30 0.00017976
22 *471:10 *1668:B 5.50049e-05
23 *471:10 *519:77 4.86028e-06
24 *471:10 *544:30 1.32697e-05
25 *471:20 *1692:A1 1.01436e-05
26 *471:20 *539:104 0.000108418
27 *471:20 *546:119 0.00021356
28 *471:20 *556:10 8.72173e-05
29 *471:20 *556:21 0.000136486
30 *471:26 *1673:B 0.000101329
31 *471:26 *1673:C 4.66047e-05
32 *471:26 *531:74 2.5415e-05
33 *471:41 *531:74 1.94685e-05
34 *471:41 *539:62 6.08751e-05
35 *471:49 *1591:A 2.18506e-05
36 *471:49 *1738:A2 5.50106e-05
37 *471:49 *536:20 0.000648824
38 *471:49 *536:22 2.24973e-05
39 *471:49 *542:84 2.02872e-05
40 *471:49 *565:52 0.000259026
41 *471:65 *512:12 3.5243e-05
42 *471:65 *512:25 1.20966e-05
43 *471:65 *531:21 0.000106463
44 *471:71 *1762:B1 0.000114437
45 *471:71 *497:27 2.05503e-05
46 *471:71 *498:45 0
47 *471:71 *531:21 0.00120492
48 *471:86 *1762:B1 1.69668e-05
49 *1638:B1 *471:6 0.000182826
50 *1668:A *471:10 7.44963e-05
51 *1677:B1 *471:20 6.70361e-05
52 *1689:A1 *471:10 5.50049e-05
53 *1694:A2 *1694:A1 9.67842e-05
54 *1694:A2 *471:41 0.000181125
55 *1763:C *1763:B 7.83367e-06
56 *1763:C *471:86 6.24993e-06
57 *1789:B *471:71 0
58 *2112:A *471:20 0.000141052
59 *2112:A *471:26 8.60475e-05
60 *43:6 *471:10 0.000190058
61 *43:6 *471:20 1.21972e-05
62 *43:12 *471:20 1.21972e-05
63 *47:14 *471:26 7.03766e-05
64 *48:6 *471:26 0.000139352
65 *62:14 *471:10 8.56352e-05
66 *64:24 *1693:B 5.50106e-05
67 *65:10 *471:26 4.96264e-05
68 *65:10 *471:41 6.33614e-05
69 *113:6 *471:49 6.17437e-06
70 *136:14 *471:71 0
71 *136:31 *471:86 0.000167275
72 *140:10 *471:71 0.00027019
73 *140:10 *471:86 0.000110184
74 *161:8 *471:71 0
75 *173:10 *471:71 0.000536703
76 *283:8 *471:49 0.000228903
77 *283:12 *471:26 5.23664e-05
78 *283:12 *471:41 2.11887e-05
79 *283:12 *471:49 0.000701263
80 *304:8 *471:65 0
*RES
1 *1638:X *471:6 30.2914 
2 *471:6 *471:10 13.8579 
3 *471:10 *471:20 39.4457 
4 *471:20 *471:26 24.2593 
5 *471:26 *1693:B 38.6214 
6 *471:26 *471:41 20.0129 
7 *471:41 *471:49 44.6864 
8 *471:49 *471:65 45.0119 
9 *471:65 *471:71 40.5761 
10 *471:71 *1763:B 25.0507 
11 *471:71 *471:86 33.3557 
12 *471:86 *1762:A1 23 
13 *471:49 *1738:B1 23 
14 *471:41 *1694:A1 24.0979 
15 *471:20 *1672:B 23 
16 *471:10 *1669:A1 23 
17 *471:6 *1639:B 23 
*END

*D_NET *472 0.00169236
*CONN
*I *1640:A2 I *D sky130_fd_sc_hd__o21ba_4
*I *1639:X O *D sky130_fd_sc_hd__and2_1
*CAP
1 *1640:A2 0
2 *1639:X 0.000430146
3 *472:8 0.000430146
4 *472:8 *518:50 0.000832068
5 *472:8 *552:46 0
6 *294:51 *472:8 0
7 *457:14 *472:8 0
*RES
1 *1639:X *472:8 49.0614 
2 *472:8 *1640:A2 38 
*END

*D_NET *473 0.00158101
*CONN
*I *1656:A2 I *D sky130_fd_sc_hd__a211o_1
*I *1642:A1 I *D sky130_fd_sc_hd__a21oi_4
*I *1657:A2 I *D sky130_fd_sc_hd__a211o_1
*I *1640:X O *D sky130_fd_sc_hd__o21ba_4
*CAP
1 *1656:A2 0
2 *1642:A1 2.01797e-05
3 *1657:A2 0.000129
4 *1640:X 0.000124943
5 *473:12 0.000284344
6 *473:10 0.000260107
7 *1642:A1 *549:35 9.84794e-05
8 *1657:A2 *518:10 0
9 *473:10 *517:33 5.50106e-05
10 *473:10 *518:10 0
11 *473:10 *518:50 0
12 *473:12 *518:10 0
13 *1642:A2 *1642:A1 9.84794e-05
14 *1656:A1 *473:10 1.14452e-05
15 *1656:A1 *473:12 0.000157299
16 *1657:A1 *1657:A2 0.000187986
17 *1657:A1 *473:12 8.94487e-05
18 *294:51 *473:10 6.42902e-05
*RES
1 *1640:X *473:10 40.5271 
2 *473:10 *473:12 3.31429 
3 *473:12 *1657:A2 40.61 
4 *473:12 *1642:A1 39.0979 
5 *473:10 *1656:A2 38 
*END

*D_NET *474 0.00632343
*CONN
*I *1656:B1 I *D sky130_fd_sc_hd__a211o_1
*I *1642:B1 I *D sky130_fd_sc_hd__a21oi_4
*I *1657:B1 I *D sky130_fd_sc_hd__a211o_1
*I *1641:X O *D sky130_fd_sc_hd__a21o_1
*CAP
1 *1656:B1 0
2 *1642:B1 0
3 *1657:B1 8.80991e-05
4 *1641:X 0
5 *474:18 0.000173307
6 *474:14 0.00146243
7 *474:6 0.00137722
8 *1657:B1 *551:33 0.000137788
9 *1657:B1 *552:46 0
10 *474:14 *487:14 0.000109042
11 *474:14 *516:79 0
12 *474:14 *519:50 0.000114083
13 *474:14 *542:133 0
14 *474:14 *543:42 0.00017093
15 *474:14 *543:54 0
16 *474:14 *551:33 8.06804e-06
17 *474:14 *552:38 1.98354e-05
18 *474:14 *552:46 0.000193737
19 *474:18 *551:33 0.000166504
20 *474:18 *552:46 4.32475e-05
21 *1608:A2 *474:14 0
22 *1636:C1 *474:14 7.91596e-05
23 *2129:A *474:14 0.000191157
24 *294:51 *1657:B1 0.000190227
25 *294:51 *474:18 0.000237525
26 *423:38 *474:14 0
27 *441:8 *474:14 2.12178e-05
28 *441:25 *474:14 0.000238937
29 *452:8 *474:14 6.33614e-05
30 *456:12 *474:14 0.000346215
31 *456:16 *474:14 0.000230077
32 *459:16 *474:14 0.000145936
33 *460:10 *474:14 0.000475728
34 *460:27 *474:14 0
35 *468:8 *474:14 3.96053e-05
*RES
1 *1641:X *474:6 38 
2 *474:6 *474:14 47.7493 
3 *474:14 *474:18 18.3143 
4 *474:18 *1657:B1 40.61 
5 *474:18 *1642:B1 38 
6 *474:14 *1656:B1 23 
*END

*D_NET *475 0.0131501
*CONN
*I *1644:S I *D sky130_fd_sc_hd__mux2_4
*I *1924:A2 I *D sky130_fd_sc_hd__a211oi_1
*I *1668:B I *D sky130_fd_sc_hd__or2_1
*I *1658:A2 I *D sky130_fd_sc_hd__o21ai_1
*I *1660:A2 I *D sky130_fd_sc_hd__o211ai_2
*I *1659:A2 I *D sky130_fd_sc_hd__o211a_1
*I *1651:S I *D sky130_fd_sc_hd__mux2_4
*I *1650:S I *D sky130_fd_sc_hd__mux2_1
*I *1642:Y O *D sky130_fd_sc_hd__a21oi_4
*CAP
1 *1644:S 0.000235979
2 *1924:A2 0
3 *1668:B 1.80505e-05
4 *1658:A2 0.000169668
5 *1660:A2 0.000179889
6 *1659:A2 5.53322e-05
7 *1651:S 0.000154017
8 *1650:S 0.000263314
9 *1642:Y 0.000405457
10 *475:102 0.00130098
11 *475:83 0.00158183
12 *475:81 0.000722021
13 *475:68 0.000537337
14 *475:51 0.000365097
15 *475:12 0.000566399
16 *475:10 0.000271036
17 *475:8 0.000512873
18 *1644:S *477:8 0.000143869
19 *1650:S *481:8 0
20 *1650:S *515:94 6.7177e-06
21 *1651:S *1651:A1 4.65917e-05
22 *1658:A2 *1658:A1 5.50049e-05
23 *1659:A2 *517:8 4.67957e-05
24 *1659:A2 *518:25 0
25 *1660:A2 *549:35 2.64616e-05
26 *475:8 *549:35 0.000520415
27 *475:10 *515:88 2.96369e-05
28 *475:12 *515:88 7.75329e-06
29 *475:12 *515:94 5.93381e-05
30 *475:51 *515:88 2.64506e-05
31 *475:68 *515:88 5.58302e-05
32 *475:68 *568:26 4.73716e-05
33 *475:81 *515:88 0
34 *475:83 *515:88 0
35 *475:83 *517:108 0.0001961
36 *475:102 *1590:A 2.60152e-05
37 *475:102 *493:23 0
38 *475:102 *494:32 7.36606e-05
39 *475:102 *515:20 0.000136728
40 *475:102 *515:88 0
41 *475:102 *517:108 0.000222438
42 *475:102 *519:77 7.71979e-05
43 *475:102 *531:122 0.000181125
44 *475:102 *551:126 0.00096696
45 *475:102 *552:10 0
46 *475:102 *552:12 0
47 *475:102 *562:10 0.000116314
48 *1650:A0 *1650:S 9.84794e-05
49 *1651:A0 *1651:S 9.94357e-05
50 *1658:B1 *1658:A2 9.00923e-05
51 *1668:A *1668:B 2.93747e-05
52 *31:6 *1658:A2 6.17437e-06
53 *31:19 *475:10 0.000100778
54 *31:19 *475:12 3.70094e-05
55 *31:19 *475:51 7.80035e-05
56 *31:19 *475:68 0.0001782
57 *32:10 *1659:A2 9.58714e-05
58 *240:10 *475:102 3.36034e-05
59 *241:8 *475:83 0.000539864
60 *241:8 *475:102 1.01436e-05
61 *241:16 *1644:S 1.32314e-05
62 *241:26 *1660:A2 0.000102093
63 *241:26 *475:68 3.81486e-05
64 *241:26 *475:81 0.000391682
65 *243:14 *475:102 0.000324733
66 *294:24 *475:102 0.000114083
67 *413:10 *1644:S 7.54868e-05
68 *446:10 *1650:S 0
69 *446:10 *475:12 0
70 *446:16 *1650:S 0
71 *446:34 *1651:S 9.24795e-06
72 *464:25 *1650:S 0.000205396
73 *464:31 *1650:S 1.58805e-05
74 *470:10 *475:102 0
75 *471:10 *1668:B 5.50049e-05
*RES
1 *1642:Y *475:8 43.8621 
2 *475:8 *475:10 1.55357 
3 *475:10 *475:12 2.96214 
4 *475:12 *1650:S 43.5307 
5 *475:12 *1651:S 41.3764 
6 *475:10 *1659:A2 39.595 
7 *475:8 *475:51 1.20143 
8 *475:51 *1660:A2 41.5007 
9 *475:51 *475:68 4.08071 
10 *475:68 *1658:A2 41.0243 
11 *475:68 *475:81 5.42714 
12 *475:81 *475:83 7.89214 
13 *475:83 *1668:B 38.6214 
14 *475:83 *475:102 46.1336 
15 *475:102 *1924:A2 23 
16 *475:81 *1644:S 42.5779 
*END

*D_NET *476 0.000737231
*CONN
*I *1644:A1 I *D sky130_fd_sc_hd__mux2_4
*I *1643:Y O *D sky130_fd_sc_hd__xnor2_1
*CAP
1 *1644:A1 0
2 *1643:Y 0.000243193
3 *476:8 0.000243193
4 *1644:A0 *476:8 9.67842e-05
5 *413:10 *476:8 8.41122e-05
6 *459:16 *476:8 6.99492e-05
*RES
1 *1643:Y *476:8 27.8057 
2 *476:8 *1644:A1 23 
*END

*D_NET *477 0.00332839
*CONN
*I *1646:B I *D sky130_fd_sc_hd__xnor2_2
*I *1645:B I *D sky130_fd_sc_hd__nor2_1
*I *1688:B1 I *D sky130_fd_sc_hd__a21oi_1
*I *1644:X O *D sky130_fd_sc_hd__mux2_4
*CAP
1 *1646:B 0
2 *1645:B 0
3 *1688:B1 0
4 *1644:X 0.000399676
5 *477:20 0.00023428
6 *477:10 0.000308718
7 *477:8 0.000474115
8 *477:10 *479:10 4.34745e-05
9 *477:20 *479:10 5.67058e-05
10 *477:20 *539:104 9.41704e-05
11 *1644:S *477:8 0.000143869
12 *2026:C *477:8 0.000295607
13 *45:48 *477:20 0.000118736
14 *62:14 *477:20 0.00042963
15 *63:10 *477:20 0.000109332
16 *241:16 *477:8 1.56762e-05
17 *241:26 *477:8 5.3304e-05
18 *283:67 *477:8 0.000214064
19 *283:67 *477:10 0.000228001
20 *283:67 *477:20 5.50106e-05
21 *413:10 *477:8 5.40241e-05
*RES
1 *1644:X *477:8 32.2179 
2 *477:8 *477:10 2.52714 
3 *477:10 *477:20 37.4986 
4 *477:20 *1688:B1 23 
5 *477:10 *1645:B 23 
6 *477:8 *1646:B 23 
*END

*D_NET *478 0.00160153
*CONN
*I *1671:C1 I *D sky130_fd_sc_hd__a311o_1
*I *1670:C1 I *D sky130_fd_sc_hd__a311oi_2
*I *1645:Y O *D sky130_fd_sc_hd__nor2_1
*CAP
1 *1671:C1 0
2 *1670:C1 0.000144871
3 *1645:Y 0.000180807
4 *478:10 0.000325679
5 *478:10 *479:10 7.44257e-05
6 *1670:B1 *1670:C1 0.000222289
7 *33:6 *1670:C1 0.000185434
8 *44:10 *1670:C1 1.14452e-05
9 *44:10 *478:10 0.000154147
10 *45:12 *1670:C1 7.42621e-05
11 *62:14 *1670:C1 6.48142e-05
12 *62:14 *478:10 0.000163352
*RES
1 *1645:Y *478:10 41.8321 
2 *478:10 *1670:C1 42.8057 
3 *478:10 *1671:C1 38 
*END

*D_NET *479 0.00294152
*CONN
*I *1687:A I *D sky130_fd_sc_hd__xnor2_1
*I *1671:A1 I *D sky130_fd_sc_hd__a311o_1
*I *1670:A1 I *D sky130_fd_sc_hd__a311oi_2
*I *1646:Y O *D sky130_fd_sc_hd__xnor2_2
*CAP
1 *1687:A 0.000356184
2 *1671:A1 0
3 *1670:A1 0.000101804
4 *1646:Y 0.000199324
5 *479:12 0.000140021
6 *479:10 0.000593724
7 *1670:A1 *546:73 0.000187996
8 *1687:A *556:8 0.000137651
9 *479:10 *1645:A 0.000178517
10 *479:10 *546:73 7.39034e-05
11 *479:10 *546:119 6.48142e-05
12 *479:12 *546:73 7.48331e-05
13 *1687:B *1687:A 8.22426e-05
14 *1698:A2 *1687:A 1.37232e-05
15 *2121:A *1687:A 2.4754e-05
16 *33:6 *1670:A1 2.64616e-05
17 *45:12 *1670:A1 5.50049e-05
18 *46:6 *1687:A 0
19 *46:10 *1687:A 2.31987e-05
20 *241:39 *1670:A1 0.000191157
21 *241:39 *479:10 0.000139647
22 *241:39 *479:12 8.62783e-05
23 *283:67 *479:10 1.56762e-05
24 *477:10 *479:10 4.34745e-05
25 *477:20 *479:10 5.67058e-05
26 *478:10 *479:10 7.44257e-05
*RES
1 *1646:Y *479:10 43.3857 
2 *479:10 *479:12 1.20143 
3 *479:12 *1670:A1 41.2314 
4 *479:12 *1671:A1 38 
5 *479:10 *1687:A 43.9243 
*END

*D_NET *480 0.000942545
*CONN
*I *1648:B I *D sky130_fd_sc_hd__xnor2_1
*I *1649:B I *D sky130_fd_sc_hd__xor2_1
*I *1647:Y O *D sky130_fd_sc_hd__xnor2_1
*CAP
1 *1648:B 0.000115442
2 *1649:B 0
3 *1647:Y 9.97542e-05
4 *480:12 0.000167767
5 *480:8 0.00015208
6 *1648:B *482:10 0.000143655
7 *480:8 *493:10 5.86165e-05
8 *1649:A *1648:B 0.000148524
9 *1649:A *480:12 5.67058e-05
10 *446:16 *480:8 0
*RES
1 *1647:Y *480:8 40.2579 
2 *480:8 *480:12 16.0979 
3 *480:12 *1649:B 23 
4 *480:12 *1648:B 26.9979 
*END

*D_NET *481 0.000229847
*CONN
*I *1650:A1 I *D sky130_fd_sc_hd__mux2_1
*I *1648:Y O *D sky130_fd_sc_hd__xnor2_1
*CAP
1 *1650:A1 0
2 *1648:Y 7.84972e-05
3 *481:8 7.84972e-05
4 *1650:S *481:8 0
5 *446:16 *481:8 7.28526e-05
6 *464:31 *481:8 0
*RES
1 *1648:Y *481:8 39.9057 
2 *481:8 *1650:A1 38 
*END

*D_NET *482 0.00147124
*CONN
*I *1651:A1 I *D sky130_fd_sc_hd__mux2_4
*I *1649:X O *D sky130_fd_sc_hd__xor2_1
*CAP
1 *1651:A1 0.000144286
2 *1649:X 0.000323147
3 *482:10 0.000467433
4 *1648:B *482:10 0.000143655
5 *1651:S *1651:A1 4.65917e-05
6 *446:10 *482:10 1.22803e-05
7 *446:16 *482:10 0.000148412
8 *446:34 *1651:A1 0.000185434
*RES
1 *1649:X *482:10 43.945 
2 *482:10 *1651:A1 41.5007 
*END

*D_NET *483 0.00183003
*CONN
*I *1652:B I *D sky130_fd_sc_hd__nand2_1
*I *1696:B I *D sky130_fd_sc_hd__xnor2_1
*I *1650:X O *D sky130_fd_sc_hd__mux2_1
*CAP
1 *1652:B 0
2 *1696:B 0.000137149
3 *1650:X 0.000311876
4 *483:8 0.000449025
5 *1696:B *1652:A 5.38612e-05
6 *1696:B *485:10 2.9938e-05
7 *483:8 *1652:A 9.84851e-05
8 *483:8 *546:25 0.000649515
9 *1696:A *1696:B 0.00010018
*RES
1 *1650:X *483:8 32.0936 
2 *483:8 *1696:B 26.5007 
3 *483:8 *1652:B 23 
*END

*D_NET *484 0.00504818
*CONN
*I *1698:B1 I *D sky130_fd_sc_hd__a21o_1
*I *1666:A1 I *D sky130_fd_sc_hd__a221o_1
*I *1651:X O *D sky130_fd_sc_hd__mux2_4
*CAP
1 *1698:B1 0
2 *1666:A1 7.12993e-05
3 *1651:X 0.000666941
4 *484:35 0.0006693
5 *484:10 0.00140754
6 *484:10 *546:73 1.02561e-05
7 *484:35 *1709:B1 0
8 *484:35 *485:10 9.23931e-05
9 *484:35 *546:73 3.33791e-05
10 *1666:A2 *1666:A1 1.46586e-05
11 *1666:A2 *484:10 2.71291e-05
12 *1666:A2 *484:35 1.12487e-05
13 *1671:A2 *484:35 2.46345e-05
14 *1696:A *484:10 7.03663e-05
15 *1699:C *484:35 5.67058e-05
16 *1705:B *1666:A1 9.72057e-06
17 *33:6 *484:35 0.000477634
18 *34:6 *1666:A1 0.000137651
19 *35:10 *484:35 1.7992e-05
20 *39:10 *1666:A1 7.01424e-05
21 *41:8 *484:35 0.000141879
22 *41:19 *484:35 0.000231212
23 *42:8 *484:35 0.000194309
24 *45:12 *484:35 0.000223692
25 *45:26 *484:35 0.000194356
26 *80:10 *484:35 0
27 *283:26 *484:35 0.000193737
*RES
1 *1651:X *484:10 49.8071 
2 *484:10 *1666:A1 40.0714 
3 *484:10 *484:35 47.7521 
4 *484:35 *1698:B1 38 
*END

*D_NET *485 0.00344627
*CONN
*I *1671:A3 I *D sky130_fd_sc_hd__a311o_1
*I *1670:A2 I *D sky130_fd_sc_hd__a311oi_2
*I *1667:A I *D sky130_fd_sc_hd__nand2_1
*I *1652:Y O *D sky130_fd_sc_hd__nand2_1
*CAP
1 *1671:A3 8.07273e-05
2 *1670:A2 2.77218e-05
3 *1667:A 0
4 *1652:Y 0.000342929
5 *485:25 0.000298748
6 *485:12 0.000190299
7 *485:10 0.000342929
8 *1671:A3 *546:73 0.000187996
9 *485:10 *1652:A 1.32314e-05
10 *485:25 *546:73 0.000216721
11 *1665:A1 *485:10 0.000118174
12 *1666:A2 *485:10 7.70737e-05
13 *1667:B *485:25 5.3304e-05
14 *1671:A2 *1671:A3 0.000151898
15 *1671:A2 *485:25 1.14452e-05
16 *1696:A *485:10 0.000331714
17 *1696:B *485:10 2.9938e-05
18 *33:6 *1670:A2 2.64616e-05
19 *35:6 *485:25 0.000180212
20 *35:10 *485:10 0.000196549
21 *35:12 *485:10 0.000194327
22 *41:19 *485:25 0.000218962
23 *42:8 *1671:A3 9.21347e-06
24 *45:12 *1670:A2 5.3304e-05
25 *484:35 *485:10 9.23931e-05
*RES
1 *1652:Y *485:10 47.1143 
2 *485:10 *485:12 15 
3 *485:12 *1667:A 23 
4 *485:12 *485:25 20.51 
5 *485:25 *1670:A2 38.6214 
6 *485:25 *1671:A3 40.61 
*END

*D_NET *486 0.00194125
*CONN
*I *1908:A1 I *D sky130_fd_sc_hd__a21oi_2
*I *1654:B I *D sky130_fd_sc_hd__and2_1
*I *1655:B I *D sky130_fd_sc_hd__nand2_1
*I *1653:Y O *D sky130_fd_sc_hd__nand2_1
*CAP
1 *1908:A1 0
2 *1654:B 0.00022081
3 *1655:B 6.75683e-05
4 *1653:Y 0
5 *486:36 0.000171925
6 *486:8 0.000368092
7 *486:4 0.000251639
8 *1654:B *488:8 3.53115e-05
9 *1655:B *1653:A 1.14154e-05
10 *1655:B *549:107 5.12254e-05
11 *486:8 *1653:A 0.000141052
12 *486:8 *1653:B 2.4754e-05
13 *486:8 *549:107 8.48502e-06
14 *486:36 *1907:B 6.00827e-05
15 *486:36 *517:58 9.63815e-05
16 *1654:A *1654:B 2.4754e-05
17 *255:10 *486:8 0.000102093
18 *285:14 *486:36 4.6318e-06
19 *445:8 *1654:B 0.000200852
20 *445:8 *1655:B 0.00010018
*RES
1 *1653:Y *486:4 23 
2 *486:4 *486:8 3.02429 
3 *486:8 *1655:B 25.0714 
4 *486:8 *1654:B 28.3029 
5 *486:4 *486:36 33.7079 
6 *486:36 *1908:A1 23 
*END

*D_NET *487 0.00196681
*CONN
*I *1656:C1 I *D sky130_fd_sc_hd__a211o_1
*I *1654:X O *D sky130_fd_sc_hd__and2_1
*CAP
1 *1656:C1 0
2 *1654:X 7.87035e-05
3 *487:14 0.000665617
4 *487:8 0.00074432
5 *487:8 *554:58 0.000141879
6 *487:14 *551:33 6.17437e-06
7 *1635:A *487:14 0.000221079
8 *474:14 *487:14 0.000109042
*RES
1 *1654:X *487:8 39.9057 
2 *487:8 *487:14 27.0764 
3 *487:14 *1656:C1 23 
*END

*D_NET *488 0.00256689
*CONN
*I *1657:C1 I *D sky130_fd_sc_hd__a211o_1
*I *1655:Y O *D sky130_fd_sc_hd__nand2_1
*CAP
1 *1657:C1 0.000263284
2 *1655:Y 0.000603748
3 *488:8 0.000867032
4 *1657:C1 *518:25 0.000310647
5 *1657:C1 *549:35 6.08751e-05
6 *488:8 *549:35 9.67842e-05
7 *1636:A2 *488:8 0.000110379
8 *1636:C1 *488:8 5.50106e-05
9 *1654:A *488:8 5.67058e-05
10 *1654:B *488:8 3.53115e-05
11 *445:8 *488:8 2.4754e-05
12 *453:14 *1657:C1 6.7177e-06
13 *467:10 *1657:C1 7.56417e-05
*RES
1 *1655:Y *488:8 49.1029 
2 *488:8 *1657:C1 43.7379 
*END

*D_NET *489 0.00649108
*CONN
*I *1814:A I *D sky130_fd_sc_hd__nand2_2
*I *1822:D I *D sky130_fd_sc_hd__and4b_2
*I *1813:A_N I *D sky130_fd_sc_hd__and4b_2
*I *1824:D I *D sky130_fd_sc_hd__and4bb_2
*I *1816:A I *D sky130_fd_sc_hd__or4b_4
*I *1831:A_N I *D sky130_fd_sc_hd__and4bb_2
*I *1594:A I *D sky130_fd_sc_hd__nor2_1
*I *2091:X O *D sky130_fd_sc_hd__dlymetal6s2s_1
*CAP
1 *1814:A 5.68843e-05
2 *1822:D 0
3 *1813:A_N 0
4 *1824:D 0
5 *1816:A 0.000242109
6 *1831:A_N 7.93637e-05
7 *1594:A 0.000105433
8 *2091:X 0
9 *489:45 0.000451794
10 *489:41 0.00061532
11 *489:35 0.000941671
12 *489:23 0.000609129
13 *489:21 0.000396176
14 *489:4 0.000292268
15 *1594:A *500:56 5.50106e-05
16 *1594:A *511:51 0.000317553
17 *1814:A *1816:D_N 0
18 *1816:A *1824:C 3.3746e-05
19 *1816:A *500:10 0
20 *1816:A *503:10 0.000103021
21 *1816:A *511:70 1.87077e-05
22 *1831:A_N *500:25 0.000181131
23 *489:21 *500:56 0
24 *489:21 *511:51 1.22822e-05
25 *489:21 *530:17 4.92689e-05
26 *489:21 *530:100 0
27 *489:23 *530:17 0.000165014
28 *489:35 *1815:C_N 4.17736e-05
29 *489:35 *500:85 5.67058e-05
30 *489:35 *530:17 1.14452e-05
31 *489:35 *530:19 0.000285341
32 *489:35 *530:23 5.67058e-05
33 *489:41 *1586:A 9.5877e-05
34 *489:41 *1824:C 5.41385e-05
35 *489:41 *491:49 5.85822e-06
36 *489:45 *1824:B_N 2.46922e-05
37 *489:45 *1824:C 0.000105165
38 *1815:A *489:35 3.44404e-05
39 *1817:D_N *1814:A 6.42943e-05
40 *1820:C *489:35 2.4754e-05
41 *1820:C *489:41 0.00010018
42 *1827:C *1816:A 5.50106e-05
43 *3:11 *1594:A 7.27085e-05
44 *6:15 *489:21 2.93747e-05
45 *189:10 *1814:A 2.32004e-05
46 *191:8 *1816:A 6.47746e-05
47 *191:8 *489:45 3.0647e-05
48 *191:14 *489:45 0.00010403
49 *191:72 *1831:A_N 5.12254e-05
50 *192:24 *489:41 8.08139e-06
51 *192:86 *489:23 0
52 *192:86 *489:35 1.28427e-05
53 *195:8 *489:35 0
54 *199:10 *489:45 1.01436e-05
55 *201:10 *489:45 8.35638e-06
56 *230:6 *489:41 2.4754e-05
57 *230:13 *489:41 6.67283e-05
58 *315:8 *489:21 0
59 *315:23 *1814:A 9.58714e-05
60 *326:12 *1594:A 4.75937e-05
61 *326:12 *489:21 9.84794e-05
62 *326:56 *489:23 0
*RES
1 *2091:X *489:4 23 
2 *489:4 *1594:A 27.8264 
3 *489:4 *489:21 18.7079 
4 *489:21 *489:23 2.61 
5 *489:23 *489:35 23.6379 
6 *489:35 *489:41 7.93357 
7 *489:41 *489:45 18.6664 
8 *489:45 *1831:A_N 40.0507 
9 *489:45 *1816:A 41.9357 
10 *489:41 *1824:D 23 
11 *489:35 *1813:A_N 23 
12 *489:23 *1822:D 38 
13 *489:21 *1814:A 39.595 
*END

*D_NET *490 0.0213495
*CONN
*I *1964:A1 I *D sky130_fd_sc_hd__a21oi_1
*I *2009:B2 I *D sky130_fd_sc_hd__a32o_1
*I *1965:A1 I *D sky130_fd_sc_hd__o22a_1
*I *1966:A1 I *D sky130_fd_sc_hd__a32o_1
*I *2090:A I *D sky130_fd_sc_hd__buf_6
*I *2092:X O *D sky130_fd_sc_hd__clkbuf_2
*CAP
1 *1964:A1 0.000149137
2 *2009:B2 0
3 *1965:A1 2.26587e-05
4 *1966:A1 0.000107175
5 *2090:A 0
6 *2092:X 0.00114398
7 *490:67 0.000383424
8 *490:61 0.000553556
9 *490:48 0.000548883
10 *490:29 0.000612405
11 *490:27 0.00295414
12 *490:25 0.00463378
13 *490:10 0.00224672
14 *490:6 0.00171106
15 *1964:A1 *1964:A2 9.30151e-05
16 *1964:A1 *537:46 6.53382e-05
17 *1964:A1 *537:52 5.61255e-06
18 *1965:A1 *497:50 3.01716e-05
19 *1966:A1 *1966:A2 5.3304e-05
20 *1966:A1 *514:8 0
21 *490:27 *519:131 0
22 *490:27 *525:92 0
23 *490:27 *527:34 1.86869e-05
24 *490:27 *527:45 0.000173253
25 *490:27 *527:109 2.19436e-05
26 *490:27 *535:28 0
27 *490:27 *542:139 0.000192087
28 *490:27 *545:33 0
29 *490:27 *545:67 6.79006e-05
30 *490:27 *563:14 0.000341706
31 *490:27 *563:69 0.000312529
32 *490:27 *567:10 0.000234652
33 *490:48 *1919:A2 9.18779e-05
34 *490:48 *1966:A2 0.000303724
35 *490:48 *497:50 1.72202e-05
36 *490:48 *507:12 6.30674e-05
37 *490:48 *535:16 7.87711e-05
38 *490:48 *537:52 4.99753e-06
39 *490:48 *537:69 9.48381e-06
40 *490:48 *553:26 0.000137651
41 *490:67 *1956:A1 0.000373091
42 *490:67 *507:12 0.000112624
43 *490:67 *537:42 0
44 *490:67 *553:26 0.000527229
45 *1866:B2 *490:27 4.30894e-05
46 *1909:A *490:27 0.000147391
47 *1939:A *490:27 0
48 *1965:B1 *1964:A1 5.3304e-05
49 *1966:B1 *1966:A1 2.32004e-05
50 *2096:A *490:6 2.93845e-05
51 *2110:A *490:6 2.93845e-05
52 *190:27 *490:27 0
53 *191:90 *490:67 0.000164011
54 *196:12 *490:27 0
55 *196:14 *490:27 0.000265448
56 *196:46 *490:27 7.23805e-05
57 *199:95 *490:27 0.000136486
58 *235:8 *490:27 0.000163352
59 *237:21 *490:27 0.000343206
60 *254:12 *490:27 0.000166513
61 *257:10 *490:27 0.000249918
62 *311:10 *490:27 0
63 *313:24 *490:27 0.000167452
64 *317:12 *490:27 6.95665e-05
65 *317:34 *490:27 9.40265e-05
66 *351:18 *490:27 0.000216721
67 *364:10 *490:27 0
68 *366:10 *490:27 0
69 *417:12 *490:27 0
70 *418:8 *490:10 0
71 *418:8 *490:25 0
72 *421:8 *490:25 0
73 *424:10 *490:27 0
74 *438:6 *1964:A1 0.000430644
75 *438:6 *490:48 8.71888e-05
*RES
1 *2092:X *490:6 42.6786 
2 *490:6 *490:10 25.7093 
3 *490:10 *2090:A 38 
4 *490:10 *490:25 20.2497 
5 *490:25 *490:27 66.5239 
6 *490:27 *490:29 15 
7 *490:29 *1966:A1 24.595 
8 *490:29 *490:48 39.5493 
9 *490:48 *1965:A1 23.9321 
10 *490:48 *490:61 0.497143 
11 *490:61 *490:67 40.7093 
12 *490:67 *2009:B2 23 
13 *490:61 *1964:A1 27.9093 
*END

*D_NET *491 0.0112502
*CONN
*I *2089:A I *D sky130_fd_sc_hd__clkbuf_2
*I *2088:A I *D sky130_fd_sc_hd__buf_2
*I *2093:X O *D sky130_fd_sc_hd__buf_1
*CAP
1 *2089:A 0
2 *2088:A 0
3 *2093:X 0.00135657
4 *491:55 0.000870084
5 *491:49 0.00123504
6 *491:32 0.000588268
7 *491:26 0.00125412
8 *491:20 0.000494822
9 *491:6 0.0015505
10 *491:6 *506:12 1.94812e-05
11 *491:20 *2114:A 9.58714e-05
12 *491:20 *502:10 0
13 *491:20 *511:66 4.67488e-05
14 *491:20 *511:70 4.11267e-05
15 *491:26 *1586:A 2.38497e-05
16 *491:32 *493:63 5.31444e-05
17 *491:32 *524:64 0
18 *491:32 *524:78 0
19 *491:32 *529:57 4.91233e-05
20 *491:32 *554:75 9.64022e-05
21 *491:32 *554:88 3.36638e-05
22 *491:49 *1586:A 1.21972e-05
23 *491:49 *530:66 9.33049e-05
24 *491:55 *1815:B 0.000269775
25 op_out[1] *491:20 9.55052e-05
26 op_out[1] *491:26 5.43589e-05
27 op_out[4] *491:6 1.73399e-05
28 *1813:C *491:55 5.3304e-05
29 *1815:A *491:55 0.000389038
30 *26:10 *491:6 1.99429e-05
31 *183:12 *491:32 0
32 *183:20 *491:26 0.000131997
33 *183:20 *491:32 0.000526857
34 *184:10 *491:32 0.000166522
35 *185:8 *491:32 0.000168754
36 *186:8 *491:32 2.86399e-05
37 *187:10 *491:26 4.21524e-05
38 *189:14 *491:49 6.12496e-06
39 *192:20 *491:26 1.12695e-05
40 *192:20 *491:32 9.28078e-06
41 *199:10 *491:32 0
42 *201:10 *491:20 9.28078e-06
43 *201:10 *491:26 8.4293e-05
44 *201:10 *491:32 0.000208749
45 *205:10 *491:26 2.3529e-05
46 *211:16 *491:32 5.67058e-05
47 *230:6 *491:49 4.67488e-05
48 *230:13 *491:49 2.93845e-05
49 *230:13 *491:55 0.000223687
50 *326:12 *491:6 0.000656742
51 *489:41 *491:49 5.85822e-06
*RES
1 *2093:X *491:6 42.2021 
2 *491:6 *491:20 49.1221 
3 *491:20 *491:26 5.48929 
4 *491:26 *491:32 30.5564 
5 *491:32 *2088:A 23 
6 *491:26 *491:49 35.0957 
7 *491:49 *491:55 30.7636 
8 *491:55 *2089:A 23 
*END

*D_NET *492 0.0213944
*CONN
*I *2014:A I *D sky130_fd_sc_hd__xnor2_1
*I *2010:A1 I *D sky130_fd_sc_hd__a211o_1
*I *2046:A1 I *D sky130_fd_sc_hd__a21oi_1
*I *2048:A1 I *D sky130_fd_sc_hd__a32o_1
*I *1599:B1 I *D sky130_fd_sc_hd__o41ai_4
*I *2033:B I *D sky130_fd_sc_hd__nand2_1
*I *1589:A I *D sky130_fd_sc_hd__inv_2
*I *1809:C I *D sky130_fd_sc_hd__or4_1
*I *2047:A1 I *D sky130_fd_sc_hd__o22a_1
*I *2094:X O *D sky130_fd_sc_hd__clkbuf_4
*CAP
1 *2014:A 0
2 *2010:A1 1.88375e-05
3 *2046:A1 0
4 *2048:A1 0
5 *1599:B1 6.6044e-05
6 *2033:B 0.000275558
7 *1589:A 2.77218e-05
8 *1809:C 0.000692822
9 *2047:A1 6.51105e-05
10 *2094:X 0.000234754
11 *492:81 0.000643231
12 *492:73 0.00256424
13 *492:67 0.00285075
14 *492:56 0.000935687
15 *492:50 0.000531409
16 *492:35 0.00101055
17 *492:33 0.000365387
18 *492:20 0.000802365
19 *492:14 0.000929798
20 *492:12 0.000667701
21 *1589:A *550:67 5.3304e-05
22 *1599:B1 *547:82 0.000140259
23 *1809:C *1818:A1 1.97597e-05
24 *1809:C *1818:A2 7.27694e-06
25 *1809:C *518:82 5.50049e-05
26 *1809:C *518:103 0.000386066
27 *1809:C *529:51 1.32314e-05
28 *2033:B *1989:A1 0.000158723
29 *2033:B *2033:A 2.01081e-05
30 *492:12 *507:12 0
31 *492:12 *511:10 0.000132954
32 *492:12 *511:12 1.0402e-05
33 *492:12 *511:45 0.000110922
34 *492:14 *1815:B 0.000107651
35 *492:14 *507:12 0
36 *492:14 *511:12 8.51916e-05
37 *492:14 *553:10 0
38 *492:20 *2009:A2 0
39 *492:20 *499:31 6.10551e-06
40 *492:20 *535:16 0
41 *492:20 *535:65 0
42 *492:50 *532:16 0.000216721
43 *492:50 *532:18 0.000171253
44 *492:56 *532:18 1.05441e-05
45 *492:56 *532:20 0.000161817
46 *492:56 *550:67 8.17328e-05
47 *492:56 *550:95 0.000178517
48 *492:67 *528:22 0.000214582
49 *492:67 *528:32 6.01083e-05
50 *492:67 *538:20 0.000144723
51 *492:67 *550:54 7.90671e-05
52 *492:67 *550:65 0.00012903
53 *492:73 *1853:A1 8.65932e-05
54 *492:73 *1855:B 0
55 *492:73 *1989:B1 0.000219882
56 *492:73 *517:47 0
57 *492:73 *517:58 8.83401e-05
58 *492:73 *517:62 9.50414e-05
59 *492:73 *518:31 0
60 *492:73 *521:89 0
61 *492:73 *529:22 0
62 *492:73 *538:20 1.62015e-05
63 *492:73 *540:33 0
64 *492:73 *549:92 0.000243928
65 *492:73 *549:107 0.000183179
66 *492:73 *550:43 6.4393e-05
67 *492:73 *550:54 1.12487e-05
68 *492:73 *551:89 0.000110922
69 *492:73 *554:58 0
70 *492:73 *554:75 0
71 *492:81 *1988:A 0
72 *492:81 *1989:A1 0.000313255
73 *492:81 *552:56 0
74 *492:81 *554:23 2.70469e-05
75 *492:81 *554:135 6.17437e-06
76 *1818:B1 *1809:C 0.000114783
77 *1835:B2 *492:67 4.67998e-05
78 *2009:A3 *2010:A1 5.50049e-05
79 *2028:A1 *492:73 0.000221174
80 *2028:A2 *492:73 0.000191157
81 *2031:A1 *492:81 2.80394e-05
82 *2034:A *2033:B 0
83 *38:27 *492:73 0
84 *182:40 *1589:A 2.64616e-05
85 *182:40 *2047:A1 6.68587e-05
86 *182:40 *492:20 0.000148402
87 *182:40 *492:56 0.000316972
88 *188:119 *2010:A1 2.93747e-05
89 *190:54 *1809:C 0.000137651
90 *190:54 *492:33 9.41704e-05
91 *190:54 *492:35 0.000137651
92 *190:61 *492:33 0.000206946
93 *196:8 *492:14 0
94 *197:16 *2010:A1 1.32314e-05
95 *197:22 *492:20 0.000169696
96 *197:28 *2047:A1 0.000138708
97 *197:28 *492:20 0.000282708
98 *197:46 *492:67 0.000195552
99 *199:51 *492:67 1.22906e-05
100 *199:65 *492:67 4.11139e-05
101 *202:62 *492:67 0.000152606
102 *205:26 *492:50 0.000127272
103 *205:28 *492:50 0.000184329
104 *205:47 *492:50 3.14237e-05
105 *205:47 *492:56 7.58917e-05
106 *206:10 *492:67 0.000236937
107 *211:10 *492:67 0.000160182
108 *227:8 *492:73 7.28526e-05
109 *255:10 *492:73 0.00014411
110 *326:78 *492:56 0.000184598
111 *372:12 *492:81 6.38845e-05
112 *373:21 *492:73 0.000111852
113 *409:8 *492:73 0.000113153
114 *410:8 *492:73 0.000157299
115 *413:18 *492:73 0
*RES
1 *2094:X *492:12 42.4329 
2 *492:12 *492:14 8.24429 
3 *492:14 *492:20 10.4193 
4 *492:20 *2047:A1 39.9057 
5 *492:20 *492:33 18.48 
6 *492:33 *492:35 1.57429 
7 *492:35 *1809:C 34.6207 
8 *492:35 *492:50 20.4271 
9 *492:50 *492:56 24.0729 
10 *492:56 *1589:A 23.6214 
11 *492:56 *492:67 29.5829 
12 *492:67 *492:73 47.7464 
13 *492:73 *492:81 35.9864 
14 *492:81 *2033:B 43.7586 
15 *492:67 *1599:B1 39.5743 
16 *492:50 *2048:A1 38 
17 *492:33 *2046:A1 23 
18 *492:14 *2010:A1 38.6214 
19 *492:12 *2014:A 38 
*END

*D_NET *493 0.0195904
*CONN
*I *1825:A1 I *D sky130_fd_sc_hd__a32o_1
*I *1838:A I *D sky130_fd_sc_hd__nand2_1
*I *1846:A1 I *D sky130_fd_sc_hd__o21a_1
*I *2087:A I *D sky130_fd_sc_hd__buf_4
*I *2095:X O *D sky130_fd_sc_hd__clkbuf_2
*CAP
1 *1825:A1 0
2 *1838:A 0.00011333
3 *1846:A1 3.6708e-05
4 *2087:A 0
5 *2095:X 0
6 *493:63 0.00033954
7 *493:55 0.00151986
8 *493:34 0.00167159
9 *493:23 0.00191221
10 *493:21 0.0016567
11 *493:10 0.00159256
12 *493:6 0.00143343
13 *1838:A *1795:A2 0
14 *1838:A *526:98 7.15126e-05
15 *1846:A1 *536:64 5.3304e-05
16 *493:10 *495:12 0
17 *493:10 *546:10 0
18 *493:10 *546:73 0
19 *493:10 *551:14 5.3656e-05
20 *493:10 *551:25 0
21 *493:21 *551:6 7.59794e-05
22 *493:21 *551:25 0.000174996
23 *493:23 *1590:A 0
24 *493:23 *517:108 0
25 *493:23 *544:32 0.000384065
26 *493:23 *551:107 0.000565399
27 *493:23 *551:120 0.000882304
28 *493:34 *543:104 1.34354e-05
29 *493:34 *544:32 1.37761e-05
30 *493:55 *529:63 0.000866801
31 *493:55 *544:32 3.71048e-05
32 *493:63 *1825:A2 5.67058e-05
33 *493:63 *526:94 0.000328709
34 *493:63 *529:57 0.000114074
35 *1664:B *493:10 0
36 *1838:B *493:34 0.000194327
37 *1846:B1 *493:34 0.000188916
38 *35:6 *493:21 0.000528008
39 *191:24 *493:34 0.000485212
40 *192:58 *493:55 0.000135037
41 *198:10 *493:63 9.84851e-05
42 *199:18 *493:55 0.00018282
43 *200:10 *493:63 0.000143655
44 *212:8 *1838:A 1.24376e-05
45 *219:10 *493:23 0.000114083
46 *219:25 *493:23 0.00106579
47 *219:25 *493:34 0.000167443
48 *221:12 *493:34 0.000203108
49 *221:12 *493:55 4.16732e-05
50 *243:14 *493:34 0
51 *251:14 *493:23 0.000343045
52 *446:10 *493:23 0.00160688
53 *475:102 *493:23 0
54 *480:8 *493:10 5.86165e-05
55 *491:32 *493:63 5.31444e-05
*RES
1 *2095:X *493:6 38 
2 *493:6 *493:10 42.26 
3 *493:10 *2087:A 23 
4 *493:10 *493:21 21.3593 
5 *493:21 *493:23 47.6843 
6 *493:23 *1846:A1 38.6214 
7 *493:23 *493:34 12.1179 
8 *493:34 *1838:A 40.0714 
9 *493:34 *493:55 37.7029 
10 *493:55 *493:63 38.845 
11 *493:63 *1825:A1 23 
*END

*D_NET *494 0.0108572
*CONN
*I *2085:A I *D sky130_fd_sc_hd__buf_2
*I *2084:A I *D sky130_fd_sc_hd__buf_2
*I *2096:X O *D sky130_fd_sc_hd__buf_1
*CAP
1 *2085:A 0.000444766
2 *2084:A 0
3 *2096:X 0.000100389
4 *494:32 0.00276738
5 *494:14 0.00391622
6 *494:10 0.00080447
7 *2085:A *515:94 0
8 *2085:A *549:12 4.14058e-05
9 *494:14 *515:94 0.000236533
10 *494:14 *568:26 0.000305018
11 *494:32 *515:88 0.000272282
12 *494:32 *518:50 0.000123593
13 *494:32 *552:12 0.000232466
14 *494:32 *568:26 0.0010475
15 *241:8 *494:32 0.000102921
16 *294:39 *494:32 0.000127409
17 *464:31 *494:14 0.000261168
18 *475:102 *494:32 7.36606e-05
*RES
1 *2096:X *494:10 39.5018 
2 *494:10 *494:14 23.7843 
3 *494:14 *494:32 49.7822 
4 *494:32 *2084:A 23 
5 *494:14 *2085:A 49.2051 
*END

*D_NET *495 0.00391134
*CONN
*I *2082:A I *D sky130_fd_sc_hd__buf_2
*I *2097:X O *D sky130_fd_sc_hd__clkbuf_1
*CAP
1 *2082:A 0
2 *2097:X 0.000761183
3 *495:12 0.00115192
4 *495:8 0.0019131
5 *495:12 *546:10 5.56306e-05
6 *495:12 *546:73 2.95125e-05
7 *1696:A *495:12 0
8 *493:10 *495:12 0
*RES
1 *2097:X *495:8 48.15 
2 *495:8 *495:12 36.6257 
3 *495:12 *2082:A 23 
*END

*D_NET *496 0.000462009
*CONN
*I *2079:A I *D sky130_fd_sc_hd__clkbuf_4
*I *2098:X O *D sky130_fd_sc_hd__clkbuf_1
*CAP
1 *2079:A 0
2 *2098:X 0.000197486
3 *496:10 0.000197486
4 *496:10 *542:12 6.70363e-05
5 *119:12 *496:10 0
*RES
1 *2098:X *496:10 41.3557 
2 *496:10 *2079:A 38 
*END

*D_NET *497 0.0260382
*CONN
*I *2075:A I *D sky130_fd_sc_hd__buf_6
*I *1956:A1 I *D sky130_fd_sc_hd__o21a_1
*I *1920:A2 I *D sky130_fd_sc_hd__o22a_1
*I *2052:A I *D sky130_fd_sc_hd__clkbuf_1
*I *1922:A2 I *D sky130_fd_sc_hd__a32o_1
*I *2076:A I *D sky130_fd_sc_hd__buf_2
*I *2099:X O *D sky130_fd_sc_hd__buf_6
*CAP
1 *2075:A 0.000250235
2 *1956:A1 0.000251737
3 *1920:A2 0
4 *2052:A 0.000175633
5 *1922:A2 0
6 *2076:A 0
7 *2099:X 0
8 *497:87 0.000342045
9 *497:68 0.000981566
10 *497:56 0.00134984
11 *497:52 0.000453599
12 *497:50 0.00130996
13 *497:44 0.00180409
14 *497:35 0.000288571
15 *497:29 0.00260521
16 *497:27 0.0029893
17 *497:12 0.000362686
18 *497:4 0.00127924
19 *1956:A1 *507:12 3.95159e-06
20 *1956:A1 *537:42 0
21 *1956:A1 *553:26 2.35393e-05
22 *2052:A *563:8 1.76557e-05
23 *2075:A *518:151 0.000243596
24 *2075:A *520:44 0
25 *2075:A *538:12 0
26 *2075:A *563:77 7.8128e-05
27 *497:12 *498:12 1.22803e-05
28 *497:12 *534:23 6.38395e-06
29 *497:12 *539:12 5.50049e-05
30 *497:27 *1772:S 9.58714e-05
31 *497:27 *1787:A2 0.000198713
32 *497:27 *510:85 0.000398503
33 *497:27 *531:21 1.09358e-05
34 *497:29 *516:108 5.32702e-05
35 *497:29 *552:10 9.59941e-05
36 *497:35 *518:54 1.05441e-05
37 *497:35 *518:67 0.000706271
38 *497:35 *519:105 0.000213205
39 *497:44 *552:10 0.000103353
40 *497:50 *2047:A2 0.000431545
41 *497:50 *520:44 0
42 *497:50 *537:52 9.67842e-05
43 *497:50 *552:10 0.00056799
44 *497:50 *552:110 0.000351502
45 *497:50 *553:26 0.000814107
46 *497:50 *563:77 4.54033e-05
47 *497:56 *507:12 7.75329e-06
48 *497:56 *518:103 4.73652e-05
49 *497:56 *518:117 3.5664e-05
50 *497:56 *537:52 6.20255e-05
51 *497:56 *537:69 7.03869e-05
52 *497:56 *554:98 0
53 *497:68 *524:25 2.35393e-05
54 *497:68 *524:52 9.51668e-05
55 *497:68 *535:16 0.000206396
56 *497:68 *537:69 9.15308e-05
57 *497:68 *540:97 0.000379076
58 *497:87 *534:145 8.68903e-05
59 *497:87 *554:98 0
60 *1767:A *497:12 0.000187335
61 *1771:A *497:27 0.000164364
62 *1771:B *497:27 5.3304e-05
63 *1861:B *2052:A 5.3304e-05
64 *1861:B *497:68 1.56762e-05
65 *1892:B1 *2052:A 7.27085e-05
66 *1892:B1 *497:68 1.03836e-05
67 *1921:B *497:87 0.000268074
68 *1965:A1 *497:50 3.01716e-05
69 *2049:B1 *497:50 2.79543e-05
70 *2049:C1 *497:50 2.64616e-05
71 *2100:A *497:12 0.000154677
72 *97:42 *497:29 0.000135037
73 *98:10 *497:29 5.79559e-05
74 *119:12 *497:12 0.000431843
75 *141:12 *497:12 0.000625491
76 *147:10 *497:27 5.67058e-05
77 *159:18 *497:27 0.000168754
78 *190:67 *1956:A1 0.00021356
79 *190:67 *497:56 0.000187986
80 *197:63 *497:35 4.5745e-05
81 *197:67 *497:35 3.61511e-05
82 *199:95 *497:68 0.000226306
83 *199:95 *497:87 8.52481e-05
84 *211:16 *497:50 0.000906261
85 *234:10 *497:68 6.16531e-05
86 *234:16 *497:68 5.3304e-05
87 *237:21 *2052:A 5.3304e-05
88 *238:10 *497:68 0.000265794
89 *279:23 *2075:A 6.16531e-05
90 *283:93 *497:27 0.000140931
91 *297:20 *497:87 9.30151e-05
92 *298:8 *497:87 5.50049e-05
93 *299:10 *497:87 0.000108681
94 *333:10 *497:56 0
95 *333:10 *497:87 0.000267167
96 *335:10 *497:87 2.93747e-05
97 *347:10 *497:87 1.19692e-05
98 *471:71 *497:27 2.05503e-05
99 *490:48 *497:50 1.72202e-05
100 *490:67 *1956:A1 0.000373091
*RES
1 *2099:X *497:4 23 
2 *497:4 *497:12 41.6829 
3 *497:12 *2076:A 23 
4 *497:4 *497:27 47.8971 
5 *497:27 *497:29 31.5893 
6 *497:29 *497:35 39.6529 
7 *497:35 *1922:A2 23 
8 *497:29 *497:44 19.4329 
9 *497:44 *497:50 45.885 
10 *497:50 *497:52 15 
11 *497:52 *497:56 19.7229 
12 *497:56 *497:68 48.9743 
13 *497:68 *2052:A 26.9771 
14 *497:56 *497:87 39.0936 
15 *497:87 *1920:A2 23 
16 *497:52 *1956:A1 44.1314 
17 *497:44 *2075:A 43.4271 
*END

*D_NET *498 0.0203398
*CONN
*I *2074:A I *D sky130_fd_sc_hd__buf_2
*I *2051:A I *D sky130_fd_sc_hd__clkbuf_1
*I *2073:A I *D sky130_fd_sc_hd__buf_6
*I *2100:X O *D sky130_fd_sc_hd__clkbuf_2
*CAP
1 *2074:A 0
2 *2051:A 0
3 *2073:A 0
4 *2100:X 0
5 *498:62 0.00316135
6 *498:45 0.00113386
7 *498:23 0.00584197
8 *498:12 0.000224529
9 *498:4 0.00177129
10 *498:12 *499:8 2.93747e-05
11 *498:12 *534:23 0.000300117
12 *498:23 *1773:A 8.60475e-05
13 *498:23 *536:16 0
14 *498:23 *539:12 0.000428943
15 *498:23 *565:73 0.000136687
16 *498:45 *499:31 7.32521e-05
17 *498:45 *536:16 0
18 *498:62 *1824:B_N 0
19 *498:62 *499:31 0.00550551
20 *498:62 *530:43 0
21 *498:62 *537:12 2.04318e-05
22 *1786:A2 *498:45 0.000101662
23 *1789:A_N *498:23 8.01521e-05
24 *1789:A_N *498:45 1.69822e-05
25 *1805:D *498:23 0.000299178
26 *2100:A *498:12 3.92407e-05
27 *98:10 *498:45 2.11066e-05
28 *136:14 *498:23 2.54749e-05
29 *136:14 *498:45 0.000459118
30 *159:18 *498:45 0
31 *161:8 *498:45 0.000205223
32 *164:10 *498:23 8.4047e-05
33 *172:10 *498:45 0.000135011
34 *336:6 *498:62 0.000100139
35 *338:8 *498:62 4.67998e-05
36 *471:71 *498:45 0
37 *497:12 *498:12 1.22803e-05
*RES
1 *2100:X *498:4 23 
2 *498:4 *498:12 34.64 
3 *498:12 *2073:A 23 
4 *498:4 *498:23 37.3196 
5 *498:23 *498:45 45.9615 
6 *498:45 *2051:A 38 
7 *498:23 *498:62 43.0636 
8 *498:62 *2074:A 23 
*END

*D_NET *499 0.0178163
*CONN
*I *2072:A I *D sky130_fd_sc_hd__clkbuf_2
*I *2071:A I *D sky130_fd_sc_hd__buf_4
*I *2101:X O *D sky130_fd_sc_hd__buf_1
*CAP
1 *2072:A 0
2 *2071:A 0.000136615
3 *2101:X 0.000546601
4 *499:31 0.00463411
5 *499:8 0.00531733
6 *499:31 *535:16 2.33476e-05
7 *499:31 *536:8 0
8 *499:31 *539:16 0.000155059
9 *499:31 *539:18 0.000259546
10 *1768:A0 *499:31 0.000275482
11 *1800:A *2071:A 5.50049e-05
12 *1826:C1 *499:31 0.000103623
13 *117:27 *499:31 2.24608e-05
14 *135:18 *2071:A 2.96369e-05
15 *135:18 *499:31 0
16 *139:10 *2071:A 5.50049e-05
17 *143:29 *499:31 6.33614e-05
18 *144:10 *499:31 0.000194327
19 *145:16 *499:8 3.7122e-06
20 *148:8 *499:31 0.000168754
21 *149:8 *499:31 0
22 *440:28 *499:31 0.000158051
23 *492:20 *499:31 6.10551e-06
24 *498:12 *499:8 2.93747e-05
25 *498:45 *499:31 7.32521e-05
26 *498:62 *499:31 0.00550551
*RES
1 *2101:X *499:8 44.815 
2 *499:8 *2071:A 40.5271 
3 *499:8 *499:31 40.0121 
4 *499:31 *2072:A 38 
*END

*D_NET *500 0.00677518
*CONN
*I *1831:D I *D sky130_fd_sc_hd__and4bb_2
*I *1813:B I *D sky130_fd_sc_hd__and4b_2
*I *1814:B I *D sky130_fd_sc_hd__nand2_2
*I *1816:D_N I *D sky130_fd_sc_hd__or4b_4
*I *1594:B I *D sky130_fd_sc_hd__nor2_1
*I *1822:A_N I *D sky130_fd_sc_hd__and4b_2
*I *1824:A_N I *D sky130_fd_sc_hd__and4bb_2
*I *2102:X O *D sky130_fd_sc_hd__dlymetal6s2s_1
*CAP
1 *1831:D 0
2 *1813:B 0
3 *1814:B 0
4 *1816:D_N 0.000100165
5 *1594:B 0
6 *1822:A_N 0
7 *1824:A_N 0.000183147
8 *2102:X 0.000371485
9 *500:85 0.000189531
10 *500:56 0.00019512
11 *500:48 0.000378554
12 *500:46 0.000206329
13 *500:35 0.00056696
14 *500:25 0.000402606
15 *500:10 0.00070287
16 *1816:D_N *1816:C 6.9805e-05
17 *1816:D_N *2114:A 3.22879e-05
18 *1816:D_N *511:66 9.84794e-05
19 *1824:A_N *524:78 5.50049e-05
20 *500:10 *502:10 0.000188916
21 *500:25 *503:10 3.88766e-05
22 *500:35 *1831:B_N 0.000110047
23 *500:48 *1816:C 8.48502e-06
24 *500:56 *1586:A 1.61969e-05
25 *500:56 *511:51 4.48835e-05
26 *500:85 *530:19 1.74959e-05
27 *1594:A *500:56 5.50106e-05
28 *1812:A2 *500:35 5.3304e-05
29 *1812:B1 *500:35 3.88894e-05
30 *1812:B1 *500:85 4.67488e-05
31 *1812:D1 *500:35 5.70419e-05
32 *1812:D1 *500:46 2.08253e-05
33 *1812:D1 *500:56 6.01895e-05
34 *1814:A *1816:D_N 0
35 *1815:A *500:85 5.50106e-05
36 *1816:A *500:10 0
37 *1831:A_N *500:25 0.000181131
38 *3:11 *500:56 7.33773e-05
39 *24:8 *1816:D_N 2.98648e-05
40 *189:10 *500:46 9.59063e-05
41 *189:14 *500:46 8.9458e-05
42 *189:14 *500:85 0.000212096
43 *191:8 *500:10 0
44 *191:72 *500:25 3.83498e-05
45 *191:72 *500:35 0.000495056
46 *191:72 *500:85 4.21281e-05
47 *192:20 *500:46 0.000159778
48 *192:20 *500:48 2.64616e-05
49 *205:10 *500:25 0.000221997
50 *205:10 *500:35 1.56762e-05
51 *211:22 *1824:A_N 0.000119921
52 *211:22 *500:10 1.58805e-05
53 *211:22 *500:25 9.67842e-05
54 *230:19 *500:85 0.000188926
55 *315:8 *500:56 0.000101708
56 *315:23 *500:48 5.12254e-05
57 *326:12 *500:10 9.84794e-05
58 *489:21 *500:56 0
59 *489:35 *500:85 5.67058e-05
*RES
1 *2102:X *500:10 44.525 
2 *500:10 *1824:A_N 41.9357 
3 *500:10 *500:25 19.4329 
4 *500:25 *500:35 7.49857 
5 *500:35 *1822:A_N 23 
6 *500:35 *500:46 32.9621 
7 *500:46 *500:48 1.57429 
8 *500:48 *500:56 33.9357 
9 *500:56 *1594:B 23 
10 *500:48 *1816:D_N 26.0243 
11 *500:46 *1814:B 23 
12 *500:35 *500:85 35.0336 
13 *500:85 *1813:B 23 
14 *500:25 *1831:D 23 
*END

*D_NET *501 0.0125288
*CONN
*I *2069:A I *D sky130_fd_sc_hd__buf_6
*I *2070:A I *D sky130_fd_sc_hd__clkbuf_2
*I *2103:X O *D sky130_fd_sc_hd__buf_1
*CAP
1 *2069:A 0
2 *2070:A 0
3 *2103:X 0.000167332
4 *501:35 0.000860756
5 *501:20 0.00248765
6 *501:8 0.00351574
7 *501:8 *544:49 2.2539e-05
8 *501:20 *1824:B_N 0
9 *501:20 *507:12 1.81712e-05
10 *501:20 *530:43 0
11 *501:20 *534:139 0.00405289
12 *501:20 *544:49 4.87865e-05
13 *501:35 *534:139 0.000106671
14 *501:35 *544:49 0.000639308
15 *1806:A2 *501:35 0.000112116
16 *1844:A1 *501:8 0
17 *136:18 *501:35 1.59094e-05
18 *181:8 *501:35 0.00021525
19 *192:20 *501:20 7.23913e-05
20 *215:10 *501:35 5.50106e-05
21 *226:8 *501:8 1.40183e-05
22 *226:8 *501:20 1.91026e-05
23 *326:18 *501:35 2.02872e-05
24 *326:37 *501:35 8.48633e-05
*RES
1 *2103:X *501:8 40.61 
2 *501:8 *501:20 40.1304 
3 *501:20 *2070:A 23 
4 *501:8 *501:35 34.2643 
5 *501:35 *2069:A 23 
*END

*D_NET *502 0.00127458
*CONN
*I *2113:A I *D sky130_fd_sc_hd__buf_8
*I *1827:X O *D sky130_fd_sc_hd__or3_4
*CAP
1 *2113:A 9.13551e-05
2 *1827:X 0.000233935
3 *502:10 0.00032529
4 *502:10 *511:70 0
5 op_out[0] *502:10 3.70094e-05
6 op_out[1] *502:10 0
7 *1827:A *502:10 7.27085e-05
8 *1827:B *502:10 0.00010655
9 *1827:C *502:10 5.50106e-05
10 *2102:A *502:10 0
11 *23:8 *2113:A 0.00014196
12 *326:12 *2113:A 2.18506e-05
13 *491:20 *502:10 0
14 *500:10 *502:10 0.000188916
*RES
1 *1827:X *502:10 43.9657 
2 *502:10 *2113:A 40.0507 
*END

*D_NET *503 0.00180358
*CONN
*I *2114:A I *D sky130_fd_sc_hd__buf_2
*I *1845:X O *D sky130_fd_sc_hd__or2_1
*CAP
1 *2114:A 0.000144455
2 *1845:X 0.000278941
3 *503:10 0.000423396
4 *2114:A *511:66 2.0791e-05
5 *503:10 *1824:C 1.01436e-05
6 *503:10 *511:70 9.28772e-05
7 *1816:A *503:10 0.000103021
8 *1816:D_N *2114:A 3.22879e-05
9 *1827:A *2114:A 0.000135037
10 *1827:C *2114:A 9.41704e-05
11 *24:8 *2114:A 0.000139352
12 *205:10 *503:10 0.000139357
13 *211:22 *503:10 5.50049e-05
14 *491:20 *2114:A 9.58714e-05
15 *500:25 *503:10 3.88766e-05
*RES
1 *1845:X *503:10 42.5571 
2 *503:10 *2114:A 41.9771 
*END

*D_NET *504 0.000510013
*CONN
*I *2115:A I *D sky130_fd_sc_hd__buf_2
*I *1868:X O *D sky130_fd_sc_hd__a21o_1
*CAP
1 *2115:A 0
2 *1868:X 0.000178611
3 *504:10 0.000178611
4 *504:10 *506:12 5.26101e-05
5 *2093:A *504:10 0
6 *181:8 *504:10 0.00010018
*RES
1 *1868:X *504:10 41.3557 
2 *504:10 *2115:A 38 
*END

*D_NET *505 0.000746086
*CONN
*I *2116:A I *D sky130_fd_sc_hd__buf_2
*I *1897:Y O *D sky130_fd_sc_hd__nand2b_1
*CAP
1 *2116:A 0
2 *1897:Y 0.000186764
3 *505:10 0.000186764
4 *505:10 *506:12 0
5 *1827:B *505:10 0.000185428
6 *2102:A *505:10 0
7 *326:12 *505:10 0
8 *326:18 *505:10 0.000187129
*RES
1 *1897:Y *505:10 42.6607 
2 *505:10 *2116:A 38 
*END

*D_NET *506 0.00275085
*CONN
*I *2117:A I *D sky130_fd_sc_hd__buf_4
*I *1925:Y O *D sky130_fd_sc_hd__o31ai_1
*CAP
1 *2117:A 0
2 *1925:Y 0
3 *506:12 0.000748503
4 *506:6 0.000748503
5 *192:64 *506:12 0
6 *222:8 *506:12 4.83727e-05
7 *225:33 *506:12 0.000136486
8 *248:8 *506:12 0
9 *248:20 *506:12 7.45381e-05
10 *252:8 *506:12 0.000132817
11 *274:20 *506:12 0.000789543
12 *491:6 *506:12 1.94812e-05
13 *504:10 *506:12 5.26101e-05
14 *505:10 *506:12 0
*RES
1 *1925:Y *506:6 38 
2 *506:6 *506:12 31.965 
3 *506:12 *2117:A 23 
*END

*D_NET *507 0.00410957
*CONN
*I *2118:A I *D sky130_fd_sc_hd__clkbuf_4
*I *1969:X O *D sky130_fd_sc_hd__or3_1
*CAP
1 *2118:A 0
2 *1969:X 8.40509e-05
3 *507:12 0.00125344
4 *507:8 0.00133749
5 *507:12 *1919:A2 2.05503e-05
6 *507:12 *535:16 0
7 *507:12 *537:52 8.62876e-05
8 *507:12 *553:10 0.000163352
9 *507:12 *553:16 0.000285519
10 *507:12 *553:26 0.000577437
11 *1956:A1 *507:12 3.95159e-06
12 *1971:B *507:12 0
13 *191:76 *507:12 0
14 *191:90 *507:12 0
15 *350:14 *507:8 9.5877e-05
16 *352:10 *507:12 0
17 *400:10 *507:12 0
18 *490:48 *507:12 6.30674e-05
19 *490:67 *507:12 0.000112624
20 *492:12 *507:12 0
21 *492:14 *507:12 0
22 *497:56 *507:12 7.75329e-06
23 *501:20 *507:12 1.81712e-05
*RES
1 *1969:X *507:8 39.0979 
2 *507:8 *507:12 39.795 
3 *507:12 *2118:A 23 
*END

*D_NET *508 0.000721377
*CONN
*I *2119:A I *D sky130_fd_sc_hd__clkbuf_4
*I *2012:X O *D sky130_fd_sc_hd__a31o_1
*CAP
1 *2119:A 0
2 *2012:X 0.000283958
3 *508:10 0.000283958
4 op_out[7] *508:10 3.81391e-05
5 *29:10 *508:10 0
6 *397:20 *508:10 0
7 *432:10 *508:10 0.000115322
*RES
1 *2012:X *508:10 42.9921 
2 *508:10 *2119:A 38 
*END

*D_NET *509 0.00017118
*CONN
*I *2120:A I *D sky130_fd_sc_hd__buf_2
*I *2050:X O *D sky130_fd_sc_hd__a311o_1
*CAP
1 *2120:A 7.54641e-05
2 *2050:X 7.54641e-05
3 *2050:A3 *2120:A 2.02517e-05
*RES
1 *2050:X *2120:A 47.4707 
*END

*D_NET *510 0.0194839
*CONN
*I *1781:A2 I *D sky130_fd_sc_hd__o211a_1
*I *1787:A2 I *D sky130_fd_sc_hd__o211a_1
*I *1768:S I *D sky130_fd_sc_hd__mux2_1
*I *1844:A2 I *D sky130_fd_sc_hd__a22o_1
*I *1792:S I *D sky130_fd_sc_hd__mux2_2
*I *1772:S I *D sky130_fd_sc_hd__mux2_1
*I *1760:A1 I *D sky130_fd_sc_hd__a31o_1
*I *1756:B I *D sky130_fd_sc_hd__nor2_1
*I *1780:A2 I *D sky130_fd_sc_hd__o211a_1
*I *1761:C I *D sky130_fd_sc_hd__or3_1
*I *2053:X O *D sky130_fd_sc_hd__buf_6
*CAP
1 *1781:A2 0
2 *1787:A2 0.000248252
3 *1768:S 0.000312595
4 *1844:A2 0.000322747
5 *1792:S 0.000190161
6 *1772:S 3.28483e-05
7 *1760:A1 6.99522e-05
8 *1756:B 0.000211196
9 *1780:A2 0
10 *1761:C 0.00031127
11 *2053:X 0.000202886
12 *510:95 0.000512908
13 *510:93 0.000725367
14 *510:89 0.00130115
15 *510:85 0.000617674
16 *510:76 0.000730539
17 *510:52 0.00043771
18 *510:50 0.00160627
19 *510:39 0.00109463
20 *510:20 0.000894088
21 *510:12 0.00054933
22 *1756:B *1737:A 3.22879e-05
23 *1756:B *534:27 0
24 *1761:C *512:36 4.2062e-05
25 *1761:C *531:72 0.0002078
26 *1761:C *542:63 0.000145833
27 *1768:S *1774:A 9.84851e-05
28 *1768:S *536:14 0.000480242
29 *1768:S *565:73 7.55491e-05
30 *1792:S *526:111 3.70094e-05
31 *1792:S *529:88 0.000102361
32 *510:12 *2080:A 0
33 *510:39 *531:70 2.04318e-05
34 *510:39 *531:72 7.37814e-06
35 *510:76 *539:22 0.00086423
36 *510:76 *565:12 0
37 *510:76 *565:73 0
38 *510:89 *531:21 0
39 *510:89 *565:73 0.000230623
40 *1733:A *510:12 3.22879e-05
41 *1733:A *510:39 0
42 *1733:A *510:50 0
43 *1737:B *1756:B 5.50049e-05
44 *1751:A *510:52 0
45 *1751:B *510:52 0
46 *1751:B *510:76 0
47 *1761:A *1761:C 9.67842e-05
48 *1771:A *1772:S 9.58714e-05
49 *1771:A *510:85 0.000258245
50 *1778:B2 *510:39 6.40157e-06
51 *1779:A1 *510:50 0
52 *1780:A1 *510:39 0.000135037
53 *1780:B1 *510:39 3.91386e-05
54 *1780:B1 *510:50 1.21972e-05
55 *1796:B1 *510:93 0.000746299
56 *1798:C1 *510:93 0.00022109
57 *1804:D1 *510:93 0.000358425
58 *1839:A *1844:A2 0
59 *1842:A *1844:A2 0.000285883
60 *1844:A1 *1844:A2 1.14452e-05
61 *2053:A *510:39 2.64616e-05
62 *104:10 *1761:C 0.000124412
63 *104:10 *510:39 0.000223886
64 *105:8 *510:12 0
65 *107:46 *510:20 2.52219e-05
66 *111:8 *510:76 0
67 *117:10 *1756:B 0.000222193
68 *117:23 *1756:B 1.22803e-05
69 *117:23 *510:52 0.000134687
70 *117:23 *510:76 7.91493e-05
71 *118:8 *1760:A1 7.88828e-05
72 *118:12 *1756:B 0
73 *118:12 *510:52 0
74 *126:6 *510:50 0.000111943
75 *126:15 *510:50 0.000524989
76 *126:26 *510:50 0.000231039
77 *130:8 *510:39 6.70361e-05
78 *130:8 *510:50 2.03764e-06
79 *130:14 *510:39 6.25829e-05
80 *131:10 *1756:B 0.000177914
81 *151:27 *510:12 0.00020594
82 *151:27 *510:20 2.26497e-05
83 *156:12 *510:39 3.3746e-05
84 *170:8 *1792:S 8.55438e-05
85 *171:8 *510:93 8.82787e-05
86 *173:10 *510:93 0.000146822
87 *178:17 *1844:A2 0.000300098
88 *178:17 *510:93 8.52481e-05
89 *179:8 *510:93 0.000488848
90 *212:16 *1844:A2 0
91 *213:27 *1844:A2 5.01247e-05
92 *217:10 *1844:A2 0
93 *283:93 *1787:A2 0.000108794
94 *497:27 *1772:S 9.58714e-05
95 *497:27 *1787:A2 0.000198713
96 *497:27 *510:85 0.000398503
*RES
1 *2053:X *510:12 42.205 
2 *510:12 *510:20 17.064 
3 *510:20 *1761:C 46.1304 
4 *510:20 *510:39 20.6861 
5 *510:39 *1780:A2 23 
6 *510:39 *510:50 27.4286 
7 *510:50 *510:52 3.66643 
8 *510:52 *1756:B 44.7529 
9 *510:52 *1760:A1 39.5743 
10 *510:50 *510:76 28.5264 
11 *510:76 *1772:S 24.0979 
12 *510:76 *510:85 4.43286 
13 *510:85 *510:89 21.1314 
14 *510:89 *510:93 35.155 
15 *510:93 *510:95 15 
16 *510:95 *1792:S 41.6664 
17 *510:95 *1844:A2 46.2443 
18 *510:89 *1768:S 45.6436 
19 *510:85 *1787:A2 28.4479 
20 *510:12 *1781:A2 38 
*END

*D_NET *511 0.0100315
*CONN
*I *1595:C I *D sky130_fd_sc_hd__and3b_2
*I *1816:B I *D sky130_fd_sc_hd__or4b_4
*I *1831:C I *D sky130_fd_sc_hd__and4bb_2
*I *1824:C I *D sky130_fd_sc_hd__and4bb_2
*I *1586:A I *D sky130_fd_sc_hd__inv_2
*I *1817:A I *D sky130_fd_sc_hd__or4b_4
*I *1821:A I *D sky130_fd_sc_hd__nor3_4
*I *1815:B I *D sky130_fd_sc_hd__or3b_4
*I *2104:X O *D sky130_fd_sc_hd__buf_2
*CAP
1 *1595:C 0
2 *1816:B 0
3 *1831:C 0
4 *1824:C 0.000219487
5 *1586:A 0.000390128
6 *1817:A 0.000147777
7 *1821:A 0
8 *1815:B 0.000219391
9 *2104:X 0.000259849
10 *511:70 0.000337745
11 *511:66 0.000239271
12 *511:51 0.0012605
13 *511:45 0.00109229
14 *511:12 0.000382821
15 *511:10 0.000389044
16 *511:8 0.000680615
17 *1586:A *530:66 0.000232555
18 *1817:A *532:14 0.000311554
19 *511:8 *522:10 9.5877e-05
20 *511:10 *522:10 0
21 *511:12 *1821:B 0
22 *511:12 *522:10 0
23 *511:45 *522:10 0
24 *511:66 *1816:C 0.00026808
25 op_out[1] *1586:A 0
26 op_out[1] *511:51 0
27 op_out[5] *511:45 4.6318e-06
28 *1594:A *511:51 0.000317553
29 *1812:A2 *1586:A 0.000204751
30 *1812:D1 *1586:A 0
31 *1816:A *1824:C 3.3746e-05
32 *1816:A *511:70 1.87077e-05
33 *1816:D_N *511:66 9.84794e-05
34 *1827:C *511:66 2.64616e-05
35 *2094:A *511:45 5.50106e-05
36 *2114:A *511:66 2.0791e-05
37 *3:11 *511:51 0.000106708
38 *5:13 *511:8 9.90162e-05
39 *6:15 *511:45 0.00016041
40 *6:15 *511:51 0.00042738
41 *28:8 *511:8 1.02949e-05
42 *192:24 *1824:C 4.38638e-05
43 *196:8 *1815:B 6.95872e-05
44 *196:8 *511:12 2.04774e-05
45 *199:10 *1824:C 6.17437e-06
46 *201:10 *1824:C 0.000294553
47 *201:10 *511:70 0.000127791
48 *205:10 *1586:A 2.24973e-05
49 *230:6 *1586:A 5.3304e-05
50 *326:12 *511:51 9.8971e-06
51 *489:21 *511:51 1.22822e-05
52 *489:41 *1586:A 9.5877e-05
53 *489:41 *1824:C 5.41385e-05
54 *489:45 *1824:C 0.000105165
55 *491:20 *511:66 4.67488e-05
56 *491:20 *511:70 4.11267e-05
57 *491:26 *1586:A 2.38497e-05
58 *491:49 *1586:A 1.21972e-05
59 *491:55 *1815:B 0.000269775
60 *492:12 *511:10 0.000132954
61 *492:12 *511:12 1.0402e-05
62 *492:12 *511:45 0.000110922
63 *492:14 *1815:B 0.000107651
64 *492:14 *511:12 8.51916e-05
65 *500:56 *1586:A 1.61969e-05
66 *500:56 *511:51 4.48835e-05
67 *502:10 *511:70 0
68 *503:10 *1824:C 1.01436e-05
69 *503:10 *511:70 9.28772e-05
*RES
1 *2104:X *511:8 41.9564 
2 *511:8 *511:10 1.90571 
3 *511:10 *511:12 2.96214 
4 *511:12 *1815:B 43.9657 
5 *511:12 *1821:A 38 
6 *511:10 *1817:A 41.48 
7 *511:8 *511:45 20.8155 
8 *511:45 *511:51 28.0345 
9 *511:51 *1586:A 45.5814 
10 *511:51 *511:66 18.48 
11 *511:66 *511:70 17.61 
12 *511:70 *1824:C 43.5929 
13 *511:70 *1831:C 38 
14 *511:66 *1816:B 23 
15 *511:45 *1595:C 23 
*END

*D_NET *512 0.00632486
*CONN
*I *1867:A2 I *D sky130_fd_sc_hd__a211o_1
*I *1728:S I *D sky130_fd_sc_hd__mux2_4
*I *1722:S I *D sky130_fd_sc_hd__mux2_1
*I *1761:B I *D sky130_fd_sc_hd__or3_1
*I *1738:A2 I *D sky130_fd_sc_hd__o21ai_1
*I *2111:X O *D sky130_fd_sc_hd__buf_6
*CAP
1 *1867:A2 0.000278203
2 *1728:S 0
3 *1722:S 2.34823e-05
4 *1761:B 0
5 *1738:A2 2.95011e-05
6 *2111:X 0.000353587
7 *512:51 0.000739575
8 *512:36 0.00111901
9 *512:25 0.000802689
10 *512:12 0.000551618
11 *1867:A2 *543:23 0.000475031
12 *1867:A2 *546:119 0
13 *1867:A2 *548:38 0.000194309
14 *512:25 *531:72 3.95159e-06
15 *512:25 *534:50 0
16 *512:51 *546:119 0
17 *512:51 *548:18 1.01436e-05
18 *512:51 *548:38 7.86584e-05
19 *1695:A_N *512:12 1.21972e-05
20 *1722:A1 *512:36 3.06338e-05
21 *1722:A1 *512:51 3.12477e-05
22 *1761:A *512:25 0.00010404
23 *1761:A *512:36 2.18409e-05
24 *1761:C *512:36 4.2062e-05
25 *2111:A *512:12 6.17437e-06
26 *60:8 *512:51 0.00010018
27 *60:16 *512:51 2.18506e-05
28 *67:32 *512:12 0.000186687
29 *67:32 *512:25 4.6318e-06
30 *97:8 *512:36 0.000268873
31 *102:10 *512:51 5.50049e-05
32 *103:43 *1867:A2 0
33 *136:8 *512:36 5.3304e-05
34 *136:14 *512:25 3.47781e-05
35 *243:8 *1867:A2 2.98648e-05
36 *294:24 *1867:A2 0.000559378
37 *471:49 *1738:A2 5.50106e-05
38 *471:65 *512:12 3.5243e-05
39 *471:65 *512:25 1.20966e-05
*RES
1 *2111:X *512:12 44.67 
2 *512:12 *1738:A2 38.6214 
3 *512:12 *512:25 18.6664 
4 *512:25 *1761:B 23 
5 *512:25 *512:36 10.7921 
6 *512:36 *1722:S 23.4971 
7 *512:36 *512:51 23.6171 
8 *512:51 *1728:S 38 
9 *512:51 *1867:A2 46.9486 
*END

*D_NET *513 0.00195701
*CONN
*I *1677:A2 I *D sky130_fd_sc_hd__a21o_1
*I *1692:A2 I *D sky130_fd_sc_hd__a21o_1
*I *1688:A2 I *D sky130_fd_sc_hd__a21oi_1
*I *2112:X O *D sky130_fd_sc_hd__buf_1
*CAP
1 *1677:A2 0
2 *1692:A2 0.000188058
3 *1688:A2 0.000154952
4 *2112:X 0
5 *513:23 0.0002895
6 *513:4 0.000256394
7 *1688:A2 *1688:A1 9.41704e-05
8 *1688:A2 *2123:A 5.50049e-05
9 *1688:A2 *539:85 1.4345e-05
10 *1688:A2 *539:104 0.000117283
11 *1692:A2 *1692:A1 0.000217873
12 *513:23 *1677:A1 6.17437e-06
13 *513:23 *1692:A1 2.60152e-05
14 *513:23 *539:85 6.6869e-05
15 *513:23 *556:21 4.08537e-05
16 *1692:B1 *1692:A2 0.000140985
17 *43:12 *1692:A2 0.000180224
18 *43:12 *513:23 5.50049e-05
19 *49:8 *1692:A2 5.3304e-05
*RES
1 *2112:X *513:4 23 
2 *513:4 *1688:A2 26.5214 
3 *513:4 *513:23 32.5271 
4 *513:23 *1692:A2 27.9093 
5 *513:23 *1677:A2 23 
*END

*D_NET *514 0.00175905
*CONN
*I *2048:B1 I *D sky130_fd_sc_hd__a32o_1
*I *2131:X O *D sky130_fd_sc_hd__clkbuf_1
*CAP
1 *2048:B1 0
2 *2131:X 0.000692217
3 *514:8 0.000692217
4 *514:8 *552:116 7.50061e-05
5 *1966:A1 *514:8 0
6 *197:46 *514:8 0.000299608
*RES
1 *2131:X *514:8 32.3525 
2 *514:8 *2048:B1 23 
*END

*D_NET *515 0.0202218
*CONN
*I *1609:B I *D sky130_fd_sc_hd__and3_1
*I *1611:B1 I *D sky130_fd_sc_hd__a21o_1
*I *1659:C1 I *D sky130_fd_sc_hd__o211a_1
*I *1647:A I *D sky130_fd_sc_hd__xnor2_1
*I *1610:B I *D sky130_fd_sc_hd__nand3_1
*I *1796:A1 I *D sky130_fd_sc_hd__a21o_1
*I *1795:A2 I *D sky130_fd_sc_hd__o211a_1
*I *1794:A I *D sky130_fd_sc_hd__nor2_1
*I *1730:A I *D sky130_fd_sc_hd__and2_1
*I *1680:A I *D sky130_fd_sc_hd__and2_1
*I *2054:X O *D sky130_fd_sc_hd__buf_2
*CAP
1 *1609:B 0
2 *1611:B1 4.01156e-05
3 *1659:C1 3.1026e-05
4 *1647:A 0
5 *1610:B 0
6 *1796:A1 0.000431256
7 *1795:A2 0.000446276
8 *1794:A 9.1823e-05
9 *1730:A 0
10 *1680:A 0.00010983
11 *2054:X 0
12 *515:127 0.000171759
13 *515:110 0.000476801
14 *515:94 0.000832682
15 *515:88 0.00184777
16 *515:44 0.000538099
17 *515:42 0.00133186
18 *515:33 0.00123236
19 *515:20 0.00150688
20 *515:12 0.00111977
21 *515:10 0.00136648
22 *515:4 0.000592868
23 *1659:C1 *517:8 5.40241e-05
24 *1795:A2 *1792:A0 4.5051e-05
25 *1795:A2 *526:98 3.61695e-05
26 *1795:A2 *526:100 2.89076e-05
27 *1796:A1 *529:88 3.98859e-05
28 *515:20 *1610:A 0.000301419
29 *515:20 *552:12 0.000102638
30 *515:20 *562:10 6.07611e-06
31 *515:33 *542:84 0.000277705
32 *515:33 *546:119 0.000148963
33 *515:42 *1732:B 0
34 *515:42 *529:88 8.33262e-05
35 *515:42 *546:119 0.000121626
36 *515:88 *1610:A 1.14452e-05
37 *515:88 *518:10 0.00022293
38 *515:88 *518:50 0.000320812
39 *515:88 *519:77 1.50266e-05
40 *515:88 *562:10 0
41 *515:88 *568:26 2.10926e-05
42 *515:94 *518:10 4.6318e-06
43 *515:127 *516:66 5.50106e-05
44 *1621:A1 *1611:B1 0
45 *1637:B1 *515:10 0.000279495
46 *1637:B1 *515:88 1.4345e-05
47 *1650:S *515:94 6.7177e-06
48 *1679:A *515:33 0.0002499
49 *1683:A *515:20 5.3304e-05
50 *1792:A1 *1795:A2 0.000221084
51 *1794:B *1794:A 5.32443e-05
52 *1794:B *1795:A2 1.37232e-05
53 *1796:A2 *1796:A1 0.000351502
54 *1796:B1 *1796:A1 1.76557e-05
55 *1804:A2 *1796:A1 4.08664e-05
56 *1838:A *1795:A2 0
57 *2085:A *515:94 0
58 *32:10 *1659:C1 5.40241e-05
59 *50:31 *515:10 2.1522e-05
60 *50:31 *515:12 3.18322e-05
61 *53:10 *515:33 3.70187e-05
62 *54:10 *515:33 0
63 *58:10 *515:20 1.39431e-05
64 *96:8 *515:33 8.62783e-05
65 *106:23 *515:42 7.78737e-05
66 *107:10 *515:42 0.000145942
67 *107:12 *515:42 2.22183e-05
68 *167:25 *1794:A 2.69066e-06
69 *167:25 *1796:A1 8.4047e-05
70 *212:8 *1795:A2 1.32314e-05
71 *241:8 *515:88 0.000180863
72 *273:27 *1796:A1 2.13834e-05
73 *273:27 *515:33 1.83667e-05
74 *273:27 *515:42 0.000835907
75 *294:39 *515:88 0.000770146
76 *294:51 *515:94 0
77 *442:10 *515:127 3.3746e-05
78 *443:8 *515:10 4.38068e-06
79 *443:8 *515:110 2.2136e-05
80 *443:8 *515:127 3.82058e-06
81 *443:16 *515:127 0.000145969
82 *444:8 *1611:B1 0
83 *456:12 *515:127 0.000219873
84 *464:25 *515:94 0.000107641
85 *464:31 *515:94 0.000679774
86 *470:10 *515:12 5.3304e-05
87 *470:10 *515:88 0.000343064
88 *475:10 *515:88 2.96369e-05
89 *475:12 *515:88 7.75329e-06
90 *475:12 *515:94 5.93381e-05
91 *475:51 *515:88 2.64506e-05
92 *475:68 *515:88 5.58302e-05
93 *475:81 *515:88 0
94 *475:83 *515:88 0
95 *475:102 *515:20 0.000136728
96 *475:102 *515:88 0
97 *494:14 *515:94 0.000236533
98 *494:32 *515:88 0.000272282
*RES
1 *2054:X *515:4 23 
2 *515:4 *515:10 5.075 
3 *515:10 *515:12 1.09786 
4 *515:12 *515:20 48.7879 
5 *515:20 *1680:A 24.595 
6 *515:20 *515:33 23.9486 
7 *515:33 *1730:A 38 
8 *515:33 *515:42 23.0343 
9 *515:42 *515:44 15 
10 *515:44 *1794:A 24.5743 
11 *515:44 *1795:A2 30.3743 
12 *515:42 *1796:A1 44.815 
13 *515:12 *1610:B 23 
14 *515:10 *515:88 40.6443 
15 *515:88 *515:94 34.1814 
16 *515:94 *1647:A 23 
17 *515:88 *1659:C1 39.0979 
18 *515:4 *515:110 3.00357 
19 *515:110 *1611:B1 23.8493 
20 *515:110 *515:127 34.205 
21 *515:127 *1609:B 23 
*END

*D_NET *516 0.0155269
*CONN
*I *1803:A I *D sky130_fd_sc_hd__nor2_1
*I *1790:A I *D sky130_fd_sc_hd__nand2_1
*I *1684:A I *D sky130_fd_sc_hd__nor2_1
*I *1599:A1 I *D sky130_fd_sc_hd__o41ai_4
*I *1608:C1 I *D sky130_fd_sc_hd__a211o_1
*I *1616:A I *D sky130_fd_sc_hd__or2_1
*I *1613:A I *D sky130_fd_sc_hd__nor2_1
*I *1663:A I *D sky130_fd_sc_hd__nor2_4
*I *1726:A I *D sky130_fd_sc_hd__nand2_1
*I *1685:A I *D sky130_fd_sc_hd__or2_1
*I *2055:X O *D sky130_fd_sc_hd__clkbuf_4
*CAP
1 *1803:A 0.000268374
2 *1790:A 0
3 *1684:A 0
4 *1599:A1 0.000155693
5 *1608:C1 0
6 *1616:A 0.000315158
7 *1613:A 0.000160139
8 *1663:A 0.000110745
9 *1726:A 3.41222e-05
10 *1685:A 6.16773e-05
11 *2055:X 0.000125914
12 *516:112 0.000378853
13 *516:108 0.00104219
14 *516:79 0.000287741
15 *516:66 0.00135419
16 *516:42 0.000375286
17 *516:40 0.00104559
18 *516:38 0.000266178
19 *516:23 0.000391583
20 *516:17 0.0010572
21 *516:6 0.000187591
22 *1599:A1 *1618:A 3.70094e-05
23 *1599:A1 *543:76 0.000209748
24 *1599:A1 *543:95 0.000181013
25 *1616:A *554:66 0
26 *1663:A *1682:A 0
27 *1663:A *544:32 0.000194318
28 *1685:A *1685:B 6.17437e-06
29 *1685:A *548:10 5.3304e-05
30 *1803:A *526:111 0.000104969
31 *1803:A *529:80 0.000137651
32 *516:6 *1685:B 2.32101e-05
33 *516:6 *548:10 0.000308045
34 *516:23 *1685:B 0.00015954
35 *516:23 *523:52 1.01436e-05
36 *516:23 *544:32 1.52259e-05
37 *516:23 *548:18 3.17261e-05
38 *516:38 *523:52 0.000380352
39 *516:38 *544:32 0.000407218
40 *516:38 *548:18 0
41 *516:40 *1682:A 0
42 *516:40 *544:32 6.48142e-05
43 *516:40 *548:18 0
44 *516:42 *1682:A 0
45 *516:42 *544:32 0.000192096
46 *516:66 *523:39 0.00137218
47 *516:79 *1618:A 0.000189392
48 *516:108 *543:125 7.91493e-05
49 *516:108 *544:32 0.000593827
50 *516:108 *548:18 4.99753e-06
51 *516:108 *548:38 0.000214225
52 *516:108 *548:53 0.000164926
53 *516:112 *1732:B 0.000139639
54 *516:112 *526:111 6.07611e-06
55 *1608:B1 *1599:A1 0.000207507
56 *1608:B1 *516:79 1.14452e-05
57 *1620:B1 *1616:A 9.48381e-06
58 *1621:A1 *1616:A 2.98648e-05
59 *1689:A1 *1663:A 0
60 *1796:B1 *1803:A 9.67842e-05
61 *2055:A *516:6 4.9662e-05
62 *45:48 *1663:A 0
63 *50:31 *1613:A 0.000139764
64 *51:8 *1663:A 0
65 *60:8 *1685:A 0
66 *101:8 *516:23 0.000141879
67 *102:10 *516:108 0.000163352
68 *107:74 *1803:A 4.21594e-06
69 *107:74 *516:108 3.83778e-05
70 *107:74 *516:112 9.21347e-06
71 *109:8 *516:108 0
72 *166:10 *1803:A 0.000194309
73 *170:8 *1803:A 0.000209046
74 *212:16 *1803:A 3.56711e-05
75 *219:40 *516:108 2.7636e-05
76 *219:40 *516:112 0.000123439
77 *219:57 *1803:A 0
78 *220:8 *516:108 0.000163352
79 *391:16 *1599:A1 0.000215791
80 *423:38 *516:79 8.47586e-05
81 *442:10 *516:66 5.50106e-05
82 *444:21 *1616:A 8.80821e-05
83 *446:8 *1613:A 2.93845e-05
84 *449:6 *1616:A 5.10805e-05
85 *449:23 *1616:A 9.21347e-06
86 *451:10 *1616:A 5.0135e-05
87 *451:10 *516:66 5.50106e-05
88 *454:10 *1616:A 3.56537e-05
89 *454:10 *516:79 1.27191e-05
90 *456:12 *516:66 0.000177604
91 *474:14 *516:79 0
92 *497:29 *516:108 5.32702e-05
93 *515:127 *516:66 5.50106e-05
*RES
1 *2055:X *516:6 26.48 
2 *516:6 *1685:A 24.1186 
3 *516:6 *516:17 15 
4 *516:17 *516:23 18.5836 
5 *516:23 *1726:A 23.6214 
6 *516:23 *516:38 22.0221 
7 *516:38 *516:40 0.849286 
8 *516:40 *516:42 2.61 
9 *516:42 *1663:A 40.61 
10 *516:42 *1613:A 41.0036 
11 *516:40 *516:66 48.2493 
12 *516:66 *1616:A 43.9657 
13 *516:66 *516:79 3.31429 
14 *516:79 *1608:C1 38 
15 *516:79 *1599:A1 43.7793 
16 *516:38 *1684:A 38 
17 *516:17 *516:108 36.3357 
18 *516:108 *516:112 18.6664 
19 *516:112 *1790:A 38 
20 *516:112 *1803:A 45.3536 
*END

*D_NET *517 0.0114487
*CONN
*I *1659:A1 I *D sky130_fd_sc_hd__o211a_1
*I *1613:B I *D sky130_fd_sc_hd__nor2_1
*I *1588:A I *D sky130_fd_sc_hd__inv_2
*I *1907:A I *D sky130_fd_sc_hd__and3_1
*I *1653:B I *D sky130_fd_sc_hd__nand2_1
*I *1612:B I *D sky130_fd_sc_hd__or2_1
*I *1935:A1 I *D sky130_fd_sc_hd__a21oi_1
*I *1934:A I *D sky130_fd_sc_hd__and3_1
*I *2025:A1 I *D sky130_fd_sc_hd__a22o_1
*I *1658:A1 I *D sky130_fd_sc_hd__o21ai_1
*I *2056:X O *D sky130_fd_sc_hd__buf_2
*CAP
1 *1659:A1 0
2 *1613:B 0
3 *1588:A 0
4 *1907:A 3.81437e-05
5 *1653:B 4.43946e-05
6 *1612:B 0
7 *1935:A1 0
8 *1934:A 9.25871e-05
9 *2025:A1 0
10 *1658:A1 1.50079e-05
11 *2056:X 0.000111667
12 *517:108 0.000602538
13 *517:78 4.43946e-05
14 *517:62 0.000364956
15 *517:58 0.000517664
16 *517:54 0.000508061
17 *517:47 0.000305656
18 *517:33 0.00168245
19 *517:29 0.00121295
20 *517:25 0.000753958
21 *517:14 0.000338494
22 *517:8 0.00034452
23 *1653:B *1653:A 5.50106e-05
24 *1653:B *1879:B 3.91386e-05
25 *1653:B *549:107 0.00014196
26 *517:33 *540:47 0.000609974
27 *517:47 *540:47 0.00025434
28 *517:47 *554:58 0
29 *517:47 *565:62 1.39431e-05
30 *517:58 *1907:B 0
31 *517:62 *1934:B 0
32 *517:62 *518:31 2.8936e-05
33 *517:62 *551:89 5.21127e-05
34 *1628:A *517:33 8.43466e-05
35 *1640:B1_N *517:33 9.58714e-05
36 *1658:A2 *1658:A1 5.50049e-05
37 *1658:B1 *1658:A1 5.50049e-05
38 *1659:A2 *517:8 4.67957e-05
39 *1659:C1 *517:8 5.40241e-05
40 *1934:C *1934:A 4.17736e-05
41 *31:19 *517:14 3.99563e-05
42 *32:10 *517:8 1.58321e-05
43 *32:10 *517:14 0.000151644
44 *38:27 *517:58 2.76611e-06
45 *241:26 *517:14 7.56417e-05
46 *241:26 *517:25 9.04083e-05
47 *241:26 *517:108 0.000123428
48 *251:6 *517:29 2.93845e-05
49 *251:25 *517:25 6.48142e-05
50 *251:25 *517:108 0.00016046
51 *255:10 *1653:B 1.32939e-05
52 *255:10 *517:58 7.03766e-05
53 *285:14 *517:58 0
54 *294:55 *517:8 0.000272646
55 *294:55 *517:14 1.76557e-05
56 *413:18 *517:47 0.000141888
57 *446:10 *517:14 0.000139898
58 *446:10 *517:25 3.89e-05
59 *446:10 *517:108 0.000340246
60 *448:33 *1934:A 9.28753e-05
61 *460:14 *517:33 5.67058e-05
62 *460:27 *517:33 0.00012612
63 *473:10 *517:33 5.50106e-05
64 *475:83 *517:108 0.0001961
65 *475:102 *517:108 0.000222438
66 *486:8 *1653:B 2.4754e-05
67 *486:36 *517:58 9.63815e-05
68 *492:73 *517:47 0
69 *492:73 *517:58 8.83401e-05
70 *492:73 *517:62 9.50414e-05
71 *493:23 *517:108 0
*RES
1 *2056:X *517:8 26.8529 
2 *517:8 *517:14 21.4007 
3 *517:14 *1658:A1 38.6214 
4 *517:14 *517:25 2.61 
5 *517:25 *517:29 16.0979 
6 *517:29 *517:33 22.0814 
7 *517:33 *517:47 37.3121 
8 *517:47 *2025:A1 23 
9 *517:33 *517:54 3.48 
10 *517:54 *517:58 20.7793 
11 *517:58 *517:62 20.4271 
12 *517:62 *1934:A 25.0714 
13 *517:62 *1935:A1 23 
14 *517:58 *517:78 15 
15 *517:78 *1612:B 23 
16 *517:78 *1653:B 25.0714 
17 *517:54 *1907:A 23.6214 
18 *517:29 *1588:A 23 
19 *517:25 *517:108 32.0479 
20 *517:108 *1613:B 23 
21 *517:8 *1659:A1 23 
*END

*D_NET *518 0.0286278
*CONN
*I *1955:A1 I *D sky130_fd_sc_hd__a21o_1
*I *1919:A1 I *D sky130_fd_sc_hd__a21oi_1
*I *1920:A1 I *D sky130_fd_sc_hd__o22a_1
*I *1967:A1 I *D sky130_fd_sc_hd__a221o_1
*I *1895:A1 I *D sky130_fd_sc_hd__a221o_1
*I *1809:B I *D sky130_fd_sc_hd__or4_1
*I *1900:A I *D sky130_fd_sc_hd__xnor2_1
*I *1922:A1 I *D sky130_fd_sc_hd__a32o_1
*I *1986:A I *D sky130_fd_sc_hd__nand2_1
*I *2056:A I *D sky130_fd_sc_hd__buf_2
*I *2057:X O *D sky130_fd_sc_hd__clkbuf_4
*CAP
1 *1955:A1 0
2 *1919:A1 0
3 *1920:A1 0.000106942
4 *1967:A1 0
5 *1895:A1 0
6 *1809:B 4.01155e-05
7 *1900:A 0
8 *1922:A1 0
9 *1986:A 8.67698e-05
10 *2056:A 0
11 *2057:X 0
12 *518:151 0.000152353
13 *518:124 0.000151437
14 *518:117 0.000486005
15 *518:109 0.000659108
16 *518:105 0.000128607
17 *518:103 0.00130878
18 *518:82 0.0018119
19 *518:74 0.000667588
20 *518:67 0.000503774
21 *518:54 0.00111961
22 *518:50 0.00169288
23 *518:31 0.00126497
24 *518:25 0.00176657
25 *518:10 0.000902728
26 *518:6 0.00133917
27 *518:25 *551:37 0.000601939
28 *518:25 *551:41 5.93278e-05
29 *518:25 *551:74 0.000127821
30 *518:31 *1934:B 4.6318e-06
31 *518:31 *546:44 0
32 *518:50 *1590:A 5.50106e-05
33 *518:50 *519:58 1.86869e-05
34 *518:50 *519:88 0.000228051
35 *518:50 *550:32 2.07791e-05
36 *518:50 *552:46 0
37 *518:54 *519:88 0
38 *518:54 *520:18 8.43343e-05
39 *518:54 *520:29 0.000151579
40 *518:54 *534:122 0
41 *518:54 *540:82 3.87221e-06
42 *518:54 *543:42 2.51506e-05
43 *518:54 *547:12 0.000148412
44 *518:67 *519:105 0
45 *518:67 *520:29 3.61511e-05
46 *518:67 *520:44 0.00035357
47 *518:74 *1810:C 8.99384e-05
48 *518:74 *520:44 4.17736e-05
49 *518:82 *1810:C 0.00047506
50 *518:82 *1810:D 2.93845e-05
51 *518:82 *529:51 0.00013961
52 *518:103 *1919:A2 0.000266033
53 *518:103 *526:92 0.000410264
54 *518:103 *537:52 4.45778e-05
55 *518:103 *563:77 0.00105704
56 *518:117 *554:98 0
57 *1604:A1 *518:50 5.50049e-05
58 *1630:C *518:25 8.4047e-05
59 *1637:A1 *518:50 0.000245818
60 *1657:A2 *518:10 0
61 *1657:C1 *518:25 0.000310647
62 *1659:A2 *518:25 0
63 *1809:C *518:82 5.50049e-05
64 *1809:C *518:103 0.000386066
65 *1894:B1 *518:54 1.85651e-05
66 *1899:B *518:82 9.91798e-05
67 *1900:B *518:74 5.67058e-05
68 *1900:B *518:151 2.87018e-05
69 *1955:A2 *518:151 0.000322892
70 *2054:A *518:54 1.58805e-05
71 *2075:A *518:151 0.000243596
72 *32:10 *518:25 9.84851e-05
73 *50:35 *518:50 0.000561346
74 *184:10 *518:82 2.93845e-05
75 *191:14 *518:82 2.30435e-05
76 *191:22 *518:67 3.71369e-05
77 *191:22 *518:74 6.7063e-05
78 *191:22 *518:82 3.87007e-05
79 *196:54 *518:117 0
80 *197:40 *518:103 0.000524268
81 *197:67 *518:54 6.87607e-05
82 *199:51 *518:103 0
83 *199:103 *518:117 0.000660823
84 *205:38 *1920:A1 2.53809e-05
85 *205:38 *518:109 0.000102093
86 *205:38 *518:124 1.99109e-05
87 *209:12 *518:103 0
88 *211:10 *518:103 0.000175426
89 *268:10 *518:117 4.21594e-06
90 *271:10 *518:54 0
91 *272:18 *518:54 5.58873e-06
92 *273:8 *518:50 9.67842e-05
93 *273:23 *518:54 0.000194438
94 *279:23 *518:151 6.67764e-05
95 *294:39 *518:50 0.000786768
96 *294:51 *518:50 0
97 *294:55 *518:25 8.04014e-05
98 *296:10 *518:117 0
99 *297:20 *518:117 0
100 *298:8 *1920:A1 0.000239116
101 *298:8 *518:124 2.11101e-05
102 *303:12 *518:67 0
103 *314:8 *518:31 2.93747e-05
104 *333:10 *518:117 2.79004e-05
105 *335:10 *1920:A1 8.04758e-05
106 *370:8 *1986:A 0.000184527
107 *373:21 *518:31 0
108 *374:10 *518:31 6.79006e-05
109 *375:8 *518:31 0.000151497
110 *401:10 *518:54 0.000138718
111 *423:10 *518:50 5.50106e-05
112 *434:29 *518:50 1.38978e-05
113 *448:14 *518:31 0.000484551
114 *448:33 *518:31 0.000220153
115 *453:14 *518:25 0.000306338
116 *464:14 *518:31 2.32004e-05
117 *472:8 *518:50 0.000832068
118 *473:10 *518:10 0
119 *473:10 *518:50 0
120 *473:12 *518:10 0
121 *492:73 *518:31 0
122 *494:32 *518:50 0.000123593
123 *497:35 *518:54 1.05441e-05
124 *497:35 *518:67 0.000706271
125 *497:56 *518:103 4.73652e-05
126 *497:56 *518:117 3.5664e-05
127 *515:88 *518:10 0.00022293
128 *515:88 *518:50 0.000320812
129 *515:94 *518:10 4.6318e-06
130 *517:62 *518:31 2.8936e-05
*RES
1 *2057:X *518:6 38 
2 *518:6 *518:10 21.1314 
3 *518:10 *2056:A 23 
4 *518:10 *518:25 45.1629 
5 *518:25 *518:31 35.4036 
6 *518:31 *1986:A 40.0507 
7 *518:6 *518:50 46.03 
8 *518:50 *518:54 29.2307 
9 *518:54 *1922:A1 38 
10 *518:54 *518:67 27.8636 
11 *518:67 *1900:A 23 
12 *518:67 *518:74 2.52714 
13 *518:74 *518:82 11.6414 
14 *518:82 *1809:B 23.8493 
15 *518:82 *518:103 44.513 
16 *518:103 *518:105 15 
17 *518:105 *518:109 2.54786 
18 *518:109 *518:117 41.2064 
19 *518:117 *1895:A1 23 
20 *518:109 *518:124 1.09786 
21 *518:124 *1967:A1 23 
22 *518:124 *1920:A1 26.8736 
23 *518:105 *1919:A1 23 
24 *518:74 *518:151 35.075 
25 *518:151 *1955:A1 23 
*END

*D_NET *519 0.0249799
*CONN
*I *1933:A I *D sky130_fd_sc_hd__nand2_1
*I *1982:A1 I *D sky130_fd_sc_hd__a22oi_1
*I *1983:A I *D sky130_fd_sc_hd__and4_1
*I *1810:C I *D sky130_fd_sc_hd__or4_1
*I *1871:A I *D sky130_fd_sc_hd__or2_1
*I *1865:B2 I *D sky130_fd_sc_hd__a32o_1
*I *1587:A I *D sky130_fd_sc_hd__inv_2
*I *1662:B I *D sky130_fd_sc_hd__nor2_1
*I *2025:B2 I *D sky130_fd_sc_hd__a22o_1
*I *1879:A I *D sky130_fd_sc_hd__nand2_1
*I *2058:X O *D sky130_fd_sc_hd__buf_2
*CAP
1 *1933:A 4.01155e-05
2 *1982:A1 0
3 *1983:A 0
4 *1810:C 0.000780612
5 *1871:A 0.000227652
6 *1865:B2 1.49804e-05
7 *1587:A 0
8 *1662:B 0.000155701
9 *2025:B2 0.000242231
10 *1879:A 4.24511e-05
11 *2058:X 6.69485e-05
12 *519:144 0.000477028
13 *519:131 0.000229313
14 *519:125 0.00127843
15 *519:105 0.00151461
16 *519:88 0.00147095
17 *519:77 0.000127602
18 *519:62 0.000406139
19 *519:58 0.00135976
20 *519:50 0.00103379
21 *519:29 0.00170095
22 *519:25 0.0019271
23 *519:12 0.000918059
24 *519:6 0.000339895
25 *1662:B *562:10 5.41288e-05
26 *1810:C *1810:D 5.67058e-05
27 *1810:C *520:44 0.000311554
28 *1810:C *529:51 3.64385e-05
29 *1865:B2 *524:113 5.50106e-05
30 *1871:A *520:44 1.24376e-05
31 *1933:A *2058:A 0
32 *2025:B2 *554:58 0.000380333
33 *2025:B2 *565:62 1.59094e-05
34 *519:12 *1907:B 3.3123e-05
35 *519:12 *1932:A2 6.79006e-05
36 *519:12 *1934:B 4.08537e-05
37 *519:25 *1907:B 0.000255857
38 *519:25 *1932:A2 0.000114656
39 *519:25 *1932:A3 0.000132486
40 *519:25 *521:57 0
41 *519:25 *521:79 0
42 *519:25 *525:59 8.4047e-05
43 *519:25 *529:31 4.979e-05
44 *519:25 *532:20 6.7177e-06
45 *519:29 *544:26 0.00023181
46 *519:50 *544:26 0.000816709
47 *519:50 *554:58 0.000142808
48 *519:62 *562:10 0.000157128
49 *519:88 *524:121 1.59284e-05
50 *519:88 *540:82 1.02561e-05
51 *519:88 *552:46 0
52 *519:105 *540:82 4.6318e-06
53 *519:125 *523:16 0.000438462
54 *519:125 *544:26 7.39944e-05
55 *519:131 *527:34 5.94125e-05
56 *519:131 *527:45 0.000161121
57 *519:131 *535:22 5.97612e-05
58 *519:131 *535:28 8.58484e-05
59 *519:144 *523:16 0.000395901
60 *519:144 *537:69 0.000173355
61 *519:144 *563:41 0.000365576
62 *1619:B *519:88 3.884e-05
63 *1637:A1 *519:88 0.000242108
64 *1637:A2 *519:88 0.000264524
65 *1668:A *519:77 0
66 *1865:A3 *1865:B2 5.50106e-05
67 *1872:B *1871:A 3.23684e-05
68 *2054:A *519:88 0.000165182
69 *38:19 *1662:B 0.000352426
70 *38:19 *519:58 0.00043937
71 *38:19 *519:62 0.000291287
72 *38:27 *519:25 0
73 *50:35 *519:88 0.000212864
74 *191:22 *1871:A 3.84508e-05
75 *197:63 *519:105 1.77147e-05
76 *197:67 *519:105 4.86691e-05
77 *199:65 *519:105 2.15048e-05
78 *271:10 *519:88 0.000167535
79 *272:18 *519:88 6.6663e-06
80 *273:23 *519:88 0.000193324
81 *274:20 *519:88 0.000136486
82 *274:20 *519:105 0.000168306
83 *303:12 *519:105 0.000797351
84 *312:10 *519:6 2.65879e-05
85 *312:10 *519:12 1.73399e-05
86 *415:10 *519:25 0.00019747
87 *416:8 *519:25 0.000166532
88 *417:12 *519:25 0
89 *423:10 *519:88 3.95159e-06
90 *434:29 *519:88 2.11157e-05
91 *443:33 *519:50 0
92 *454:18 *519:88 3.72442e-05
93 *456:16 *519:50 0.000111852
94 *470:10 *519:77 0.000216721
95 *471:10 *519:77 4.86028e-06
96 *474:14 *519:50 0.000114083
97 *475:102 *519:77 7.71979e-05
98 *490:27 *519:131 0
99 *497:35 *519:105 0.000213205
100 *515:88 *519:77 1.50266e-05
101 *518:50 *519:58 1.86869e-05
102 *518:50 *519:88 0.000228051
103 *518:54 *519:88 0
104 *518:67 *519:105 0
105 *518:74 *1810:C 8.99384e-05
106 *518:82 *1810:C 0.00047506
*RES
1 *2058:X *519:6 24.0979 
2 *519:6 *519:12 18.9564 
3 *519:12 *1879:A 38.6214 
4 *519:12 *519:25 31.3436 
5 *519:25 *519:29 24.6736 
6 *519:29 *2025:B2 43.6964 
7 *519:29 *519:50 42.6564 
8 *519:50 *519:58 35.7586 
9 *519:58 *519:62 18.48 
10 *519:62 *1662:B 26.9564 
11 *519:62 *519:77 33.5214 
12 *519:77 *1587:A 23 
13 *519:58 *519:88 23.0964 
14 *519:88 *1865:B2 38.6214 
15 *519:88 *519:105 29.2929 
16 *519:105 *1871:A 26.0243 
17 *519:105 *1810:C 35.4286 
18 *519:25 *519:125 8.24429 
19 *519:125 *519:131 34.3707 
20 *519:131 *1983:A 23 
21 *519:125 *519:144 39.5079 
22 *519:144 *1982:A1 23 
23 *519:6 *1933:A 23.8493 
*END

*D_NET *520 0.0120453
*CONN
*I *1893:A1 I *D sky130_fd_sc_hd__o22a_1
*I *1892:A1 I *D sky130_fd_sc_hd__a21oi_1
*I *1872:A I *D sky130_fd_sc_hd__nand2_1
*I *1922:B2 I *D sky130_fd_sc_hd__a32o_1
*I *1894:A1 I *D sky130_fd_sc_hd__a32o_1
*I *2059:X O *D sky130_fd_sc_hd__dlymetal6s2s_1
*CAP
1 *1893:A1 0.000266597
2 *1892:A1 0.000130145
3 *1872:A 0
4 *1922:B2 0
5 *1894:A1 0
6 *2059:X 0.000355554
7 *520:53 0.000497414
8 *520:44 0.00063768
9 *520:29 0.00082505
10 *520:18 0.00194849
11 *520:8 0.00221735
12 *1892:A1 *537:69 0.000165304
13 *1893:A1 *526:62 6.94454e-05
14 *520:18 *1830:A1 1.94812e-05
15 *520:18 *1830:A2 0.000223692
16 *520:18 *524:107 0.000805678
17 *520:18 *524:113 0.000142771
18 *520:18 *526:77 4.64758e-05
19 *520:18 *545:21 0.000937608
20 *520:29 *534:122 4.34552e-05
21 *520:44 *538:12 0
22 *520:44 *542:120 0
23 *520:44 *563:77 0
24 *520:53 *537:69 0.000150977
25 *1810:C *520:44 0.000311554
26 *1830:B2 *520:18 0.000223692
27 *1871:A *520:44 1.24376e-05
28 *1872:B *520:44 1.37232e-05
29 *1890:B *1893:A1 0
30 *1892:B1 *1892:A1 5.50106e-05
31 *1894:B1 *520:18 3.82456e-05
32 *1894:B1 *520:29 6.07611e-06
33 *1895:B2 *1893:A1 1.28818e-05
34 *1895:C1 *1893:A1 5.50106e-05
35 *2075:A *520:44 0
36 *188:47 *1893:A1 0.000480242
37 *190:27 *520:18 0.000193698
38 *191:22 *520:44 5.70473e-05
39 *199:103 *1892:A1 9.47917e-06
40 *199:103 *1893:A1 1.46586e-05
41 *199:103 *520:53 4.66036e-05
42 *205:91 *520:44 1.40087e-05
43 *267:6 *1893:A1 0.000241479
44 *268:10 *1892:A1 0
45 *272:10 *1892:A1 5.04995e-05
46 *296:10 *520:8 5.83407e-05
47 *497:50 *520:44 0
48 *518:54 *520:18 8.43343e-05
49 *518:54 *520:29 0.000151579
50 *518:67 *520:29 3.61511e-05
51 *518:67 *520:44 0.00035357
52 *518:74 *520:44 4.17736e-05
*RES
1 *2059:X *520:8 29.3593 
2 *520:8 *520:18 49.3857 
3 *520:18 *1894:A1 38 
4 *520:18 *520:29 3.70786 
5 *520:29 *1922:B2 38 
6 *520:29 *520:44 30.0386 
7 *520:44 *1872:A 23 
8 *520:8 *520:53 17.2579 
9 *520:53 *1892:A1 40.8793 
10 *520:53 *1893:A1 45.9336 
*END

*D_NET *521 0.012168
*CONN
*I *1928:A1 I *D sky130_fd_sc_hd__a22oi_1
*I *1982:B2 I *D sky130_fd_sc_hd__a22oi_1
*I *1983:B I *D sky130_fd_sc_hd__and4_1
*I *1862:A I *D sky130_fd_sc_hd__nand2_1
*I *1880:A I *D sky130_fd_sc_hd__and3_1
*I *1853:A2 I *D sky130_fd_sc_hd__a21o_1
*I *1855:B I *D sky130_fd_sc_hd__and3_1
*I *2022:A I *D sky130_fd_sc_hd__nand2_1
*I *1932:A3 I *D sky130_fd_sc_hd__a31oi_2
*I *1927:B I *D sky130_fd_sc_hd__and4_1
*I *2060:X O *D sky130_fd_sc_hd__clkbuf_2
*CAP
1 *1928:A1 0
2 *1982:B2 0
3 *1983:B 0
4 *1862:A 0.000158832
5 *1880:A 0
6 *1853:A2 3.41136e-05
7 *1855:B 0.000306517
8 *2022:A 0
9 *1932:A3 0.000295144
10 *1927:B 4.90249e-05
11 *2060:X 0.000469076
12 *521:89 0.000683725
13 *521:83 0.00052373
14 *521:79 0.000732597
15 *521:57 0.000458277
16 *521:51 0.000884637
17 *521:47 0.000708827
18 *521:39 0.000667691
19 *521:31 0.000592483
20 *521:10 0.000823346
21 *1853:A2 *523:33 5.12254e-05
22 *1855:B *1853:A1 0.000293785
23 *1855:B *529:31 7.95512e-05
24 *1855:B *542:139 5.3304e-05
25 *1862:A *1881:A2 6.24278e-05
26 *1862:A *545:54 5.67058e-05
27 *1927:B *1927:C 5.50106e-05
28 *1927:B *524:12 4.36401e-06
29 *1927:B *525:12 9.84851e-05
30 *1927:B *534:155 7.57281e-06
31 *1927:B *538:49 2.18409e-05
32 *1932:A3 *1932:A2 5.50049e-05
33 *1932:A3 *567:10 0
34 *1932:A3 *569:10 7.75329e-06
35 *521:10 *2060:A 0.000257343
36 *521:10 *523:16 0.000262864
37 *521:10 *524:12 9.54446e-06
38 *521:10 *534:155 5.07871e-05
39 *521:10 *538:45 8.4047e-05
40 *521:31 *525:28 7.36035e-05
41 *521:31 *525:112 2.11157e-05
42 *521:31 *538:63 1.02561e-05
43 *521:39 *525:28 1.35676e-05
44 *521:39 *525:37 7.59794e-05
45 *521:39 *529:14 0.000267173
46 *521:39 *538:49 2.18409e-05
47 *521:39 *538:63 5.50106e-05
48 *521:39 *563:41 0.000111731
49 *521:47 *1983:C 0.000201775
50 *521:47 *541:36 0.000115347
51 *521:47 *565:62 2.81406e-06
52 *521:51 *565:62 0.000252208
53 *521:57 *567:10 0
54 *521:79 *523:16 7.30978e-05
55 *521:79 *532:20 0.000346225
56 *521:79 *567:10 0
57 *521:83 *1881:A2 9.41704e-05
58 *521:89 *529:31 0.000182076
59 *1853:B1 *1853:A2 9.67842e-05
60 *38:19 *521:89 5.3304e-05
61 *38:27 *521:89 3.47781e-05
62 *38:34 *521:83 1.54983e-05
63 *38:34 *521:89 0.000170388
64 *38:46 *1862:A 7.8211e-05
65 *38:46 *521:83 1.87407e-05
66 *229:8 *1855:B 8.4047e-05
67 *256:12 *1862:A 5.07676e-05
68 *257:10 *1862:A 0.000141954
69 *286:8 *1932:A3 0.000182826
70 *286:18 *1932:A3 0.000166522
71 *365:10 *521:39 5.79427e-05
72 *416:8 *1932:A3 1.83667e-05
73 *416:8 *521:57 4.77066e-05
74 *417:12 *1932:A3 0
75 *492:73 *1855:B 0
76 *492:73 *521:89 0
77 *519:25 *1932:A3 0.000132486
78 *519:25 *521:57 0
79 *519:25 *521:79 0
*RES
1 *2060:X *521:10 45.5918 
2 *521:10 *1927:B 39.4189 
3 *521:10 *521:31 31.9781 
4 *521:31 *521:39 36.67 
5 *521:39 *521:47 6.40071 
6 *521:47 *521:51 22.2914 
7 *521:51 *521:57 3.37643 
8 *521:57 *1932:A3 45.83 
9 *521:57 *2022:A 38 
10 *521:51 *521:79 23.2443 
11 *521:79 *521:83 3.25214 
12 *521:83 *521:89 22.9543 
13 *521:89 *1855:B 43.9657 
14 *521:89 *1853:A2 39.0979 
15 *521:83 *1880:A 23 
16 *521:79 *1862:A 27.6193 
17 *521:47 *1983:B 23 
18 *521:39 *1982:B2 23 
19 *521:31 *1928:A1 23 
*END

*D_NET *522 0.00240924
*CONN
*I *2068:A I *D sky130_fd_sc_hd__clkbuf_2
*I *1821:B I *D sky130_fd_sc_hd__nor3_4
*I *2105:X O *D sky130_fd_sc_hd__buf_1
*CAP
1 *2068:A 0.00010762
2 *1821:B 0.000112011
3 *2105:X 0.000333197
4 *522:10 0.000552827
5 *2068:A *1817:B 7.43025e-06
6 *2068:A *532:14 0.000137651
7 *1817:C *2068:A 3.53115e-05
8 *1817:D_N *2068:A 0.00010018
9 *5:13 *522:10 0.000310647
10 *192:6 *2068:A 0.000352421
11 *192:20 *2068:A 9.84794e-05
12 *196:8 *1821:B 3.55887e-05
13 *315:23 *2068:A 3.53115e-05
14 *326:56 *1821:B 7.36618e-05
15 *326:56 *522:10 2.10236e-05
16 *511:8 *522:10 9.5877e-05
17 *511:10 *522:10 0
18 *511:12 *1821:B 0
19 *511:12 *522:10 0
20 *511:45 *522:10 0
*RES
1 *2105:X *522:10 44.4421 
2 *522:10 *1821:B 40.2579 
3 *522:10 *2068:A 42.9093 
*END

*D_NET *523 0.0135954
*CONN
*I *2060:A I *D sky130_fd_sc_hd__clkbuf_2
*I *1685:B I *D sky130_fd_sc_hd__or2_1
*I *1726:B I *D sky130_fd_sc_hd__nand2_1
*I *1684:B I *D sky130_fd_sc_hd__nor2_1
*I *1881:A1 I *D sky130_fd_sc_hd__a21oi_1
*I *2061:X O *D sky130_fd_sc_hd__dlymetal6s2s_1
*CAP
1 *2060:A 7.59798e-05
2 *1685:B 9.18073e-05
3 *1726:B 0
4 *1684:B 5.37224e-05
5 *1881:A1 4.25104e-05
6 *2061:X 0.000143993
7 *523:52 0.000319683
8 *523:39 0.00112421
9 *523:33 0.00212567
10 *523:16 0.0022524
11 *523:10 0.00100282
12 *523:8 0.000143993
13 *1685:B *544:32 8.51329e-05
14 *2060:A *544:18 9.61128e-05
15 *2060:A *555:14 0.000141052
16 *523:8 *2063:A 0.000161121
17 *523:8 *534:155 0
18 *523:16 *532:20 0
19 *523:16 *544:18 6.53382e-05
20 *523:16 *544:26 0.00098391
21 *523:16 *545:54 1.62015e-05
22 *523:16 *567:10 2.22183e-05
23 *523:33 *1853:A1 1.32939e-05
24 *523:33 *1878:A 0.000114846
25 *523:33 *532:20 0
26 *523:33 *545:54 0.000104536
27 *523:33 *547:88 4.95081e-05
28 *523:33 *547:96 9.58714e-05
29 *523:39 *1618:A 5.50106e-05
30 *523:39 *552:25 8.71387e-05
31 *523:39 *552:34 8.48502e-06
32 *523:52 *544:32 1.37349e-05
33 *523:52 *548:18 0
34 *1609:C *523:39 3.07056e-06
35 *1623:A2 *523:39 0.000181125
36 *1623:B1 *523:39 2.64616e-05
37 *1623:B2 *523:39 5.3304e-05
38 *1685:A *1685:B 6.17437e-06
39 *1853:A2 *523:33 5.12254e-05
40 *1853:B1 *523:33 2.61526e-05
41 *1909:A *523:16 0
42 *59:8 *1684:B 3.22879e-05
43 *256:12 *1881:A1 5.50049e-05
44 *287:10 *523:16 0.000126847
45 *323:14 *523:8 0
46 *441:14 *523:39 0.000170388
47 *516:6 *1685:B 2.32101e-05
48 *516:23 *1685:B 0.00015954
49 *516:23 *523:52 1.01436e-05
50 *516:38 *523:52 0.000380352
51 *516:66 *523:39 0.00137218
52 *519:125 *523:16 0.000438462
53 *519:144 *523:16 0.000395901
54 *521:10 *2060:A 0.000257343
55 *521:10 *523:16 0.000262864
56 *521:79 *523:16 7.30978e-05
*RES
1 *2061:X *523:8 40.61 
2 *523:8 *523:10 15 
3 *523:10 *523:16 39.0493 
4 *523:16 *1881:A1 38.6214 
5 *523:16 *523:33 37.4025 
6 *523:33 *523:39 20.4346 
7 *523:39 *1684:B 24.1186 
8 *523:39 *523:52 20.4271 
9 *523:52 *1726:B 38 
10 *523:52 *1685:B 40.8793 
11 *523:10 *2060:A 26.48 
*END

*D_NET *524 0.0250612
*CONN
*I *1835:A1 I *D sky130_fd_sc_hd__a22o_1
*I *1894:B2 I *D sky130_fd_sc_hd__a32o_1
*I *1865:A1 I *D sky130_fd_sc_hd__a32o_1
*I *1728:A0 I *D sky130_fd_sc_hd__mux2_4
*I *1810:D I *D sky130_fd_sc_hd__or4_1
*I *1848:A I *D sky130_fd_sc_hd__or2_1
*I *1849:A I *D sky130_fd_sc_hd__nand2_1
*I *1864:A1 I *D sky130_fd_sc_hd__o22a_1
*I *2061:A I *D sky130_fd_sc_hd__dlymetal6s2s_1
*I *2062:X O *D sky130_fd_sc_hd__buf_2
*CAP
1 *1835:A1 0
2 *1894:B2 0
3 *1865:A1 2.4197e-05
4 *1728:A0 0
5 *1810:D 1.39009e-05
6 *1848:A 0
7 *1849:A 5.28468e-05
8 *1864:A1 3.80122e-05
9 *2061:A 0
10 *2062:X 0.000115
11 *524:121 0.000513043
12 *524:113 0.000809642
13 *524:107 0.000763099
14 *524:78 0.00105163
15 *524:64 0.0018485
16 *524:56 0.00178592
17 *524:52 0.00132562
18 *524:25 0.00254023
19 *524:12 0.000184274
20 *524:6 0.00193529
21 *524:6 *544:18 0.000226306
22 *524:12 *2063:A 0.000115361
23 *524:12 *538:45 8.93663e-05
24 *524:25 *535:22 0.000139203
25 *524:25 *537:69 0.000897907
26 *524:25 *540:97 0.000188344
27 *524:25 *544:26 0.000531884
28 *524:52 *537:69 0.000397191
29 *524:52 *540:97 0.000188537
30 *524:56 *538:20 0.000352421
31 *524:64 *538:12 0
32 *524:64 *538:20 0.000175903
33 *524:64 *540:10 1.01436e-05
34 *524:64 *554:75 0
35 *524:78 *529:57 1.60633e-05
36 *524:107 *1597:A 9.41704e-05
37 *524:107 *1865:A2 4.57742e-05
38 *524:107 *543:95 5.50106e-05
39 *524:107 *554:75 7.4462e-05
40 *524:113 *1865:A2 2.77692e-05
41 *524:113 *540:82 0.000141954
42 *524:121 *543:29 0.000136738
43 *524:121 *543:42 0.000253028
44 *524:121 *552:10 6.90304e-05
45 *1810:C *1810:D 5.67058e-05
46 *1824:A_N *524:78 5.50049e-05
47 *1835:A2 *524:52 5.3304e-05
48 *1835:A2 *524:56 0.000137091
49 *1848:B *1849:A 5.50049e-05
50 *1848:B *524:78 0
51 *1865:A3 *524:113 8.46371e-05
52 *1865:B2 *524:113 5.50106e-05
53 *1874:A *524:78 5.12254e-05
54 *1874:C *524:78 2.15906e-05
55 *1894:B1 *524:113 1.69977e-05
56 *1927:B *524:12 4.36401e-06
57 *50:35 *524:121 0.000215801
58 *182:24 *524:64 0
59 *182:24 *524:78 1.83667e-05
60 *188:47 *1864:A1 5.3304e-05
61 *191:14 *524:78 0.000788039
62 *192:24 *524:78 0.000454033
63 *192:28 *1849:A 3.59635e-05
64 *192:28 *524:78 0.000394086
65 *192:30 *1849:A 2.93747e-05
66 *196:46 *524:52 0.000434165
67 *199:10 *524:78 3.16665e-05
68 *211:22 *524:78 0.000839668
69 *223:10 *1849:A 6.91235e-05
70 *223:10 *524:78 2.18409e-05
71 *234:10 *524:25 4.06512e-05
72 *248:12 *524:78 1.5769e-05
73 *258:8 *524:25 6.58373e-05
74 *271:10 *524:113 5.50106e-05
75 *273:23 *524:121 0.000729761
76 *274:20 *1865:A1 6.16531e-05
77 *274:20 *524:121 4.95442e-05
78 *294:39 *524:121 8.4047e-05
79 *326:90 *1865:A1 2.60152e-05
80 *326:90 *524:121 0.000162786
81 *337:16 *524:64 5.02006e-05
82 *337:60 *524:64 8.51329e-05
83 *337:66 *524:64 2.70469e-05
84 *345:12 *524:52 0.000727942
85 *345:12 *524:56 8.48502e-06
86 *348:32 *524:64 0.000231825
87 *348:53 *524:64 1.38978e-05
88 *358:8 *524:64 0.000137788
89 *434:51 *524:107 0.000161626
90 *491:32 *524:64 0
91 *491:32 *524:78 0
92 *497:68 *524:25 2.35393e-05
93 *497:68 *524:52 9.51668e-05
94 *518:82 *1810:D 2.93845e-05
95 *519:88 *524:121 1.59284e-05
96 *520:18 *524:107 0.000805678
97 *520:18 *524:113 0.000142771
98 *521:10 *524:12 9.54446e-06
*RES
1 *2062:X *524:6 25.5271 
2 *524:6 *524:12 33.3143 
3 *524:12 *2061:A 23 
4 *524:6 *524:25 48.2257 
5 *524:25 *1864:A1 38.6214 
6 *524:25 *524:52 36.5429 
7 *524:52 *524:56 6.83571 
8 *524:56 *524:64 29.4379 
9 *524:64 *524:78 42.9643 
10 *524:78 *1849:A 24.5743 
11 *524:78 *1848:A 23 
12 *524:64 *1810:D 38.6214 
13 *524:56 *524:107 41.9314 
14 *524:107 *524:113 20.8829 
15 *524:113 *524:121 29.2929 
16 *524:121 *1728:A0 23 
17 *524:113 *1865:A1 38.8493 
18 *524:107 *1894:B2 23 
19 *524:52 *1835:A1 23 
*END

*D_NET *525 0.0169702
*CONN
*I *1927:A I *D sky130_fd_sc_hd__and4_1
*I *1903:B I *D sky130_fd_sc_hd__and4_1
*I *2038:A1 I *D sky130_fd_sc_hd__a31o_1
*I *1981:A I *D sky130_fd_sc_hd__nand2_1
*I *1832:A2 I *D sky130_fd_sc_hd__a22o_1
*I *1878:A I *D sky130_fd_sc_hd__nand2_1
*I *1828:A I *D sky130_fd_sc_hd__and2_1
*I *2024:B I *D sky130_fd_sc_hd__nand4_1
*I *2023:B2 I *D sky130_fd_sc_hd__a22o_1
*I *1928:B2 I *D sky130_fd_sc_hd__a22oi_1
*I *2063:X O *D sky130_fd_sc_hd__buf_2
*CAP
1 *1927:A 0
2 *1903:B 0
3 *2038:A1 0
4 *1981:A 8.33093e-05
5 *1832:A2 0
6 *1878:A 0.000337615
7 *1828:A 0
8 *2024:B 0
9 *2023:B2 0.000353434
10 *1928:B2 0
11 *2063:X 0.000410557
12 *525:112 0.000667855
13 *525:92 0.00037956
14 *525:81 0.000649988
15 *525:61 0.000337615
16 *525:59 0.00115495
17 *525:41 0.000640353
18 *525:39 0.00152303
19 *525:37 0.00137381
20 *525:28 0.000600145
21 *525:16 0.000965561
22 *525:12 0.000454533
23 *1878:A *547:96 5.3304e-05
24 *1981:A *537:84 5.54148e-05
25 *2023:B2 *2023:A2 0.000184527
26 *2023:B2 *2023:B1 3.22117e-05
27 *2023:B2 *532:24 5.67058e-05
28 *525:12 *1927:C 3.88766e-05
29 *525:12 *1928:A2 6.17437e-06
30 *525:12 *2063:A 0.000354122
31 *525:12 *529:14 0.000391886
32 *525:12 *538:45 1.76557e-05
33 *525:16 *1928:A2 5.18881e-05
34 *525:16 *529:14 9.58714e-05
35 *525:16 *538:49 6.62892e-07
36 *525:28 *538:63 0.000102834
37 *525:28 *563:41 0
38 *525:28 *566:31 2.05503e-05
39 *525:37 *529:14 8.04119e-05
40 *525:37 *538:49 2.02517e-05
41 *525:39 *529:14 6.51763e-05
42 *525:39 *532:24 8.52481e-05
43 *525:39 *535:43 0.000370856
44 *525:41 *532:24 0.000383457
45 *525:59 *1880:B 6.38845e-05
46 *525:59 *529:31 0
47 *525:59 *532:20 0.000150077
48 *525:59 *547:88 2.76611e-06
49 *525:59 *547:96 0.000420397
50 *525:81 *528:6 0.000181125
51 *525:81 *528:14 9.29018e-05
52 *525:81 *532:20 0.000234698
53 *525:81 *547:88 1.06693e-05
54 *525:92 *2038:A2 5.94125e-05
55 *525:92 *535:22 0
56 *525:92 *535:28 0
57 *525:92 *537:69 0.000430248
58 *525:92 *538:63 1.83142e-05
59 *525:112 *527:51 0.000107466
60 *525:112 *527:76 9.84794e-05
61 *525:112 *538:63 6.60136e-06
62 *525:112 *541:18 0.0002246
63 *525:112 *563:41 0
64 *525:112 *566:31 0.000858576
65 *1927:B *525:12 9.84851e-05
66 *1984:B *1981:A 5.50049e-05
67 *202:21 *525:81 0.000121575
68 *202:32 *525:81 4.96264e-05
69 *202:43 *525:81 0.000143107
70 *207:32 *525:81 0.000190868
71 *231:8 *525:81 0.000168754
72 *232:12 *525:81 0.000194327
73 *254:12 *1878:A 1.59094e-05
74 *364:10 *1981:A 6.17437e-06
75 *366:10 *525:92 0.000182585
76 *490:27 *525:92 0
77 *519:25 *525:59 8.4047e-05
78 *521:31 *525:28 7.36035e-05
79 *521:31 *525:112 2.11157e-05
80 *521:39 *525:28 1.35676e-05
81 *521:39 *525:37 7.59794e-05
82 *523:33 *1878:A 0.000114846
*RES
1 *2063:X *525:12 33.6886 
2 *525:12 *525:16 16.0979 
3 *525:16 *525:28 32.7459 
4 *525:28 *1928:B2 23 
5 *525:28 *525:37 4.93 
6 *525:37 *525:39 10.6264 
7 *525:39 *525:41 4.43286 
8 *525:41 *2023:B2 28.2821 
9 *525:41 *2024:B 23 
10 *525:39 *525:59 25.7093 
11 *525:59 *525:61 15 
12 *525:61 *1828:A 23 
13 *525:61 *1878:A 28.8621 
14 *525:59 *525:81 31.2193 
15 *525:81 *1832:A2 23 
16 *525:37 *525:92 36.8357 
17 *525:92 *1981:A 25.0714 
18 *525:92 *2038:A1 23 
19 *525:16 *525:112 30.2457 
20 *525:112 *1903:B 23 
21 *525:12 *1927:A 23 
*END

*D_NET *526 0.0225759
*CONN
*I *1825:B2 I *D sky130_fd_sc_hd__a32o_1
*I *1810:B I *D sky130_fd_sc_hd__or4_1
*I *1795:A1 I *D sky130_fd_sc_hd__o211a_1
*I *1790:B I *D sky130_fd_sc_hd__nand2_1
*I *1732:B I *D sky130_fd_sc_hd__or2_1
*I *1792:A0 I *D sky130_fd_sc_hd__mux2_2
*I *1830:A1 I *D sky130_fd_sc_hd__o22a_1
*I *1866:A1 I *D sky130_fd_sc_hd__a221o_1
*I *1904:A1 I *D sky130_fd_sc_hd__a22oi_1
*I *2063:A I *D sky130_fd_sc_hd__buf_2
*I *2064:X O *D sky130_fd_sc_hd__buf_2
*CAP
1 *1825:B2 2.56995e-05
2 *1810:B 0
3 *1795:A1 0
4 *1790:B 0
5 *1732:B 0.00029876
6 *1792:A0 9.64033e-05
7 *1830:A1 6.56143e-05
8 *1866:A1 5.83757e-05
9 *1904:A1 0
10 *2063:A 0.000260663
11 *2064:X 0
12 *526:138 6.32579e-05
13 *526:111 0.000382478
14 *526:100 0.000277395
15 *526:98 0.00123801
16 *526:94 0.00151199
17 *526:92 0.000909463
18 *526:77 0.00119566
19 *526:62 0.00189373
20 *526:58 0.00207265
21 *526:45 0.000224181
22 *526:31 0.000426985
23 *526:19 0.00135611
24 *526:6 0.0006224
25 *1732:B *529:88 4.21594e-06
26 *1825:B2 *1825:A2 9.67842e-05
27 *2063:A *529:14 0.000201109
28 *2063:A *538:45 0
29 *526:19 *538:45 0
30 *526:31 *1904:A2 5.3304e-05
31 *526:31 *527:76 7.74714e-05
32 *526:31 *538:28 0
33 *526:31 *538:45 4.58473e-05
34 *526:31 *541:10 4.96264e-05
35 *526:45 *1904:A2 1.45248e-05
36 *526:45 *1904:B1 1.28407e-05
37 *526:45 *541:10 5.50106e-05
38 *526:58 *527:76 2.26406e-05
39 *526:58 *527:89 0
40 *526:58 *534:145 0
41 *526:58 *538:28 0
42 *526:62 *1864:A2 0.000434165
43 *526:92 *528:34 0.000976325
44 *526:92 *528:49 0.000101544
45 *526:92 *550:65 0.000356723
46 *526:94 *1825:A2 9.84794e-05
47 *526:94 *554:88 0.000164364
48 *526:111 *529:88 7.0662e-05
49 *526:138 *529:57 0.000141879
50 *1792:A1 *1792:A0 9.58714e-05
51 *1792:A1 *526:100 0.000135037
52 *1792:S *526:111 3.70094e-05
53 *1795:A2 *1792:A0 4.5051e-05
54 *1795:A2 *526:98 3.61695e-05
55 *1795:A2 *526:100 2.89076e-05
56 *1803:A *526:111 0.000104969
57 *1830:B1 *526:77 5.50049e-05
58 *1830:B2 *1830:A1 2.93104e-06
59 *1830:B2 *526:77 9.00923e-05
60 *1838:A *526:98 7.15126e-05
61 *1866:B2 *1866:A1 1.81615e-05
62 *1873:B *526:98 0.000207842
63 *1889:A *526:62 3.58084e-06
64 *1890:B *526:62 0.000131304
65 *1893:A1 *526:62 6.94454e-05
66 *1902:A1 *526:98 4.5051e-05
67 *1902:B1 *526:98 3.53115e-05
68 *1914:B1 *526:58 0
69 *1925:A2 *526:98 0.000204558
70 *1925:A3 *526:98 0.000324766
71 *1944:B *526:19 0
72 *107:10 *1732:B 3.56537e-05
73 *109:8 *1732:B 1.83564e-05
74 *170:8 *526:111 3.70094e-05
75 *183:12 *526:92 0
76 *188:47 *526:62 0.000575795
77 *190:27 *1866:A1 8.27142e-05
78 *190:27 *526:77 0.00050315
79 *191:14 *526:138 4.3407e-05
80 *196:14 *1866:A1 1.45549e-05
81 *196:14 *526:77 8.77794e-05
82 *199:51 *1825:B2 8.43466e-05
83 *199:51 *526:92 0
84 *199:51 *526:94 0.000227208
85 *211:10 *526:92 0.000109266
86 *212:8 *526:98 5.79042e-05
87 *219:40 *1732:B 0
88 *247:25 *526:98 6.82611e-05
89 *261:14 *526:58 0.000192077
90 *263:21 *526:58 0.000141879
91 *264:8 *526:58 1.12487e-05
92 *265:17 *526:58 0.000274553
93 *266:10 *526:58 4.6318e-06
94 *267:6 *526:62 1.95556e-05
95 *279:23 *526:98 0.000264553
96 *280:16 *526:31 2.46922e-05
97 *280:16 *526:58 2.26406e-05
98 *280:22 *526:19 4.95339e-05
99 *280:22 *526:58 7.77448e-05
100 *281:20 *526:19 6.16531e-05
101 *289:14 *526:45 0.000110383
102 *289:14 *526:58 4.08426e-05
103 *293:10 *526:58 0
104 *303:12 *526:98 5.3304e-05
105 *323:14 *2063:A 0
106 *323:14 *526:19 0
107 *493:63 *526:94 0.000328709
108 *515:42 *1732:B 0
109 *516:112 *1732:B 0.000139639
110 *516:112 *526:111 6.07611e-06
111 *518:103 *526:92 0.000410264
112 *520:18 *1830:A1 1.94812e-05
113 *520:18 *526:77 4.64758e-05
114 *523:8 *2063:A 0.000161121
115 *524:12 *2063:A 0.000115361
116 *525:12 *2063:A 0.000354122
*RES
1 *2064:X *526:6 38 
2 *526:6 *2063:A 45.6229 
3 *526:6 *526:19 6.83571 
4 *526:19 *526:31 35.1786 
5 *526:31 *526:45 49.2464 
6 *526:45 *1904:A1 23 
7 *526:19 *526:58 31.7579 
8 *526:58 *526:62 33.2493 
9 *526:62 *1866:A1 39.2014 
10 *526:62 *526:77 25.8543 
11 *526:77 *1830:A1 24.1186 
12 *526:77 *526:92 46.3436 
13 *526:92 *526:94 8.72071 
14 *526:94 *526:98 23.5107 
15 *526:98 *526:100 2.05071 
16 *526:100 *1792:A0 25.0507 
17 *526:100 *526:111 18.3143 
18 *526:111 *1732:B 44.1314 
19 *526:111 *1790:B 38 
20 *526:98 *1795:A1 23 
21 *526:94 *526:138 31.9057 
22 *526:138 *1810:B 23 
23 *526:92 *1825:B2 24.0979 
*END

*D_NET *527 0.0172977
*CONN
*I *1979:A1 I *D sky130_fd_sc_hd__a211oi_1
*I *1978:B1 I *D sky130_fd_sc_hd__o211a_1
*I *1926:A I *D sky130_fd_sc_hd__nand2_1
*I *1856:A1_N I *D sky130_fd_sc_hd__o2bb2a_1
*I *1857:C I *D sky130_fd_sc_hd__and4b_1
*I *1887:A1 I *D sky130_fd_sc_hd__a21oi_1
*I *1886:A I *D sky130_fd_sc_hd__and3_1
*I *1904:B2 I *D sky130_fd_sc_hd__a22oi_1
*I *1903:A I *D sky130_fd_sc_hd__and4_1
*I *2024:A I *D sky130_fd_sc_hd__nand4_1
*I *2065:X O *D sky130_fd_sc_hd__buf_2
*CAP
1 *1979:A1 0
2 *1978:B1 0
3 *1926:A 0
4 *1856:A1_N 9.25896e-05
5 *1857:C 0
6 *1887:A1 0
7 *1886:A 0.000133891
8 *1904:B2 0
9 *1903:A 0
10 *2024:A 0.000202204
11 *2065:X 0.000176034
12 *527:134 6.42374e-05
13 *527:109 0.000344705
14 *527:89 0.000523735
15 *527:76 0.000936588
16 *527:51 0.000988282
17 *527:45 0.00107646
18 *527:34 0.000620212
19 *527:30 0.000750176
20 *527:18 0.00115671
21 *527:8 0.000832284
22 *527:6 0.000502345
23 *1856:A1_N *1856:A2_N 2.11891e-05
24 *1886:A *1887:A2 0.000228001
25 *1886:A *540:116 3.53115e-05
26 *2024:A *529:14 0.000825441
27 *2024:A *529:22 0.000139346
28 *2024:A *535:43 0.000952349
29 *527:6 *529:116 4.9662e-05
30 *527:8 *529:116 7.53384e-06
31 *527:18 *534:155 0.000138461
32 *527:18 *541:36 9.91701e-05
33 *527:30 *529:14 0.000503367
34 *527:30 *538:63 0.000148504
35 *527:30 *566:31 5.86296e-05
36 *527:45 *535:22 0.00011775
37 *527:45 *563:14 2.55642e-05
38 *527:45 *563:22 0.000114092
39 *527:51 *1904:B1 0.000609752
40 *527:51 *563:35 0.000434165
41 *527:76 *1904:A2 4.81031e-05
42 *527:76 *1904:B1 0.000136697
43 *527:76 *541:18 2.32101e-05
44 *527:109 *1856:A2_N 5.50049e-05
45 *527:109 *542:143 0.000182826
46 *527:109 *545:46 0.000227208
47 *527:109 *545:67 0.000363867
48 *527:109 *563:14 0.000219882
49 *1857:D *1856:A1_N 0.000184684
50 *1877:A *1856:A1_N 0
51 *1877:A *527:109 2.4754e-05
52 *1877:B *527:109 3.17516e-05
53 *1883:A *527:51 0.000136743
54 *1887:B1 *1886:A 0.000119247
55 *1906:B1_N *527:45 5.24393e-05
56 *1913:A *527:76 7.22111e-05
57 *1913:A *527:89 0.00015954
58 *1929:A1 *527:18 4.21378e-05
59 *1945:A2 *527:76 4.75766e-05
60 *1978:A2 *527:18 0
61 *1979:B1 *527:8 1.5769e-05
62 *1979:C1 *527:8 0.000253936
63 *229:21 *1856:A1_N 0.000238362
64 *229:21 *527:109 9.45591e-05
65 *253:10 *527:109 7.44161e-06
66 *256:12 *527:45 0.000114092
67 *257:10 *527:45 0.000122417
68 *259:10 *527:51 5.20072e-05
69 *261:18 *1886:A 9.70259e-06
70 *280:16 *527:76 0.000118914
71 *289:14 *527:89 7.75329e-06
72 *291:8 *527:89 0.000129973
73 *306:27 *527:134 0
74 *307:10 *527:30 9.58714e-05
75 *308:10 *527:18 5.50049e-05
76 *309:16 *527:8 5.50106e-05
77 *309:16 *527:18 0.000140259
78 *309:16 *527:134 9.48381e-06
79 *323:14 *527:134 0
80 *365:10 *527:30 0
81 *388:10 *527:76 0
82 *388:10 *527:89 0
83 *490:27 *527:34 1.86869e-05
84 *490:27 *527:45 0.000173253
85 *490:27 *527:109 2.19436e-05
86 *519:131 *527:34 5.94125e-05
87 *519:131 *527:45 0.000161121
88 *525:112 *527:51 0.000107466
89 *525:112 *527:76 9.84794e-05
90 *526:31 *527:76 7.74714e-05
91 *526:58 *527:76 2.26406e-05
92 *526:58 *527:89 0
*RES
1 *2065:X *527:6 25.0507 
2 *527:6 *527:8 4.90929 
3 *527:8 *527:18 8.57571 
4 *527:18 *527:30 41.9729 
5 *527:30 *527:34 15.8493 
6 *527:34 *2024:A 48.6264 
7 *527:34 *527:45 11.0614 
8 *527:45 *527:51 27.5529 
9 *527:51 *1903:A 23 
10 *527:51 *527:76 36.7431 
11 *527:76 *1904:B2 38 
12 *527:76 *527:89 23.5136 
13 *527:89 *1886:A 26.9771 
14 *527:89 *1887:A1 23 
15 *527:45 *527:109 23.8243 
16 *527:109 *1857:C 23 
17 *527:109 *1856:A1_N 26.1952 
18 *527:18 *1926:A 23 
19 *527:8 *527:134 30.8493 
20 *527:134 *1978:B1 23 
21 *527:6 *1979:A1 23 
*END

*D_NET *528 0.00728567
*CONN
*I *1833:B I *D sky130_fd_sc_hd__and3_1
*I *1832:B2 I *D sky130_fd_sc_hd__a22o_1
*I *1836:B2 I *D sky130_fd_sc_hd__a32o_1
*I *1819:A2 I *D sky130_fd_sc_hd__o22a_1
*I *1825:A2 I *D sky130_fd_sc_hd__a32o_1
*I *1818:A2 I *D sky130_fd_sc_hd__a22oi_1
*I *2066:X O *D sky130_fd_sc_hd__dlymetal6s2s_1
*CAP
1 *1833:B 0
2 *1832:B2 0
3 *1836:B2 0
4 *1819:A2 6.19035e-05
5 *1825:A2 5.8003e-05
6 *1818:A2 1.13189e-05
7 *2066:X 7.72687e-05
8 *528:85 0.000175262
9 *528:49 0.000336056
10 *528:34 0.000882909
11 *528:32 0.000814647
12 *528:22 0.000319328
13 *528:14 0.000303125
14 *528:6 0.000395533
15 *528:6 *529:35 5.50049e-05
16 *528:6 *529:43 1.56762e-05
17 *528:14 *1832:B1 4.9662e-05
18 *528:14 *529:43 0.000248558
19 *528:22 *538:20 0.00010379
20 *528:22 *545:29 9.41704e-05
21 *528:32 *545:29 0.000135037
22 *528:32 *550:65 5.79427e-05
23 *528:34 *550:65 6.64964e-05
24 *528:34 *550:95 0.000292844
25 *528:49 *1819:A1 0.000203407
26 *528:49 *550:95 3.70094e-05
27 *528:85 *1830:A2 6.72184e-06
28 *528:85 *529:31 5.81577e-05
29 *528:85 *547:82 2.30292e-05
30 *528:85 *550:54 4.31296e-05
31 *1809:C *1818:A2 7.27694e-06
32 *1825:B2 *1825:A2 9.67842e-05
33 *1836:A2 *528:22 6.17437e-06
34 *1836:B1 *528:34 2.05503e-05
35 *188:22 *528:34 7.38091e-05
36 *188:28 *528:34 3.63658e-05
37 *192:86 *528:49 6.7177e-06
38 *198:10 *1819:A2 9.84851e-05
39 *198:10 *1825:A2 5.06451e-05
40 *198:10 *528:49 0
41 *199:26 *1825:A2 2.55176e-05
42 *199:26 *528:49 4.6318e-06
43 *199:51 *1819:A2 2.79662e-05
44 *209:12 *528:34 9.85955e-05
45 *242:8 *528:22 2.43944e-05
46 *492:67 *528:22 0.000214582
47 *492:67 *528:32 6.01083e-05
48 *493:63 *1825:A2 5.67058e-05
49 *525:81 *528:6 0.000181125
50 *525:81 *528:14 9.29018e-05
51 *526:92 *528:34 0.000976325
52 *526:92 *528:49 0.000101544
53 *526:94 *1825:A2 9.84794e-05
*RES
1 *2066:X *528:6 25.0507 
2 *528:6 *528:14 4.14286 
3 *528:14 *528:22 34.06 
4 *528:22 *528:32 47.4236 
5 *528:32 *528:34 15.9914 
6 *528:34 *1818:A2 38.1709 
7 *528:34 *528:49 19.2879 
8 *528:49 *1825:A2 25.5479 
9 *528:49 *1819:A2 24.9471 
10 *528:22 *1836:B2 23 
11 *528:14 *1832:B2 23 
12 *528:6 *528:85 32.8793 
13 *528:85 *1833:B 23 
*END

*D_NET *529 0.0222946
*CONN
*I *2065:A I *D sky130_fd_sc_hd__buf_2
*I *2066:A I *D sky130_fd_sc_hd__dlymetal6s2s_1
*I *1810:A I *D sky130_fd_sc_hd__or4_1
*I *1803:B I *D sky130_fd_sc_hd__nor2_1
*I *1793:B I *D sky130_fd_sc_hd__and2_1
*I *1795:C1 I *D sky130_fd_sc_hd__o211a_1
*I *2023:A1 I *D sky130_fd_sc_hd__a22o_1
*I *2067:X O *D sky130_fd_sc_hd__clkbuf_2
*CAP
1 *2065:A 0
2 *2066:A 0
3 *1810:A 0
4 *1803:B 0
5 *1793:B 0
6 *1795:C1 9.24556e-05
7 *2023:A1 0
8 *2067:X 0
9 *529:116 0.000168408
10 *529:88 0.000239668
11 *529:80 0.000587708
12 *529:63 0.00140237
13 *529:57 0.00121792
14 *529:51 0.000455097
15 *529:43 0.00138002
16 *529:35 0.00120638
17 *529:31 0.000973166
18 *529:22 0.000303047
19 *529:14 0.00251029
20 *529:4 0.00142789
21 *1795:C1 *544:32 0.000165034
22 *529:14 *535:43 0.000110897
23 *529:14 *538:49 9.24795e-06
24 *529:22 *2023:B1 0.000183733
25 *529:22 *535:43 8.99384e-05
26 *529:22 *540:33 6.38845e-05
27 *529:31 *1830:A2 0.000209157
28 *529:31 *1853:A1 0
29 *529:31 *547:88 0.000605241
30 *529:31 *550:43 0
31 *529:31 *550:54 0
32 *529:43 *1832:B1 0.000114595
33 *529:43 *538:20 0
34 *529:43 *545:29 4.94839e-05
35 *529:43 *552:116 2.76153e-05
36 *529:43 *554:75 0.00139915
37 *529:63 *544:32 5.72853e-05
38 *529:116 *555:14 9.74235e-05
39 *1732:B *529:88 4.21594e-06
40 *1792:S *529:88 0.000102361
41 *1796:A1 *529:88 3.98859e-05
42 *1796:B1 *529:80 6.80119e-05
43 *1796:B1 *529:88 1.51028e-05
44 *1803:A *529:80 0.000137651
45 *1809:C *529:51 1.32314e-05
46 *1810:C *529:51 3.64385e-05
47 *1855:B *529:31 7.95512e-05
48 *2024:A *529:14 0.000825441
49 *2024:A *529:22 0.000139346
50 *2063:A *529:14 0.000201109
51 *38:27 *529:31 0.000528149
52 *167:25 *529:88 0
53 *183:12 *529:43 0.000289297
54 *185:8 *529:57 8.41115e-05
55 *191:14 *529:57 0
56 *199:10 *529:57 1.26599e-05
57 *199:18 *529:63 7.59794e-05
58 *199:51 *529:43 0
59 *206:10 *529:43 0.000181125
60 *212:16 *1795:C1 3.14242e-05
61 *212:16 *529:63 1.26598e-05
62 *219:57 *1795:C1 6.07611e-06
63 *229:8 *529:31 4.08641e-05
64 *307:10 *529:14 0.000195889
65 *323:14 *529:116 0
66 *336:6 *529:63 0.000435849
67 *348:53 *529:43 1.79749e-05
68 *362:8 *529:116 2.11827e-05
69 *491:32 *529:57 4.91233e-05
70 *492:73 *529:22 0
71 *493:55 *529:63 0.000866801
72 *493:63 *529:57 0.000114074
73 *515:42 *529:88 8.33262e-05
74 *518:82 *529:51 0.00013961
75 *519:25 *529:31 4.979e-05
76 *521:39 *529:14 0.000267173
77 *521:89 *529:31 0.000182076
78 *524:78 *529:57 1.60633e-05
79 *525:12 *529:14 0.000391886
80 *525:16 *529:14 9.58714e-05
81 *525:37 *529:14 8.04119e-05
82 *525:39 *529:14 6.51763e-05
83 *525:59 *529:31 0
84 *526:111 *529:88 7.0662e-05
85 *526:138 *529:57 0.000141879
86 *527:6 *529:116 4.9662e-05
87 *527:8 *529:116 7.53384e-06
88 *527:30 *529:14 0.000503367
89 *528:6 *529:35 5.50049e-05
90 *528:6 *529:43 1.56762e-05
91 *528:14 *529:43 0.000248558
92 *528:85 *529:31 5.81577e-05
*RES
1 *2067:X *529:4 23 
2 *529:4 *529:14 30.9679 
3 *529:14 *529:22 36.235 
4 *529:22 *2023:A1 23 
5 *529:14 *529:31 38.0343 
6 *529:31 *529:35 15.6214 
7 *529:35 *529:43 41.825 
8 *529:43 *529:51 18.9979 
9 *529:51 *529:57 36.1314 
10 *529:57 *529:63 37.4336 
11 *529:63 *1795:C1 40.2579 
12 *529:63 *529:80 20.9968 
13 *529:80 *529:88 35.9554 
14 *529:88 *1793:B 23 
15 *529:80 *1803:B 23 
16 *529:51 *1810:A 23 
17 *529:35 *2066:A 23 
18 *529:4 *529:116 33.7079 
19 *529:116 *2065:A 23 
*END

*D_NET *530 0.00818688
*CONN
*I *1817:B I *D sky130_fd_sc_hd__or4b_4
*I *1595:A_N I *D sky130_fd_sc_hd__and3b_2
*I *1822:C I *D sky130_fd_sc_hd__and4b_2
*I *1820:B I *D sky130_fd_sc_hd__nor3_1
*I *1812:C1 I *D sky130_fd_sc_hd__o2111a_1
*I *1831:B_N I *D sky130_fd_sc_hd__and4bb_2
*I *1824:B_N I *D sky130_fd_sc_hd__and4bb_2
*I *1815:C_N I *D sky130_fd_sc_hd__or3b_4
*I *1813:D I *D sky130_fd_sc_hd__and4b_2
*I *1816:C I *D sky130_fd_sc_hd__or4b_4
*I *2068:X O *D sky130_fd_sc_hd__clkbuf_2
*CAP
1 *1817:B 0.00015263
2 *1595:A_N 0
3 *1822:C 0
4 *1820:B 0
5 *1812:C1 0
6 *1831:B_N 0.00011041
7 *1824:B_N 0.000365792
8 *1815:C_N 8.52997e-05
9 *1813:D 0
10 *1816:C 0.000508449
11 *2068:X 0
12 *530:100 0.000106889
13 *530:94 0.000377838
14 *530:66 0.000307065
15 *530:60 0.000216229
16 *530:43 0.000647664
17 *530:23 9.61627e-05
18 *530:19 0.000406077
19 *530:17 0.000354209
20 *530:6 0.000807787
21 *530:4 0.000196364
22 *1817:B *532:14 3.7122e-06
23 *1586:A *530:66 0.000232555
24 *1812:A2 *1831:B_N 5.3304e-05
25 *1812:B1 *1831:B_N 5.3304e-05
26 *1812:D1 *530:17 0
27 *1812:D1 *530:66 2.76611e-06
28 *1815:A *1815:C_N 0.00019201
29 *1815:A *530:23 5.50106e-05
30 *1816:D_N *1816:C 6.9805e-05
31 *1817:C *1817:B 9.5877e-05
32 *2068:A *1817:B 7.43025e-06
33 *5:13 *530:100 3.92407e-05
34 *187:10 *1831:B_N 3.88766e-05
35 *188:10 *1815:C_N 0.000141052
36 *189:10 *530:17 2.29617e-05
37 *189:14 *530:17 6.7177e-06
38 *189:14 *530:19 1.69668e-05
39 *189:14 *530:66 0
40 *192:20 *1824:B_N 0.000207432
41 *192:20 *530:43 6.86109e-05
42 *192:20 *530:66 0
43 *201:10 *1824:B_N 9.85586e-06
44 *205:10 *1831:B_N 0.000139352
45 *230:19 *530:19 0.000191157
46 *315:23 *1816:C 0.000270682
47 *315:23 *1817:B 4.17736e-05
48 *315:23 *530:6 8.34394e-05
49 *315:23 *530:94 0.000173898
50 *315:31 *530:100 8.62876e-05
51 *326:56 *530:100 1.22803e-05
52 *489:21 *530:17 4.92689e-05
53 *489:21 *530:100 0
54 *489:23 *530:17 0.000165014
55 *489:35 *1815:C_N 4.17736e-05
56 *489:35 *530:17 1.14452e-05
57 *489:35 *530:19 0.000285341
58 *489:35 *530:23 5.67058e-05
59 *489:45 *1824:B_N 2.46922e-05
60 *491:49 *530:66 9.33049e-05
61 *498:62 *1824:B_N 0
62 *498:62 *530:43 0
63 *500:35 *1831:B_N 0.000110047
64 *500:48 *1816:C 8.48502e-06
65 *500:85 *530:19 1.74959e-05
66 *501:20 *1824:B_N 0
67 *501:20 *530:43 0
68 *511:66 *1816:C 0.00026808
*RES
1 *2068:X *530:4 23 
2 *530:4 *530:6 1.09786 
3 *530:6 *1816:C 30.7679 
4 *530:6 *530:17 18.3143 
5 *530:17 *530:19 4.01857 
6 *530:19 *530:23 15.6214 
7 *530:23 *1813:D 23 
8 *530:23 *1815:C_N 26.0243 
9 *530:19 *530:43 8.65707 
10 *530:43 *1824:B_N 47.3216 
11 *530:43 *530:60 8.32107 
12 *530:60 *530:66 19.4121 
13 *530:66 *1831:B_N 26.0036 
14 *530:66 *1812:C1 23 
15 *530:60 *1820:B 38 
16 *530:17 *1822:C 38 
17 *530:4 *530:94 2.05071 
18 *530:94 *530:100 32.2579 
19 *530:100 *1595:A_N 23 
20 *530:94 *1817:B 25.0507 
*END

*D_NET *531 0.0222848
*CONN
*I *1762:B1 I *D sky130_fd_sc_hd__a21oi_1
*I *1596:C I *D sky130_fd_sc_hd__or4_4
*I *1778:C1 I *D sky130_fd_sc_hd__a221o_1
*I *1717:C1 I *D sky130_fd_sc_hd__a311oi_4
*I *1674:B I *D sky130_fd_sc_hd__or4_4
*I *1673:B I *D sky130_fd_sc_hd__nor4_1
*I *1784:C1 I *D sky130_fd_sc_hd__a211o_1
*I *1779:C1 I *D sky130_fd_sc_hd__a211o_1
*I *1755:B1 I *D sky130_fd_sc_hd__a21oi_4
*I *1763:A I *D sky130_fd_sc_hd__and3_1
*I *2069:X O *D sky130_fd_sc_hd__buf_6
*CAP
1 *1762:B1 0.000208857
2 *1596:C 0.000296946
3 *1778:C1 0
4 *1717:C1 0
5 *1674:B 0.000280003
6 *1673:B 0.000213114
7 *1784:C1 6.74134e-06
8 *1779:C1 1.28627e-05
9 *1755:B1 0
10 *1763:A 2.19548e-05
11 *2069:X 2.87314e-05
12 *531:122 0.00244697
13 *531:74 0.000574818
14 *531:72 0.000868821
15 *531:70 0.00114176
16 *531:49 0.000361382
17 *531:47 0.00294637
18 *531:31 0.000175765
19 *531:25 0.00120035
20 *531:21 0.00134916
21 *531:15 0.00131692
22 *531:6 5.06862e-05
23 *1596:C *534:122 9.8601e-05
24 *1596:C *538:12 1.70074e-05
25 *1596:C *540:10 9.24795e-06
26 *1673:B *1673:A 5.67058e-05
27 *1674:B *1674:C 2.08774e-05
28 *1674:B *1692:A1 6.06716e-05
29 *531:21 *565:73 0
30 *531:25 *565:12 1.30202e-06
31 *531:31 *565:12 8.79717e-05
32 *531:72 *539:62 0.000135547
33 *531:72 *542:63 0
34 *531:74 *539:62 1.14452e-05
35 *531:122 *542:63 4.73652e-05
36 *1716:A1 *1674:B 0.000224605
37 *1716:B1 *1673:B 5.30621e-05
38 *1734:A1 *531:122 3.97681e-05
39 *1734:A2 *531:122 1.40958e-05
40 *1734:B1 *531:122 0.000531178
41 *1735:B1 *531:122 6.60494e-05
42 *1754:B1 *531:31 0
43 *1755:A2 *1779:C1 4.3198e-05
44 *1755:A2 *531:31 0.000188927
45 *1761:A *531:72 0.000222104
46 *1761:C *531:72 0.0002078
47 *1763:B *1763:A 1.23293e-05
48 *1763:B *531:6 1.05235e-05
49 *1763:C *1763:A 5.56279e-05
50 *1763:C *531:6 4.08664e-05
51 *1778:A2 *531:70 0.000225464
52 *1778:B2 *531:70 3.44342e-05
53 *1778:B2 *531:72 1.01436e-05
54 *1784:A1 *1784:C1 3.34818e-06
55 *1784:A1 *531:70 0.000117512
56 *1924:B1 *531:122 4.5051e-05
57 *67:8 *1673:B 1.14452e-05
58 *67:8 *531:72 2.55642e-05
59 *67:8 *531:74 0.000154147
60 *67:19 *531:72 0.000133316
61 *67:32 *531:72 0.000694011
62 *97:10 *531:122 4.51431e-05
63 *100:8 *531:21 0.000149925
64 *100:21 *531:21 0
65 *100:21 *531:25 0.0003731
66 *126:15 *1779:C1 5.56356e-05
67 *126:15 *531:31 0.000186606
68 *136:14 *1784:C1 2.04499e-06
69 *136:14 *531:70 0.000373311
70 *136:14 *531:72 0.000179579
71 *137:14 *1762:B1 0
72 *139:10 *1762:B1 0
73 *140:10 *1762:B1 7.43791e-05
74 *151:27 *531:122 0.000219383
75 *158:16 *1784:C1 1.98874e-06
76 *159:18 *531:21 0.000490613
77 *173:24 *531:21 2.21614e-05
78 *176:8 *1762:B1 2.93845e-05
79 *205:91 *1596:C 0.000166956
80 *283:12 *531:72 0
81 *283:85 *531:72 0
82 *283:101 *531:21 0.000191276
83 *302:14 *1596:C 0.000591006
84 *302:14 *531:122 0.000105921
85 *471:26 *1673:B 0.000101329
86 *471:26 *531:74 2.5415e-05
87 *471:41 *531:74 1.94685e-05
88 *471:65 *531:21 0.000106463
89 *471:71 *1762:B1 0.000114437
90 *471:71 *531:21 0.00120492
91 *471:86 *1762:B1 1.69668e-05
92 *475:102 *531:122 0.000181125
93 *497:27 *531:21 1.09358e-05
94 *510:39 *531:70 2.04318e-05
95 *510:39 *531:72 7.37814e-06
96 *510:89 *531:21 0
97 *512:25 *531:72 3.95159e-06
*RES
1 *2069:X *531:6 23.6214 
2 *531:6 *1763:A 23.6214 
3 *531:6 *531:15 15 
4 *531:15 *531:21 41.0379 
5 *531:21 *531:25 20.2511 
6 *531:25 *531:31 19.4846 
7 *531:31 *1755:B1 23 
8 *531:31 *1779:C1 23.6214 
9 *531:25 *531:47 9.17227 
10 *531:47 *531:49 8 
11 *531:49 *1784:C1 38.2071 
12 *531:49 *531:70 22.6832 
13 *531:70 *531:72 19.5129 
14 *531:72 *531:74 2.25786 
15 *531:74 *1673:B 43.1164 
16 *531:74 *1674:B 41.9564 
17 *531:72 *1717:C1 38 
18 *531:70 *1778:C1 38 
19 *531:47 *531:122 49.5011 
20 *531:122 *1596:C 32.0211 
21 *531:15 *1762:B1 42.2879 
*END

*D_NET *532 0.0144757
*CONN
*I *2014:B I *D sky130_fd_sc_hd__xnor2_1
*I *2046:A2 I *D sky130_fd_sc_hd__a21oi_1
*I *2047:A2 I *D sky130_fd_sc_hd__o22a_1
*I *2048:A2 I *D sky130_fd_sc_hd__a32o_1
*I *2024:C I *D sky130_fd_sc_hd__nand4_1
*I *2023:A2 I *D sky130_fd_sc_hd__a22o_1
*I *2070:X O *D sky130_fd_sc_hd__clkbuf_2
*CAP
1 *2014:B 0
2 *2046:A2 3.7965e-05
3 *2047:A2 0.000348877
4 *2048:A2 0
5 *2024:C 0
6 *2023:A2 5.90745e-05
7 *2070:X 0.000115494
8 *532:24 0.000164004
9 *532:20 0.00152885
10 *532:18 0.00152952
11 *532:16 0.000602988
12 *532:14 0.000990695
13 *532:6 0.000919714
14 *2023:A2 *2023:B1 8.26178e-05
15 *2023:A2 *535:43 5.50106e-05
16 *532:20 *1880:B 6.16439e-05
17 *532:20 *545:33 0.000430766
18 *532:20 *545:37 2.71291e-05
19 *532:20 *545:54 0
20 *532:20 *547:96 0.000429621
21 *532:24 *535:43 0.000513881
22 *1817:A *532:14 0.000311554
23 *1817:B *532:14 3.7122e-06
24 *1866:A2 *532:20 8.78765e-06
25 *2023:B2 *2023:A2 0.000184527
26 *2023:B2 *532:24 5.67058e-05
27 *2068:A *532:14 0.000137651
28 *188:63 *2046:A2 0.000139357
29 *190:8 *532:14 8.99165e-05
30 *190:10 *532:14 9.3425e-05
31 *190:10 *532:16 4.6318e-06
32 *190:14 *532:16 0.000124062
33 *190:14 *532:18 6.60442e-05
34 *190:14 *532:20 0.000275696
35 *190:54 *2046:A2 0.000139357
36 *192:6 *532:14 2.32101e-05
37 *192:86 *532:14 0
38 *192:97 *532:6 0.000100488
39 *192:97 *532:14 0.000126847
40 *194:8 *532:14 0.000207837
41 *196:12 *532:14 0
42 *197:12 *532:14 0.000456496
43 *197:40 *532:18 2.11066e-05
44 *199:45 *532:14 9.33404e-05
45 *205:26 *532:14 4.43717e-05
46 *205:26 *532:16 2.24973e-05
47 *205:47 *532:20 0.000158414
48 *207:32 *532:20 0.000351036
49 *210:10 *532:20 3.5752e-05
50 *232:12 *532:20 0.000194327
51 *326:56 *532:14 0.000851651
52 *399:8 *532:6 5.67058e-05
53 *492:50 *532:16 0.000216721
54 *492:50 *532:18 0.000171253
55 *492:56 *532:18 1.05441e-05
56 *492:56 *532:20 0.000161817
57 *497:50 *2047:A2 0.000431545
58 *519:25 *532:20 6.7177e-06
59 *521:79 *532:20 0.000346225
60 *523:16 *532:20 0
61 *523:33 *532:20 0
62 *525:39 *532:24 8.52481e-05
63 *525:41 *532:24 0.000383457
64 *525:59 *532:20 0.000150077
65 *525:81 *532:20 0.000234698
*RES
1 *2070:X *532:6 26.0036 
2 *532:6 *532:14 36.9779 
3 *532:14 *532:16 3.66643 
4 *532:16 *532:18 2.61 
5 *532:18 *532:20 35.7114 
6 *532:20 *532:24 20.8621 
7 *532:24 *2023:A2 25.5479 
8 *532:24 *2024:C 23 
9 *532:18 *2048:A2 38 
10 *532:16 *2047:A2 42.9093 
11 *532:14 *2046:A2 39.5743 
12 *532:6 *2014:B 23 
*END

*D_NET *533 0.000918542
*CONN
*I *2067:A I *D sky130_fd_sc_hd__clkbuf_2
*I *2106:X O *D sky130_fd_sc_hd__clkbuf_1
*CAP
1 *2067:A 0.00028611
2 *2106:X 8.83236e-05
3 *533:8 0.000374434
4 *533:8 *544:18 0.000169674
*RES
1 *2106:X *533:8 40.2579 
2 *533:8 *2067:A 41.9564 
*END

*D_NET *534 0.0523393
*CONN
*I *1801:A1 I *D sky130_fd_sc_hd__a21oi_1
*I *1971:A I *D sky130_fd_sc_hd__xor2_1
*I *1978:C1 I *D sky130_fd_sc_hd__o211a_1
*I *1596:D I *D sky130_fd_sc_hd__or4_4
*I *1593:A I *D sky130_fd_sc_hd__inv_2
*I *1717:B1 I *D sky130_fd_sc_hd__a311oi_4
*I *1674:C I *D sky130_fd_sc_hd__or4_4
*I *1673:C I *D sky130_fd_sc_hd__nor4_1
*I *1739:A I *D sky130_fd_sc_hd__xnor2_1
*I *1764:A I *D sky130_fd_sc_hd__xor2_1
*I *2071:X O *D sky130_fd_sc_hd__buf_4
*CAP
1 *1801:A1 0.000138917
2 *1971:A 2.1093e-05
3 *1978:C1 0
4 *1596:D 0
5 *1593:A 7.88327e-05
6 *1717:B1 0
7 *1674:C 9.11413e-06
8 *1673:C 0.000190922
9 *1739:A 0.000190096
10 *1764:A 0.000134923
11 *2071:X 0
12 *534:155 0.000619296
13 *534:145 0.00310604
14 *534:139 0.00807983
15 *534:133 0.00607996
16 *534:122 0.000576428
17 *534:116 0.003031
18 *534:112 0.0025626
19 *534:74 0.000535664
20 *534:66 0.000482625
21 *534:60 0.000537049
22 *534:50 0.000766288
23 *534:48 0.00040543
24 *534:46 0.00071365
25 *534:27 0.00143238
26 *534:23 0.00136506
27 *534:15 0.00122304
28 *534:4 0.000152493
29 *1673:C *1673:A 0.000282782
30 *1673:C *536:24 1.12487e-05
31 *1674:C *1692:A1 2.08774e-05
32 *534:46 *565:33 0.000168891
33 *534:50 *565:33 0
34 *534:60 *1746:S 5.3304e-05
35 *534:60 *561:6 5.56356e-05
36 *534:60 *561:23 0.000230026
37 *534:74 *536:24 7.56417e-05
38 *534:74 *539:68 0.000264559
39 *534:116 *543:42 7.19269e-05
40 *534:116 *548:94 8.06804e-06
41 *534:122 *540:10 0.000269781
42 *534:122 *542:133 0
43 *534:122 *543:42 9.03784e-05
44 *534:122 *547:12 2.24973e-05
45 *534:145 *1893:A2 0.000191166
46 *534:145 *535:82 0
47 *534:145 *538:28 0.000164618
48 *534:145 *538:45 0
49 *534:145 *540:116 0.000188926
50 *534:145 *541:18 0.000183899
51 *534:145 *553:68 0
52 *534:145 *554:98 0
53 *534:145 *554:111 8.23276e-05
54 *534:145 *566:31 0.00041708
55 *534:155 *538:45 0.000188392
56 *534:155 *541:18 0.000320995
57 *534:155 *541:36 4.32331e-05
58 *1596:C *534:122 9.8601e-05
59 *1674:B *1674:C 2.08774e-05
60 *1693:C *534:74 4.21378e-05
61 *1717:A3 *534:66 6.99492e-05
62 *1729:A *534:116 4.06849e-05
63 *1739:B *1739:A 0.000328968
64 *1739:B *534:46 0.000817183
65 *1749:A *534:27 0.000185104
66 *1749:D *534:23 0.000419535
67 *1749:D *534:27 1.22412e-05
68 *1756:B *534:27 0
69 *1757:A1 *534:23 0.00014411
70 *1758:B *534:27 0.000280866
71 *1764:B *1764:A 0.000285494
72 *1764:B *534:15 1.14154e-05
73 *1764:B *534:133 1.56665e-05
74 *1766:A1 *534:23 5.24393e-05
75 *1767:A *534:23 9.98995e-05
76 *1771:B *534:23 0.000280856
77 *1800:A *534:133 0.000398503
78 *1890:A *534:145 5.01986e-05
79 *1894:B1 *534:122 0.000142505
80 *1927:B *534:155 7.57281e-06
81 *1929:A1 *534:155 9.67842e-05
82 *1930:C *534:155 6.38845e-05
83 *1963:B *534:145 0
84 *1971:B *534:145 0
85 *1978:A1 *534:155 0
86 *1978:A2 *534:155 4.00259e-06
87 *2100:A *534:23 5.48871e-05
88 *48:6 *1673:C 9.75779e-05
89 *64:24 *534:66 9.78729e-06
90 *64:24 *534:74 0.000604473
91 *68:8 *534:74 1.21972e-05
92 *69:16 *534:60 0.000169385
93 *70:12 *534:60 0.00021179
94 *83:14 *534:60 7.56417e-05
95 *95:10 *534:50 0
96 *95:10 *534:60 0
97 *95:23 *534:46 6.68793e-05
98 *103:10 *534:116 6.52495e-05
99 *104:10 *534:116 3.38825e-05
100 *112:10 *534:27 0.000166513
101 *112:19 *534:27 0.00026625
102 *112:30 *534:27 0.000157299
103 *114:8 *534:27 0
104 *119:12 *534:23 0.000209102
105 *128:12 *534:50 5.31444e-05
106 *128:12 *534:112 9.52677e-05
107 *132:10 *534:27 0.000589142
108 *135:10 *534:27 9.02869e-05
109 *135:18 *534:23 0.000703301
110 *135:18 *534:27 1.08037e-05
111 *137:14 *1801:A1 0
112 *139:10 *1801:A1 7.30978e-05
113 *143:12 *534:23 6.58373e-05
114 *175:10 *1801:A1 0.000169674
115 *192:97 *1971:A 2.93747e-05
116 *196:54 *534:145 0
117 *196:74 *534:145 0
118 *196:93 *534:145 0
119 *205:91 *534:122 0.000317618
120 *234:27 *534:145 0.000169683
121 *265:17 *534:145 0
122 *273:23 *534:116 0.00162189
123 *283:12 *1673:C 0.00026507
124 *283:12 *534:74 0.000151907
125 *296:10 *534:145 0
126 *299:10 *534:145 3.11674e-05
127 *300:10 *534:145 8.16253e-05
128 *304:8 *534:50 0.000159669
129 *306:8 *534:155 0
130 *306:12 *534:155 8.60475e-05
131 *306:27 *534:155 1.58805e-05
132 *306:36 *534:155 0.000130423
133 *307:10 *534:155 8.62783e-05
134 *309:16 *534:155 2.93845e-05
135 *326:18 *534:139 0.000147467
136 *326:37 *534:139 0.000133147
137 *339:10 *534:145 0.000161121
138 *343:23 *534:145 0
139 *345:10 *534:145 0
140 *347:10 *534:145 0
141 *380:27 *534:122 0
142 *402:10 *1971:A 2.93747e-05
143 *471:26 *1673:C 4.66047e-05
144 *497:12 *534:23 6.38395e-06
145 *497:87 *534:145 8.68903e-05
146 *498:12 *534:23 0.000300117
147 *501:20 *534:139 0.00405289
148 *501:35 *534:139 0.000106671
149 *512:25 *534:50 0
150 *518:54 *534:122 0
151 *520:29 *534:122 4.34552e-05
152 *521:10 *534:155 5.07871e-05
153 *523:8 *534:155 0
154 *526:58 *534:145 0
155 *527:18 *534:155 0.000138461
*RES
1 *2071:X *534:4 23 
2 *534:4 *1764:A 26.9771 
3 *534:4 *534:15 0.497143 
4 *534:15 *534:23 41.6904 
5 *534:23 *534:27 31.1675 
6 *534:27 *1739:A 27.4536 
7 *534:27 *534:46 44.5829 
8 *534:46 *534:48 15 
9 *534:48 *534:50 5.42714 
10 *534:50 *534:60 39.135 
11 *534:60 *534:66 17.5479 
12 *534:66 *534:74 24.57 
13 *534:74 *1673:C 43.7171 
14 *534:74 *1674:C 38.2434 
15 *534:66 *1717:B1 23 
16 *534:50 *1593:A 39.0979 
17 *534:48 *534:112 17.61 
18 *534:112 *534:116 48.9714 
19 *534:116 *534:122 27.4286 
20 *534:122 *1596:D 23 
21 *534:15 *534:133 20.5825 
22 *534:133 *534:139 30.3099 
23 *534:139 *534:145 49.7454 
24 *534:145 *534:155 31.7682 
25 *534:155 *1978:C1 23 
26 *534:139 *1971:A 38.6214 
27 *534:133 *1801:A1 41.4904 
*END

*D_NET *535 0.0187738
*CONN
*I *2007:A2 I *D sky130_fd_sc_hd__a21oi_1
*I *2009:A2 I *D sky130_fd_sc_hd__a32o_1
*I *2015:A1 I *D sky130_fd_sc_hd__a21o_1
*I *2008:A2 I *D sky130_fd_sc_hd__o22a_1
*I *2024:D I *D sky130_fd_sc_hd__nand4_1
*I *2023:B1 I *D sky130_fd_sc_hd__a22o_1
*I *1979:A2 I *D sky130_fd_sc_hd__a211oi_1
*I *2072:X O *D sky130_fd_sc_hd__clkbuf_2
*CAP
1 *2007:A2 3.61924e-05
2 *2009:A2 7.86222e-05
3 *2015:A1 0
4 *2008:A2 0
5 *2024:D 0
6 *2023:B1 0.000110816
7 *1979:A2 0
8 *2072:X 0
9 *535:82 0.000323612
10 *535:69 0.000710308
11 *535:65 0.00058915
12 *535:61 0.000170114
13 *535:43 0.000418673
14 *535:34 8.25231e-05
15 *535:28 0.00181578
16 *535:22 0.00298144
17 *535:16 0.00223462
18 *535:4 0.00130439
19 *2009:A2 *553:16 8.94487e-05
20 *535:16 *537:69 0
21 *535:16 *553:16 1.69668e-05
22 *535:16 *563:14 6.53856e-05
23 *535:16 *563:69 0.00033905
24 *535:22 *537:69 0
25 *535:22 *563:14 0.000473932
26 *535:22 *563:22 9.66514e-05
27 *535:28 *537:84 0.000223687
28 *535:28 *538:63 2.57449e-05
29 *535:34 *555:14 0.000110922
30 *535:65 *553:16 0.000156945
31 *535:69 *1957:A 0.000137651
32 *535:82 *1957:A 5.3304e-05
33 *535:82 *553:68 0.000223344
34 *1906:B1_N *535:22 2.96154e-05
35 *1930:C *535:28 4.5051e-05
36 *1970:B1 *535:82 0.000222113
37 *1980:A *535:28 5.50106e-05
38 *1980:B *535:28 5.50106e-05
39 *1984:B *535:28 9.74722e-05
40 *2009:B1 *535:69 9.76175e-05
41 *2023:A2 *2023:B1 8.26178e-05
42 *2023:A2 *535:43 5.50106e-05
43 *2023:B2 *2023:B1 3.22117e-05
44 *2024:A *535:43 0.000952349
45 *182:40 *535:16 0.000699315
46 *188:119 *535:69 5.73835e-06
47 *190:93 *2007:A2 8.264e-05
48 *190:93 *535:16 3.5082e-05
49 *190:93 *535:61 4.34745e-05
50 *234:10 *535:16 2.62753e-05
51 *234:10 *535:22 0.000100195
52 *236:10 *535:16 0.000110373
53 *238:10 *535:16 0.000212049
54 *256:12 *535:22 5.31444e-05
55 *258:8 *535:22 7.06377e-05
56 *305:12 *535:28 0.000310653
57 *305:25 *535:28 5.50049e-05
58 *309:8 *535:28 3.98818e-05
59 *310:10 *535:28 3.70071e-06
60 *338:8 *535:82 5.94125e-05
61 *363:10 *535:28 2.92911e-06
62 *366:10 *535:28 3.71198e-05
63 *367:6 *535:28 1.76557e-05
64 *394:8 *535:69 3.05808e-05
65 *397:14 *2007:A2 9.41704e-05
66 *397:14 *535:16 5.50106e-05
67 *397:14 *535:61 5.50049e-05
68 *490:27 *535:28 0
69 *490:48 *535:16 7.87711e-05
70 *492:20 *2009:A2 0
71 *492:20 *535:16 0
72 *492:20 *535:65 0
73 *497:68 *535:16 0.000206396
74 *499:31 *535:16 2.33476e-05
75 *507:12 *535:16 0
76 *519:131 *535:22 5.97612e-05
77 *519:131 *535:28 8.58484e-05
78 *524:25 *535:22 0.000139203
79 *525:39 *535:43 0.000370856
80 *525:92 *535:22 0
81 *525:92 *535:28 0
82 *527:45 *535:22 0.00011775
83 *529:14 *535:43 0.000110897
84 *529:22 *2023:B1 0.000183733
85 *529:22 *535:43 8.99384e-05
86 *532:24 *535:43 0.000513881
87 *534:145 *535:82 0
*RES
1 *2072:X *535:4 23 
2 *535:4 *535:16 43.3889 
3 *535:16 *535:22 22.2161 
4 *535:22 *535:28 39.7536 
5 *535:28 *535:34 31.5536 
6 *535:34 *1979:A2 23 
7 *535:22 *535:43 28.9614 
8 *535:43 *2023:B1 26.5214 
9 *535:43 *2024:D 23 
10 *535:4 *535:61 0.621429 
11 *535:61 *535:65 17.2579 
12 *535:65 *535:69 19.9093 
13 *535:69 *2008:A2 23 
14 *535:69 *535:82 37.4571 
15 *535:82 *2015:A1 23 
16 *535:65 *2009:A2 39.2014 
17 *535:61 *2007:A2 24.0979 
*END

*D_NET *536 0.0179697
*CONN
*I *1596:B I *D sky130_fd_sc_hd__or4_4
*I *1694:B1 I *D sky130_fd_sc_hd__a21o_1
*I *1693:A I *D sky130_fd_sc_hd__and3_1
*I *1674:A I *D sky130_fd_sc_hd__or4_4
*I *1673:A I *D sky130_fd_sc_hd__nor4_1
*I *2073:X O *D sky130_fd_sc_hd__buf_6
*CAP
1 *1596:B 0
2 *1694:B1 3.47624e-05
3 *1693:A 4.71679e-05
4 *1674:A 0
5 *1673:A 0.000281902
6 *2073:X 0.000225499
7 *536:70 0.000117202
8 *536:64 0.00185903
9 *536:24 0.000469932
10 *536:22 0.000396678
11 *536:20 0.00127579
12 *536:16 0.0037028
13 *536:14 0.00205703
14 *536:8 0.0014011
15 *1693:A *539:68 0.000140259
16 *536:16 *543:142 0.000244517
17 *536:22 *539:85 0
18 *536:24 *539:85 0
19 *536:64 *543:125 0.000556145
20 *536:64 *548:53 0.000308952
21 *536:64 *548:66 0.000178517
22 *536:70 *538:12 6.23346e-05
23 *1672:C *1673:A 8.62783e-05
24 *1673:B *1673:A 5.67058e-05
25 *1673:C *1673:A 0.000282782
26 *1673:C *536:24 1.12487e-05
27 *1694:A2 *1694:B1 9.67842e-05
28 *1768:A0 *536:8 2.8936e-05
29 *1768:A0 *536:14 1.40958e-05
30 *1768:A1 *536:14 9.84851e-05
31 *1768:S *536:14 0.000480242
32 *1789:A_N *536:14 0.000181794
33 *1805:D *536:16 0
34 *1839:A *536:16 0
35 *1846:A1 *536:64 5.3304e-05
36 *1846:B1 *536:64 3.22879e-05
37 *2112:A *1673:A 2.93845e-05
38 *43:12 *1673:A 7.93144e-05
39 *43:12 *536:24 1.14452e-05
40 *47:8 *1673:A 0.000138444
41 *48:6 *1673:A 2.18409e-05
42 *49:14 *1673:A 1.80023e-05
43 *49:42 *536:24 5.7618e-05
44 *51:20 *536:20 0
45 *52:10 *536:22 0
46 *52:23 *536:20 0
47 *54:10 *536:20 0
48 *61:22 *1694:B1 9.41704e-05
49 *65:10 *1693:A 9.84851e-05
50 *103:27 *536:20 0
51 *105:8 *536:20 0
52 *107:46 *536:20 2.05503e-05
53 *135:18 *536:8 0.000422604
54 *143:29 *536:8 6.08751e-05
55 *144:10 *536:8 9.20311e-06
56 *145:10 *536:8 7.03766e-05
57 *151:27 *536:20 0.00044237
58 *155:14 *536:16 0
59 *164:10 *536:14 1.14876e-05
60 *168:10 *536:16 0
61 *169:8 *536:16 0
62 *273:27 *536:16 0
63 *273:27 *536:20 0
64 *283:12 *536:20 1.12487e-05
65 *283:12 *536:22 2.41047e-05
66 *283:12 *536:24 1.34354e-05
67 *283:85 *536:16 0.000237501
68 *283:85 *536:20 0.000567685
69 *337:16 *536:70 0
70 *337:60 *536:70 0
71 *471:49 *536:20 0.000648824
72 *471:49 *536:22 2.24973e-05
73 *498:23 *536:16 0
74 *498:45 *536:16 0
75 *499:31 *536:8 0
76 *534:74 *536:24 7.56417e-05
*RES
1 *2073:X *536:8 44.1314 
2 *536:8 *536:14 49.2021 
3 *536:14 *536:16 17.0479 
4 *536:16 *536:20 25.7686 
5 *536:20 *536:22 2.25786 
6 *536:22 *536:24 3.31429 
7 *536:24 *1673:A 44.9186 
8 *536:24 *1674:A 38 
9 *536:22 *1693:A 39.5743 
10 *536:20 *1694:B1 39.0979 
11 *536:16 *536:64 45.6364 
12 *536:64 *536:70 31.9057 
13 *536:70 *1596:B 23 
*END

*D_NET *537 0.0144899
*CONN
*I *1964:A2 I *D sky130_fd_sc_hd__a21oi_1
*I *1965:A2 I *D sky130_fd_sc_hd__o22a_1
*I *1981:B I *D sky130_fd_sc_hd__nand2_1
*I *2022:B I *D sky130_fd_sc_hd__nand2_1
*I *2038:A2 I *D sky130_fd_sc_hd__a31o_1
*I *1966:A2 I *D sky130_fd_sc_hd__a32o_1
*I *1970:A1 I *D sky130_fd_sc_hd__a21o_1
*I *1957:A I *D sky130_fd_sc_hd__xnor2_1
*I *2074:X O *D sky130_fd_sc_hd__buf_2
*CAP
1 *1964:A2 0.000113031
2 *1965:A2 0
3 *1981:B 0
4 *2022:B 0.000337883
5 *2038:A2 4.10147e-05
6 *1966:A2 0.00022063
7 *1970:A1 0.000162161
8 *1957:A 0.000194798
9 *2074:X 8.18095e-05
10 *537:84 0.000451083
11 *537:69 0.00186761
12 *537:52 0.00218793
13 *537:46 0.000356889
14 *537:42 0.000600339
15 *537:12 0.000559971
16 *537:6 0.000669144
17 *1957:A *2008:A1 2.32004e-05
18 *1966:A2 *1919:A2 5.67058e-05
19 *1970:A1 *2008:A1 6.07826e-05
20 *1970:A1 *553:47 5.50106e-05
21 *537:42 *554:98 0
22 *537:42 *554:111 0
23 *537:52 *1919:A2 2.70047e-05
24 *537:69 *563:41 6.93125e-05
25 *1892:A1 *537:69 0.000165304
26 *1920:B1 *537:42 6.16439e-05
27 *1956:A1 *537:42 0
28 *1957:B *1957:A 0.000139352
29 *1964:A1 *1964:A2 9.30151e-05
30 *1964:A1 *537:46 6.53382e-05
31 *1964:A1 *537:52 5.61255e-06
32 *1965:B1 *1964:A2 5.3304e-05
33 *1965:B1 *537:46 1.24376e-05
34 *1966:A1 *1966:A2 5.3304e-05
35 *1966:B1 *1966:A2 1.24376e-05
36 *1969:A *1966:A2 2.02872e-05
37 *1969:C *1966:A2 9.41704e-05
38 *1981:A *537:84 5.54148e-05
39 *1984:B *537:84 9.41704e-05
40 *188:71 *537:42 0.000175612
41 *188:119 *1957:A 2.45549e-06
42 *190:67 *537:42 4.48731e-05
43 *191:90 *1970:A1 0.000185095
44 *191:90 *537:12 0.000238472
45 *191:90 *537:42 8.00768e-05
46 *196:54 *537:69 0
47 *199:103 *537:69 0
48 *205:38 *1966:A2 0.000106353
49 *253:10 *537:69 0
50 *259:10 *537:69 0.000113739
51 *287:10 *537:69 0.000407199
52 *338:8 *537:12 2.06022e-05
53 *338:8 *537:42 8.62783e-05
54 *346:10 *1964:A2 3.75171e-05
55 *346:10 *537:42 6.38845e-05
56 *346:10 *537:46 2.93845e-05
57 *347:10 *1964:A2 0.000139346
58 *364:10 *537:84 1.14762e-05
59 *367:14 *2038:A2 1.14452e-05
60 *393:10 *1970:A1 6.48142e-05
61 *393:10 *537:12 0.000108681
62 *397:14 *537:6 3.16784e-05
63 *397:14 *537:12 3.3577e-05
64 *417:8 *2022:B 0.000103637
65 *438:6 *1964:A2 1.76557e-05
66 *490:48 *1966:A2 0.000303724
67 *490:48 *537:52 4.99753e-06
68 *490:48 *537:69 9.48381e-06
69 *490:67 *537:42 0
70 *497:50 *537:52 9.67842e-05
71 *497:56 *537:52 6.20255e-05
72 *497:56 *537:69 7.03869e-05
73 *497:68 *537:69 9.15308e-05
74 *498:62 *537:12 2.04318e-05
75 *507:12 *537:52 8.62876e-05
76 *518:103 *537:52 4.45778e-05
77 *519:144 *537:69 0.000173355
78 *520:53 *537:69 0.000150977
79 *524:25 *537:69 0.000897907
80 *524:52 *537:69 0.000397191
81 *525:92 *2038:A2 5.94125e-05
82 *525:92 *537:69 0.000430248
83 *535:16 *537:69 0
84 *535:22 *537:69 0
85 *535:28 *537:84 0.000223687
86 *535:69 *1957:A 0.000137651
87 *535:82 *1957:A 5.3304e-05
*RES
1 *2074:X *537:6 24.0979 
2 *537:6 *537:12 19.4121 
3 *537:12 *1957:A 42.3293 
4 *537:12 *1970:A1 41.2314 
5 *537:6 *537:42 38.7414 
6 *537:42 *537:46 2.42357 
7 *537:46 *537:52 19.1843 
8 *537:52 *1966:A2 43.5307 
9 *537:52 *537:69 42.1121 
10 *537:69 *2038:A2 38.8493 
11 *537:69 *537:84 18.5007 
12 *537:84 *2022:B 29.3386 
13 *537:84 *1981:B 23 
14 *537:46 *1965:A2 23 
15 *537:42 *1964:A2 26.5007 
*END

*D_NET *538 0.0159086
*CONN
*I *1596:A I *D sky130_fd_sc_hd__or4_4
*I *1927:D I *D sky130_fd_sc_hd__and4_1
*I *1928:B1 I *D sky130_fd_sc_hd__a22oi_1
*I *1983:D I *D sky130_fd_sc_hd__and4_1
*I *1903:D I *D sky130_fd_sc_hd__and4_1
*I *2075:X O *D sky130_fd_sc_hd__buf_6
*CAP
1 *1596:A 2.52923e-05
2 *1927:D 0
3 *1928:B1 0
4 *1983:D 0
5 *1903:D 0.000117617
6 *2075:X 0
7 *538:63 0.000763193
8 *538:49 0.00106576
9 *538:45 0.000913146
10 *538:28 0.00104066
11 *538:24 0.00227343
12 *538:20 0.00283898
13 *538:12 0.00165332
14 *538:6 0.000750027
15 *1903:D *1904:A2 5.50106e-05
16 *1903:D *541:18 9.58714e-05
17 *538:12 *540:10 7.42621e-05
18 *538:12 *542:120 0
19 *538:12 *542:133 2.75733e-06
20 *538:12 *563:77 0.000158879
21 *538:20 *540:10 0.000180212
22 *538:20 *545:29 2.71531e-05
23 *538:20 *554:75 0
24 *538:24 *1833:A 9.84851e-05
25 *538:24 *540:116 1.84962e-05
26 *538:24 *547:82 0.000249083
27 *538:28 *541:10 3.62323e-05
28 *538:45 *541:10 3.47781e-05
29 *538:49 *1927:C 0.000139357
30 *538:49 *1928:A2 9.48995e-05
31 *1596:C *538:12 1.70074e-05
32 *1833:C *538:24 0.000121616
33 *1860:A *538:24 0.000226306
34 *1860:B *538:24 2.98648e-05
35 *1927:B *538:49 2.18409e-05
36 *2063:A *538:45 0
37 *2075:A *538:12 0
38 *182:24 *538:12 0
39 *191:59 *538:12 4.43717e-05
40 *199:65 *538:20 9.44092e-05
41 *207:6 *538:24 1.08955e-05
42 *207:10 *538:24 4.56219e-05
43 *211:22 *538:12 0.00011769
44 *234:10 *538:24 7.74139e-05
45 *261:14 *538:28 0
46 *279:23 *538:12 1.86973e-05
47 *302:14 *538:12 4.41393e-05
48 *302:14 *538:20 6.74344e-05
49 *337:60 *538:12 0
50 *345:12 *538:20 0.000168975
51 *366:10 *538:63 1.14452e-05
52 *454:44 *538:20 0.000219383
53 *492:67 *538:20 0.000144723
54 *492:73 *538:20 1.62015e-05
55 *520:44 *538:12 0
56 *521:10 *538:45 8.4047e-05
57 *521:31 *538:63 1.02561e-05
58 *521:39 *538:49 2.18409e-05
59 *521:39 *538:63 5.50106e-05
60 *524:12 *538:45 8.93663e-05
61 *524:56 *538:20 0.000352421
62 *524:64 *538:12 0
63 *524:64 *538:20 0.000175903
64 *525:12 *538:45 1.76557e-05
65 *525:16 *538:49 6.62892e-07
66 *525:28 *538:63 0.000102834
67 *525:37 *538:49 2.02517e-05
68 *525:92 *538:63 1.83142e-05
69 *525:112 *538:63 6.60136e-06
70 *526:19 *538:45 0
71 *526:31 *538:28 0
72 *526:31 *538:45 4.58473e-05
73 *526:58 *538:28 0
74 *527:30 *538:63 0.000148504
75 *528:22 *538:20 0.00010379
76 *529:14 *538:49 9.24795e-06
77 *529:43 *538:20 0
78 *534:145 *538:28 0.000164618
79 *534:145 *538:45 0
80 *534:155 *538:45 0.000188392
81 *535:28 *538:63 2.57449e-05
82 *536:70 *538:12 6.23346e-05
*RES
1 *2075:X *538:6 38 
2 *538:6 *538:12 31.1571 
3 *538:12 *538:20 35.5071 
4 *538:20 *538:24 41.3486 
5 *538:24 *538:28 21.8357 
6 *538:28 *1903:D 39.5743 
7 *538:28 *538:45 27.6564 
8 *538:45 *538:49 4.45357 
9 *538:49 *538:63 36.5193 
10 *538:63 *1983:D 38 
11 *538:49 *1928:B1 23 
12 *538:45 *1927:D 23 
13 *538:12 *1596:A 23.4971 
*END

*D_NET *539 0.0222234
*CONN
*I *1773:A I *D sky130_fd_sc_hd__or2_1
*I *1774:A I *D sky130_fd_sc_hd__nand2_1
*I *1744:A I *D sky130_fd_sc_hd__xor2_1
*I *1743:A I *D sky130_fd_sc_hd__and2_1
*I *2026:D_N I *D sky130_fd_sc_hd__or4b_1
*I *1669:B1 I *D sky130_fd_sc_hd__a21oi_1
*I *1672:A I *D sky130_fd_sc_hd__and3_1
*I *1690:A I *D sky130_fd_sc_hd__or2_1
*I *1691:A I *D sky130_fd_sc_hd__xnor2_1
*I *1750:A1 I *D sky130_fd_sc_hd__o22a_1
*I *2076:X O *D sky130_fd_sc_hd__buf_2
*CAP
1 *1773:A 1.74373e-05
2 *1774:A 4.56369e-05
3 *1744:A 0.000438923
4 *1743:A 0
5 *2026:D_N 0
6 *1669:B1 0
7 *1672:A 3.74906e-05
8 *1690:A 0
9 *1691:A 0
10 *1750:A1 2.51778e-05
11 *2076:X 0.000391032
12 *539:125 0.000777453
13 *539:110 5.7976e-05
14 *539:104 0.00123539
15 *539:85 0.000851131
16 *539:68 0.000567554
17 *539:62 0.00108608
18 *539:49 0.000826688
19 *539:37 0.00235641
20 *539:35 0.000865015
21 *539:22 0.00088319
22 *539:18 0.00118478
23 *539:16 0.000287801
24 *539:12 0.000495294
25 *1773:A *565:73 9.84851e-05
26 *539:12 *1770:A 7.51216e-05
27 *539:12 *565:73 9.58714e-05
28 *539:22 *559:10 0.000191157
29 *539:22 *565:73 0
30 *539:37 *561:36 0
31 *539:85 *546:119 0
32 *539:104 *1688:A1 1.21972e-05
33 *539:104 *2123:A 5.50049e-05
34 *539:125 *551:107 0.000155739
35 *1688:A2 *539:85 1.4345e-05
36 *1688:A2 *539:104 0.000117283
37 *1691:B *539:49 0.000142039
38 *1693:A *539:68 0.000140259
39 *1693:C *539:68 0.000124236
40 *1694:A2 *539:62 9.41704e-05
41 *1744:B *1744:A 0.000575091
42 *1745:A *539:49 0.000362923
43 *1751:B *539:22 0
44 *1768:S *1774:A 9.84851e-05
45 *1773:B *539:16 0
46 *2026:C *539:125 0.000180224
47 *2112:A *1672:A 1.94812e-05
48 *2112:A *539:104 3.91386e-05
49 *45:48 *539:125 0
50 *47:8 *539:85 0
51 *49:14 *539:85 0.000114083
52 *49:42 *539:85 0.000241355
53 *52:10 *539:85 0
54 *61:22 *539:62 0.000665244
55 *61:26 *539:37 0
56 *61:26 *539:49 0
57 *61:49 *539:49 0.000255636
58 *62:14 *539:110 0.000113153
59 *63:10 *539:110 0.000110922
60 *63:10 *539:125 8.06804e-06
61 *64:14 *539:85 5.50049e-05
62 *64:24 *539:68 0.0001074
63 *64:24 *539:85 7.73692e-05
64 *65:10 *539:68 2.02872e-05
65 *66:10 *539:49 9.84794e-05
66 *75:12 *539:37 0
67 *75:12 *539:49 0
68 *88:8 *539:49 0
69 *117:10 *539:37 0.000833007
70 *117:23 *1750:A1 5.50049e-05
71 *117:23 *539:35 0.000561209
72 *117:23 *539:37 1.14452e-05
73 *117:27 *539:18 9.92529e-07
74 *117:27 *539:22 0.000502959
75 *120:10 *539:37 0
76 *121:12 *539:35 0.000144455
77 *121:12 *539:37 0.000418639
78 *124:6 *539:35 2.02872e-05
79 *143:29 *539:12 1.60667e-05
80 *145:10 *539:12 5.87564e-06
81 *147:10 *539:18 0
82 *147:10 *539:22 0
83 *149:8 *539:16 3.21223e-05
84 *283:67 *539:125 0.000141954
85 *471:20 *539:104 0.000108418
86 *471:41 *539:62 6.08751e-05
87 *477:20 *539:104 9.41704e-05
88 *497:12 *539:12 5.50049e-05
89 *498:23 *1773:A 8.60475e-05
90 *498:23 *539:12 0.000428943
91 *499:31 *539:16 0.000155059
92 *499:31 *539:18 0.000259546
93 *510:76 *539:22 0.00086423
94 *513:23 *539:85 6.6869e-05
95 *531:72 *539:62 0.000135547
96 *531:74 *539:62 1.14452e-05
97 *534:74 *539:68 0.000264559
98 *536:22 *539:85 0
99 *536:24 *539:85 0
*RES
1 *2076:X *539:12 31.7829 
2 *539:12 *539:16 17.2579 
3 *539:16 *539:18 3.66643 
4 *539:18 *539:22 31.6957 
5 *539:22 *1750:A1 23.6214 
6 *539:22 *539:35 22.83 
7 *539:35 *539:37 17.7521 
8 *539:37 *539:49 29.6036 
9 *539:49 *1691:A 23 
10 *539:37 *539:62 43.485 
11 *539:62 *539:68 19.93 
12 *539:68 *1690:A 23 
13 *539:68 *539:85 38.3479 
14 *539:85 *1672:A 23.6214 
15 *539:85 *539:104 8.34786 
16 *539:104 *539:110 31.5536 
17 *539:110 *1669:B1 23 
18 *539:104 *539:125 43.5679 
19 *539:125 *2026:D_N 23 
20 *539:35 *1743:A 38 
21 *539:18 *1744:A 46.265 
22 *539:16 *1774:A 39.0979 
23 *539:12 *1773:A 24.0979 
*END

*D_NET *540 0.0243618
*CONN
*I *1597:A I *D sky130_fd_sc_hd__or2_4
*I *1893:A2 I *D sky130_fd_sc_hd__o22a_1
*I *1886:B I *D sky130_fd_sc_hd__and3_1
*I *1887:A2 I *D sky130_fd_sc_hd__a21oi_1
*I *1892:A2 I *D sky130_fd_sc_hd__a21oi_1
*I *1894:A2 I *D sky130_fd_sc_hd__a32o_1
*I *1641:A1 I *D sky130_fd_sc_hd__a21o_1
*I *2025:A2 I *D sky130_fd_sc_hd__a22o_1
*I *1640:A1 I *D sky130_fd_sc_hd__o21ba_4
*I *1605:C1 I *D sky130_fd_sc_hd__a211oi_2
*I *2077:X O *D sky130_fd_sc_hd__buf_2
*CAP
1 *1597:A 6.71548e-05
2 *1893:A2 7.40246e-05
3 *1886:B 0
4 *1887:A2 0.000140252
5 *1892:A2 0
6 *1894:A2 0
7 *1641:A1 0.000389545
8 *2025:A2 0
9 *1640:A1 0
10 *1605:C1 0
11 *2077:X 0.000508409
12 *540:116 0.000546349
13 *540:110 0.000762123
14 *540:97 0.00173818
15 *540:82 0.000553494
16 *540:70 0.00200967
17 *540:47 0.00111692
18 *540:33 0.00222303
19 *540:22 0.00120813
20 *540:18 0.000913992
21 *540:12 0.000450533
22 *540:10 0.000603663
23 *1641:A1 *1599:A2 1.24376e-05
24 *1893:A2 *566:31 0.000178782
25 *540:33 *542:139 0.000292755
26 *540:33 *550:32 0.000526324
27 *540:33 *554:58 0
28 *540:33 *554:75 0
29 *540:33 *563:26 0.00045369
30 *540:47 *554:58 0.000122257
31 *540:47 *563:26 1.14452e-05
32 *540:82 *1865:A2 1.40958e-05
33 *540:82 *546:142 0.000101842
34 *540:116 *566:31 0.000191157
35 *1596:C *540:10 9.24795e-06
36 *1599:A3 *540:18 2.29617e-05
37 *1628:A *540:47 9.67842e-05
38 *1640:B1_N *540:47 9.58714e-05
39 *1641:B1 *1641:A1 8.06804e-06
40 *1865:A3 *540:82 5.50106e-05
41 *1886:A *1887:A2 0.000228001
42 *1886:A *540:116 3.53115e-05
43 *1892:B1 *540:97 0.000137651
44 *1892:B1 *540:110 0.00014196
45 *1894:A3 *540:82 4.34745e-05
46 *1894:B1 *540:82 6.45182e-05
47 *1915:B *1887:A2 0.000207381
48 *2028:A1 *540:33 0
49 *2028:A1 *540:47 0
50 *196:35 *540:97 9.38792e-05
51 *196:54 *540:110 5.50049e-05
52 *197:63 *540:97 9.13368e-06
53 *199:65 *540:82 0.000535532
54 *199:65 *540:97 0.000351085
55 *202:62 *540:97 0.000393421
56 *205:62 *540:97 0.000311457
57 *205:64 *540:82 0.000355169
58 *205:64 *540:97 0.000446451
59 *234:16 *540:97 0.000139352
60 *234:16 *540:110 0.000289233
61 *234:27 *540:110 9.47033e-05
62 *268:10 *540:110 0.00010018
63 *272:18 *540:97 9.71145e-05
64 *337:16 *540:10 0.00012516
65 *337:16 *540:12 3.53031e-05
66 *337:16 *540:18 0.000221592
67 *348:10 *540:10 3.70187e-05
68 *348:10 *540:12 4.45839e-05
69 *348:10 *540:18 0.000328427
70 *348:32 *540:10 3.8776e-05
71 *369:10 *1641:A1 0.000103048
72 *369:48 *540:18 0.000214256
73 *409:8 *540:33 0
74 *413:18 *540:47 1.22803e-05
75 *434:51 *540:18 0
76 *454:44 *540:18 0.000371254
77 *454:44 *540:22 0.000135547
78 *460:14 *540:47 5.50106e-05
79 *460:27 *540:47 0.000139352
80 *492:73 *540:33 0
81 *497:68 *540:97 0.000379076
82 *517:33 *540:47 0.000609974
83 *517:47 *540:47 0.00025434
84 *518:54 *540:82 3.87221e-06
85 *519:88 *540:82 1.02561e-05
86 *519:105 *540:82 4.6318e-06
87 *524:25 *540:97 0.000188344
88 *524:52 *540:97 0.000188537
89 *524:64 *540:10 1.01436e-05
90 *524:107 *1597:A 9.41704e-05
91 *524:113 *540:82 0.000141954
92 *529:22 *540:33 6.38845e-05
93 *534:122 *540:10 0.000269781
94 *534:145 *1893:A2 0.000191166
95 *534:145 *540:116 0.000188926
96 *538:12 *540:10 7.42621e-05
97 *538:20 *540:10 0.000180212
98 *538:24 *540:116 1.84962e-05
*RES
1 *2077:X *540:10 46.7207 
2 *540:10 *540:12 0.673214 
3 *540:12 *540:18 9.89107 
4 *540:18 *540:22 16.9057 
5 *540:22 *1605:C1 23 
6 *540:22 *540:33 41.0793 
7 *540:33 *540:47 40.085 
8 *540:47 *1640:A1 23 
9 *540:33 *2025:A2 38 
10 *540:18 *1641:A1 42.4329 
11 *540:12 *540:70 8 
12 *540:70 *540:82 27.3376 
13 *540:82 *1894:A2 23 
14 *540:70 *540:97 33.9171 
15 *540:97 *1892:A2 23 
16 *540:97 *540:110 22.4571 
17 *540:110 *540:116 22.0429 
18 *540:116 *1887:A2 27.35 
19 *540:116 *1886:B 23 
20 *540:110 *1893:A2 40.61 
21 *540:10 *1597:A 39.0979 
*END

*D_NET *541 0.00699506
*CONN
*I *1904:A2 I *D sky130_fd_sc_hd__a22oi_1
*I *1903:C I *D sky130_fd_sc_hd__and4_1
*I *1927:C I *D sky130_fd_sc_hd__and4_1
*I *1928:A2 I *D sky130_fd_sc_hd__a22oi_1
*I *1982:A2 I *D sky130_fd_sc_hd__a22oi_1
*I *1983:C I *D sky130_fd_sc_hd__and4_1
*I *2078:X O *D sky130_fd_sc_hd__buf_1
*CAP
1 *1904:A2 0.000152567
2 *1903:C 0
3 *1927:C 3.88719e-05
4 *1928:A2 7.07375e-05
5 *1982:A2 0
6 *1983:C 0.000103301
7 *2078:X 0.000190379
8 *541:54 0.000109609
9 *541:36 0.00067838
10 *541:18 0.00107628
11 *541:12 0.000653767
12 *541:10 0.000190379
13 *1904:A2 *1904:B1 2.41268e-05
14 *1983:C *565:62 4.44904e-05
15 *541:10 *542:143 2.93845e-05
16 *541:18 *566:31 0.000831092
17 *541:36 *565:62 0.000119618
18 *541:36 *566:31 0.000317847
19 *1903:D *1904:A2 5.50106e-05
20 *1903:D *541:18 9.58714e-05
21 *1927:B *1927:C 5.50106e-05
22 *1930:C *541:36 0.000141897
23 *307:10 *541:36 7.48331e-05
24 *365:10 *541:36 5.3304e-05
25 *366:10 *1983:C 5.3304e-05
26 *521:47 *1983:C 0.000201775
27 *521:47 *541:36 0.000115347
28 *525:12 *1927:C 3.88766e-05
29 *525:12 *1928:A2 6.17437e-06
30 *525:16 *1928:A2 5.18881e-05
31 *525:112 *541:18 0.0002246
32 *526:31 *1904:A2 5.3304e-05
33 *526:31 *541:10 4.96264e-05
34 *526:45 *1904:A2 1.45248e-05
35 *526:45 *541:10 5.50106e-05
36 *527:18 *541:36 9.91701e-05
37 *527:76 *1904:A2 4.81031e-05
38 *527:76 *541:18 2.32101e-05
39 *534:145 *541:18 0.000183899
40 *534:155 *541:18 0.000320995
41 *534:155 *541:36 4.32331e-05
42 *538:28 *541:10 3.62323e-05
43 *538:45 *541:10 3.47781e-05
44 *538:49 *1927:C 0.000139357
45 *538:49 *1928:A2 9.48995e-05
*RES
1 *2078:X *541:10 41.1279 
2 *541:10 *541:12 15 
3 *541:12 *541:18 29.4171 
4 *541:18 *541:36 28.0966 
5 *541:36 *1983:C 26.0605 
6 *541:36 *1982:A2 23 
7 *541:18 *541:54 15 
8 *541:54 *1928:A2 24.6002 
9 *541:54 *1927:C 24.5743 
10 *541:12 *1903:C 23 
11 *541:12 *1904:A2 26.0605 
*END

*D_NET *542 0.030489
*CONN
*I *2078:A I *D sky130_fd_sc_hd__buf_1
*I *2077:A I *D sky130_fd_sc_hd__buf_2
*I *1870:A I *D sky130_fd_sc_hd__xnor2_1
*I *1645:A I *D sky130_fd_sc_hd__nor2_1
*I *1591:A I *D sky130_fd_sc_hd__inv_2
*I *1766:B2 I *D sky130_fd_sc_hd__o32a_1
*I *1750:B1 I *D sky130_fd_sc_hd__o22a_1
*I *1748:A I *D sky130_fd_sc_hd__xnor2_1
*I *2079:X O *D sky130_fd_sc_hd__clkbuf_4
*CAP
1 *2078:A 0
2 *2077:A 0
3 *1870:A 0
4 *1645:A 8.04756e-05
5 *1591:A 0.000119336
6 *1766:B2 0
7 *1750:B1 8.24215e-05
8 *1748:A 0
9 *2079:X 0
10 *542:143 0.000831711
11 *542:139 0.00221944
12 *542:133 0.00223763
13 *542:120 0.00173282
14 *542:109 0.0018821
15 *542:84 0.00129155
16 *542:63 0.00195738
17 *542:55 0.00291242
18 *542:42 8.7807e-05
19 *542:36 0.00146951
20 *542:21 0.00040496
21 *542:12 0.000185759
22 *542:4 0.00041287
23 *542:21 *1757:A2 9.58714e-05
24 *542:55 *1757:A2 1.21972e-05
25 *542:55 *558:8 0.000169923
26 *542:55 *559:10 2.64616e-05
27 *542:55 *565:8 5.94404e-06
28 *542:84 *546:119 0.00118229
29 *542:84 *565:52 0.000151291
30 *542:109 *1847:A 1.46594e-05
31 *542:109 *543:108 5.24457e-05
32 *542:109 *543:142 0.000135037
33 *542:133 *543:42 0
34 *542:133 *543:95 0
35 *542:133 *545:21 2.49592e-05
36 *542:133 *546:142 0.000192957
37 *542:139 *1605:A1 4.05745e-05
38 *542:139 *550:32 0.000138861
39 *542:139 *550:41 1.76557e-05
40 *1604:A1 *542:139 0.000178517
41 *1608:A2 *542:133 5.94125e-05
42 *1663:B *542:84 0.000152035
43 *1679:A *542:84 5.50049e-05
44 *1732:A *542:109 2.61526e-05
45 *1735:B1 *542:63 0.000140958
46 *1751:B *1750:B1 8.94394e-05
47 *1757:B1 *1750:B1 0.000101708
48 *1757:B1 *542:36 8.58741e-05
49 *1761:C *542:63 0.000145833
50 *1782:A *542:55 7.69167e-05
51 *1785:A *542:109 4.92689e-05
52 *1847:B *542:109 0.000139346
53 *1855:B *542:139 5.3304e-05
54 *1855:C *542:139 6.42727e-05
55 *1869:B1 *542:109 7.44257e-05
56 *1870:B *542:109 9.84851e-05
57 *45:68 *542:84 6.16531e-05
58 *52:10 *542:84 0.000114848
59 *52:23 *542:84 0.000137163
60 *53:10 *542:84 8.74165e-05
61 *54:10 *542:84 0.00010018
62 *61:8 *542:84 0.000190227
63 *97:10 *542:63 0.000709532
64 *97:10 *542:109 1.01436e-05
65 *97:21 *542:109 0.000157309
66 *100:64 *542:55 0.000355345
67 *104:10 *542:63 0.000363318
68 *107:6 *542:109 2.93747e-05
69 *107:74 *542:109 0.0002132
70 *109:12 *542:109 0.00103238
71 *110:14 *542:55 9.03964e-06
72 *119:12 *542:12 8.68575e-05
73 *121:29 *542:36 2.13834e-05
74 *121:29 *542:42 0.000138718
75 *123:14 *542:36 6.70363e-05
76 *123:14 *542:42 4.60263e-05
77 *130:14 *542:63 4.99753e-06
78 *132:10 *542:21 5.3304e-05
79 *135:10 *1750:B1 0.000191148
80 *135:10 *542:36 1.23172e-05
81 *135:18 *542:36 1.32832e-05
82 *135:18 *542:42 6.7177e-06
83 *155:14 *542:63 0.000376708
84 *155:14 *542:109 2.13834e-05
85 *157:8 *542:109 0.000163352
86 *159:18 *542:55 1.34995e-05
87 *205:91 *542:120 1.40087e-05
88 *205:91 *542:133 0
89 *221:8 *542:109 0.000351519
90 *233:10 *542:139 6.47464e-05
91 *237:21 *542:139 0.000191148
92 *241:39 *542:84 0.000585981
93 *253:10 *542:143 0.000251614
94 *283:8 *1591:A 0.000143655
95 *283:8 *542:84 8.52481e-05
96 *283:67 *1645:A 0.000183682
97 *283:85 *542:63 0.000118797
98 *369:14 *542:133 0.000181013
99 *380:27 *542:133 0.000269151
100 *391:12 *542:133 1.27424e-05
101 *391:16 *542:133 0
102 *412:12 *542:133 3.82852e-05
103 *423:38 *542:139 0.000136738
104 *454:44 *542:133 0
105 *471:49 *1591:A 2.18506e-05
106 *471:49 *542:84 2.02872e-05
107 *474:14 *542:133 0
108 *479:10 *1645:A 0.000178517
109 *490:27 *542:139 0.000192087
110 *496:10 *542:12 6.70363e-05
111 *515:33 *542:84 0.000277705
112 *520:44 *542:120 0
113 *527:109 *542:143 0.000182826
114 *531:72 *542:63 0
115 *531:122 *542:63 4.73652e-05
116 *534:122 *542:133 0
117 *538:12 *542:120 0
118 *538:12 *542:133 2.75733e-06
119 *540:33 *542:139 0.000292755
120 *541:10 *542:143 2.93845e-05
*RES
1 *2079:X *542:4 23 
2 *542:4 *542:12 34.4121 
3 *542:12 *1748:A 23 
4 *542:4 *542:21 18.48 
5 *542:21 *1750:B1 40.61 
6 *542:21 *542:36 17.175 
7 *542:36 *542:42 31.9057 
8 *542:42 *1766:B2 23 
9 *542:36 *542:55 32.3379 
10 *542:55 *542:63 32.4621 
11 *542:63 *1591:A 25.5479 
12 *542:63 *542:84 46.8379 
13 *542:84 *1645:A 40.5479 
14 *542:55 *542:109 41.1829 
15 *542:109 *1870:A 23 
16 *542:109 *542:120 29.0236 
17 *542:120 *2077:A 38 
18 *542:120 *542:133 30.6807 
19 *542:133 *542:139 40.6236 
20 *542:139 *542:143 30.8671 
21 *542:143 *2078:A 23 
*END

*D_NET *543 0.0211749
*CONN
*I *1869:A3 I *D sky130_fd_sc_hd__o31a_1
*I *1725:A I *D sky130_fd_sc_hd__and2_1
*I *1724:A I *D sky130_fd_sc_hd__nor2_1
*I *1847:A I *D sky130_fd_sc_hd__xnor2_1
*I *1597:B I *D sky130_fd_sc_hd__or2_4
*I *1605:A1 I *D sky130_fd_sc_hd__a211oi_2
*I *1618:A I *D sky130_fd_sc_hd__nor2_1
*I *1619:A I *D sky130_fd_sc_hd__or2_1
*I *1592:A I *D sky130_fd_sc_hd__inv_2
*I *1780:C1 I *D sky130_fd_sc_hd__o211a_1
*I *2080:X O *D sky130_fd_sc_hd__clkbuf_4
*CAP
1 *1869:A3 0
2 *1725:A 0
3 *1724:A 4.67873e-05
4 *1847:A 5.51646e-05
5 *1597:B 0
6 *1605:A1 5.75147e-05
7 *1618:A 0.000133736
8 *1619:A 0
9 *1592:A 0
10 *1780:C1 0
11 *2080:X 0
12 *543:142 0.000489366
13 *543:125 0.00113657
14 *543:108 0.000867147
15 *543:104 0.000583072
16 *543:95 0.000587517
17 *543:76 0.000727915
18 *543:63 0.000610317
19 *543:54 0.00047671
20 *543:42 0.00144016
21 *543:29 0.000745181
22 *543:23 0.00107064
23 *543:14 0.000673218
24 *543:4 0.00119692
25 *1605:A1 *550:32 0.000136738
26 *543:29 *548:94 0.000131189
27 *543:29 *551:126 8.47307e-05
28 *543:42 *547:12 0.000247678
29 *543:42 *548:94 0.000730662
30 *543:54 *552:38 0.000106132
31 *543:54 *552:46 0.000165583
32 *543:104 *548:66 0.000274553
33 *543:104 *551:126 0.000273073
34 *1599:A1 *1618:A 3.70094e-05
35 *1599:A1 *543:76 0.000209748
36 *1599:A1 *543:95 0.000181013
37 *1604:A1 *1605:A1 5.50049e-05
38 *1605:B1 *543:76 1.01436e-05
39 *1605:B1 *543:95 0.000234663
40 *1619:B *543:54 6.33511e-05
41 *1725:B *543:142 4.03039e-05
42 *1732:A *1847:A 1.24376e-05
43 *1776:B *543:23 5.3304e-05
44 *1778:A1 *543:14 4.95813e-05
45 *1778:A2 *543:14 0.000188173
46 *1783:B *543:142 5.3304e-05
47 *1847:B *1847:A 6.17437e-06
48 *1847:B *543:108 7.15126e-05
49 *1867:A2 *543:23 0.000475031
50 *1869:B1 *543:108 0.000139352
51 *2054:A *543:42 0
52 *97:25 *543:142 2.43944e-05
53 *103:27 *543:14 2.9938e-05
54 *109:8 *543:125 4.06408e-05
55 *109:12 *543:142 3.44001e-05
56 *153:10 *543:14 0.000678172
57 *156:8 *543:14 0.00026025
58 *219:25 *1847:A 5.3304e-05
59 *219:25 *543:29 0.000105563
60 *219:25 *543:104 0.000378315
61 *219:25 *543:108 0.000332159
62 *219:40 *543:125 3.47781e-05
63 *243:8 *543:23 6.17437e-06
64 *273:23 *543:42 0.000136697
65 *283:85 *543:142 0.000244517
66 *294:24 *543:14 0.000189855
67 *294:24 *543:23 0.0003347
68 *337:16 *543:95 6.72009e-05
69 *337:18 *543:95 1.68198e-05
70 *380:27 *543:42 0
71 *391:12 *543:95 3.34818e-06
72 *391:16 *543:95 0.000224862
73 *401:10 *543:42 6.6869e-05
74 *412:29 *543:95 0.000138718
75 *423:10 *543:42 0
76 *423:10 *543:54 0.000389687
77 *454:10 *1618:A 3.06908e-05
78 *454:44 *1618:A 7.00827e-05
79 *454:44 *543:76 0.000104051
80 *454:44 *543:95 6.67941e-05
81 *474:14 *543:42 0.00017093
82 *474:14 *543:54 0
83 *493:34 *543:104 1.34354e-05
84 *516:79 *1618:A 0.000189392
85 *516:108 *543:125 7.91493e-05
86 *518:54 *543:42 2.51506e-05
87 *523:39 *1618:A 5.50106e-05
88 *524:107 *543:95 5.50106e-05
89 *524:121 *543:29 0.000136738
90 *524:121 *543:42 0.000253028
91 *534:116 *543:42 7.19269e-05
92 *534:122 *543:42 9.03784e-05
93 *536:16 *543:142 0.000244517
94 *536:64 *543:125 0.000556145
95 *542:109 *1847:A 1.46594e-05
96 *542:109 *543:108 5.24457e-05
97 *542:109 *543:142 0.000135037
98 *542:133 *543:42 0
99 *542:133 *543:95 0
100 *542:139 *1605:A1 4.05745e-05
*RES
1 *2080:X *543:4 23 
2 *543:4 *543:14 44.21 
3 *543:14 *1780:C1 23 
4 *543:4 *543:23 26.1029 
5 *543:23 *543:29 19.5364 
6 *543:29 *1592:A 23 
7 *543:29 *543:42 46.8407 
8 *543:42 *543:54 40.585 
9 *543:54 *1619:A 23 
10 *543:42 *543:63 20.8621 
11 *543:63 *1618:A 41.5836 
12 *543:63 *543:76 2.96214 
13 *543:76 *1605:A1 39.5743 
14 *543:76 *543:95 27.8014 
15 *543:95 *1597:B 23 
16 *543:23 *543:104 26.0614 
17 *543:104 *543:108 5.40643 
18 *543:108 *1847:A 24.1186 
19 *543:108 *543:125 43.8371 
20 *543:125 *1724:A 23.6214 
21 *543:125 *543:142 39.1971 
22 *543:142 *1725:A 23 
23 *543:104 *1869:A3 23 
*END

*D_NET *544 0.0229414
*CONN
*I *2064:A I *D sky130_fd_sc_hd__buf_2
*I *1841:A I *D sky130_fd_sc_hd__xnor2_1
*I *1840:A I *D sky130_fd_sc_hd__nand2_1
*I *2107:X O *D sky130_fd_sc_hd__clkbuf_2
*CAP
1 *2064:A 0
2 *1841:A 0
3 *1840:A 1.56432e-05
4 *2107:X 0
5 *544:49 0.000411545
6 *544:34 0.000542921
7 *544:32 0.00196147
8 *544:30 0.00276832
9 *544:26 0.00273337
10 *544:18 0.00288312
11 *544:6 0.00107233
12 *544:18 *555:14 0.000400198
13 *544:32 *551:107 0.000166522
14 *544:32 *551:120 0.000437954
15 *1622:B1 *544:26 2.93747e-05
16 *1638:B1 *544:26 0.000389783
17 *1663:A *544:32 0.000194318
18 *1668:A *544:30 0.000141318
19 *1685:B *544:32 8.51329e-05
20 *1795:C1 *544:32 0.000165034
21 *1838:B *544:32 9.27917e-05
22 *1843:B1 *1840:A 5.67058e-05
23 *1844:A1 *544:49 0
24 *1846:B1 *544:32 9.53499e-05
25 *2060:A *544:18 9.61128e-05
26 *2106:A *544:18 6.37358e-05
27 *2107:A *544:18 7.95085e-05
28 *43:6 *544:30 0.000117923
29 *45:48 *544:32 0
30 *107:74 *544:32 0
31 *181:8 *544:49 0.000159348
32 *191:24 *544:32 0.000241091
33 *192:45 *544:49 8.83346e-05
34 *212:16 *544:32 0
35 *212:16 *544:49 0.000192077
36 *214:10 *1840:A 1.94812e-05
37 *219:57 *544:32 8.93697e-05
38 *220:8 *544:32 0.000163352
39 *221:12 *544:32 0
40 *224:33 *544:49 0
41 *226:8 *544:49 1.92797e-05
42 *287:10 *544:26 0.000226295
43 *326:18 *544:49 0.000357631
44 *386:12 *544:18 0
45 *388:8 *544:18 5.70419e-05
46 *430:8 *544:18 0
47 *431:10 *544:18 0.000427052
48 *443:20 *544:26 8.10184e-05
49 *443:33 *544:26 3.71251e-05
50 *471:6 *544:30 0.00017976
51 *471:10 *544:30 1.32697e-05
52 *493:23 *544:32 0.000384065
53 *493:34 *544:32 1.37761e-05
54 *493:55 *544:32 3.71048e-05
55 *501:8 *544:49 2.2539e-05
56 *501:20 *544:49 4.87865e-05
57 *501:35 *544:49 0.000639308
58 *516:23 *544:32 1.52259e-05
59 *516:38 *544:32 0.000407218
60 *516:40 *544:32 6.48142e-05
61 *516:42 *544:32 0.000192096
62 *516:108 *544:32 0.000593827
63 *519:29 *544:26 0.00023181
64 *519:50 *544:26 0.000816709
65 *519:125 *544:26 7.39944e-05
66 *523:16 *544:18 6.53382e-05
67 *523:16 *544:26 0.00098391
68 *523:52 *544:32 1.37349e-05
69 *524:6 *544:18 0.000226306
70 *524:25 *544:26 0.000531884
71 *529:63 *544:32 5.72853e-05
72 *533:8 *544:18 0.000169674
*RES
1 *2107:X *544:6 38 
2 *544:6 *544:18 41.4729 
3 *544:18 *544:26 43.0857 
4 *544:26 *544:30 27.5321 
5 *544:30 *544:32 49.7971 
6 *544:32 *544:34 1.57429 
7 *544:34 *1840:A 38.6214 
8 *544:34 *544:49 27.8325 
9 *544:49 *1841:A 23 
10 *544:18 *2064:A 23 
*END

*D_NET *545 0.0133721
*CONN
*I *1864:A2 I *D sky130_fd_sc_hd__o22a_1
*I *1857:B I *D sky130_fd_sc_hd__and4b_1
*I *1878:B I *D sky130_fd_sc_hd__nand2_1
*I *1862:B I *D sky130_fd_sc_hd__nand2_1
*I *1856:A2_N I *D sky130_fd_sc_hd__o2bb2a_1
*I *1865:A2 I *D sky130_fd_sc_hd__a32o_1
*I *2081:X O *D sky130_fd_sc_hd__clkbuf_2
*CAP
1 *1864:A2 0.000252146
2 *1857:B 0
3 *1878:B 0
4 *1862:B 0
5 *1856:A2_N 0.000244661
6 *1865:A2 0.000598433
7 *2081:X 0
8 *545:67 0.000229817
9 *545:54 0.000279237
10 *545:46 0.000655915
11 *545:37 0.000455146
12 *545:33 0.000668612
13 *545:29 0.00143273
14 *545:21 0.00140319
15 *545:4 0.00142602
16 *545:21 *546:142 8.21123e-05
17 *1836:A2 *545:29 5.27226e-05
18 *1836:A3 *545:29 2.31756e-05
19 *1836:B1 *545:29 1.19077e-05
20 *1856:A1_N *1856:A2_N 2.11891e-05
21 *1857:D *1856:A2_N 0.000210892
22 *1862:A *545:54 5.67058e-05
23 *1865:A3 *1865:A2 5.99389e-05
24 *1866:A2 *545:33 5.64492e-05
25 *1894:A3 *1865:A2 2.93845e-05
26 *1894:B1 *1865:A2 1.69977e-05
27 *1909:A *545:54 6.16531e-05
28 *188:28 *1864:A2 0.00050346
29 *188:28 *545:29 0.000351727
30 *188:47 *1864:A2 0.000140259
31 *190:27 *545:33 0
32 *199:65 *1865:A2 0.000117217
33 *205:91 *545:21 6.32047e-05
34 *210:10 *545:29 9.65021e-05
35 *233:10 *545:33 6.33614e-05
36 *235:8 *545:33 0
37 *237:21 *545:33 0
38 *237:21 *545:37 0
39 *237:21 *545:54 0.000500632
40 *242:8 *545:29 6.88299e-05
41 *256:12 *545:54 5.50049e-05
42 *490:27 *545:33 0
43 *490:27 *545:67 6.79006e-05
44 *520:18 *545:21 0.000937608
45 *523:16 *545:54 1.62015e-05
46 *523:33 *545:54 0.000104536
47 *524:107 *1865:A2 4.57742e-05
48 *524:113 *1865:A2 2.77692e-05
49 *526:62 *1864:A2 0.000434165
50 *527:109 *1856:A2_N 5.50049e-05
51 *527:109 *545:46 0.000227208
52 *527:109 *545:67 0.000363867
53 *528:22 *545:29 9.41704e-05
54 *528:32 *545:29 0.000135037
55 *529:43 *545:29 4.94839e-05
56 *532:20 *545:33 0.000430766
57 *532:20 *545:37 2.71291e-05
58 *532:20 *545:54 0
59 *538:20 *545:29 2.71531e-05
60 *540:82 *1865:A2 1.40958e-05
61 *542:133 *545:21 2.49592e-05
*RES
1 *2081:X *545:4 23 
2 *545:4 *1865:A2 30.7886 
3 *545:4 *545:21 42.5321 
4 *545:21 *545:29 41.7036 
5 *545:29 *545:33 27.1179 
6 *545:33 *545:37 15.8493 
7 *545:37 *1856:A2_N 26.48 
8 *545:37 *545:46 2.52714 
9 *545:46 *545:54 38.1614 
10 *545:54 *1862:B 23 
11 *545:46 *545:67 34.4329 
12 *545:67 *1878:B 23 
13 *545:33 *1857:B 38 
14 *545:29 *1864:A2 30.2914 
*END

*D_NET *546 0.0280369
*CONN
*I *2081:A I *D sky130_fd_sc_hd__clkbuf_2
*I *2080:A I *D sky130_fd_sc_hd__clkbuf_4
*I *1710:A I *D sky130_fd_sc_hd__and3_1
*I *1709:B1 I *D sky130_fd_sc_hd__a21oi_1
*I *2032:B I *D sky130_fd_sc_hd__nand2_1
*I *1932:A2 I *D sky130_fd_sc_hd__a31oi_2
*I *1933:B I *D sky130_fd_sc_hd__nand2_1
*I *1986:B I *D sky130_fd_sc_hd__nand2_1
*I *1652:A I *D sky130_fd_sc_hd__nand2_1
*I *2082:X O *D sky130_fd_sc_hd__buf_2
*CAP
1 *2081:A 0
2 *2080:A 0.000296224
3 *1710:A 5.19243e-05
4 *1709:B1 0.000344628
5 *2032:B 0
6 *1932:A2 0.000276239
7 *1933:B 0
8 *1986:B 0
9 *1652:A 0.000118106
10 *2082:X 0
11 *546:142 0.00150159
12 *546:121 0.00179781
13 *546:119 0.00138975
14 *546:81 0.0014706
15 *546:73 0.00310891
16 *546:44 0.000844742
17 *546:35 0.00209167
18 *546:27 0.00152316
19 *546:25 0.0015494
20 *546:10 0.0017434
21 *546:6 0.000721003
22 *1932:A2 *1934:B 0
23 *546:25 *549:23 0
24 *546:25 *551:49 0
25 *546:25 *552:46 0.000236939
26 *546:25 *552:56 8.16356e-05
27 *546:35 *2032:A 0.000204933
28 *546:35 *552:56 5.14746e-06
29 *546:35 *554:135 6.52495e-05
30 *546:44 *1934:B 0
31 *546:73 *556:10 4.96264e-05
32 *546:119 *1692:A1 4.85126e-05
33 *546:119 *548:18 0
34 *546:119 *556:10 0.000210454
35 *546:119 *565:52 0.000643918
36 *1650:A0 *546:25 0.000272101
37 *1663:B *546:119 6.97747e-05
38 *1664:B *546:73 0.000139639
39 *1670:A1 *546:73 0.000187996
40 *1671:A3 *546:73 0.000187996
41 *1696:A *546:73 0
42 *1696:B *1652:A 5.38612e-05
43 *1867:A2 *546:119 0
44 *1894:B1 *546:142 0.000121324
45 *1932:A3 *1932:A2 5.50049e-05
46 *2035:A *546:35 0.000187129
47 *2036:A *546:35 0.00023032
48 *41:8 *546:73 7.03766e-05
49 *41:19 *546:73 1.12487e-05
50 *42:8 *546:73 0
51 *52:10 *546:119 2.24608e-05
52 *58:10 *546:119 2.96909e-05
53 *60:16 *546:119 0
54 *61:8 *546:119 0.000187057
55 *64:10 *546:119 0.000168313
56 *74:8 *1709:B1 0.000100061
57 *74:46 *1709:B1 2.24366e-06
58 *81:25 *1709:B1 6.78755e-06
59 *82:18 *546:81 3.54728e-05
60 *82:24 *1710:A 5.56279e-05
61 *82:37 *1709:B1 0.00017336
62 *83:14 *546:81 8.50457e-05
63 *96:8 *546:119 8.62783e-05
64 *103:43 *546:119 4.73689e-05
65 *105:8 *2080:A 4.67998e-05
66 *106:23 *546:119 4.51431e-05
67 *107:46 *2080:A 8.55142e-05
68 *107:46 *546:142 2.60267e-05
69 *205:64 *546:142 0.000138509
70 *205:91 *546:142 1.4317e-05
71 *241:39 *546:73 7.09173e-05
72 *241:39 *546:119 2.24048e-05
73 *272:18 *546:142 0.000538498
74 *283:26 *1709:B1 0.000100061
75 *283:26 *546:81 8.04127e-05
76 *283:67 *546:81 0.000153769
77 *312:10 *546:44 0
78 *326:86 *546:142 0
79 *375:8 *546:35 1.86869e-05
80 *375:8 *546:44 0.000146245
81 *417:12 *1932:A2 0
82 *417:12 *546:35 0
83 *417:12 *546:44 0
84 *421:8 *546:25 0
85 *424:10 *546:35 4.12995e-05
86 *471:20 *546:119 0.00021356
87 *479:10 *546:73 7.39034e-05
88 *479:10 *546:119 6.48142e-05
89 *479:12 *546:73 7.48331e-05
90 *483:8 *1652:A 9.84851e-05
91 *483:8 *546:25 0.000649515
92 *484:10 *546:73 1.02561e-05
93 *484:35 *1709:B1 0
94 *484:35 *546:73 3.33791e-05
95 *485:10 *1652:A 1.32314e-05
96 *485:25 *546:73 0.000216721
97 *493:10 *546:10 0
98 *493:10 *546:73 0
99 *495:12 *546:10 5.56306e-05
100 *495:12 *546:73 2.95125e-05
101 *510:12 *2080:A 0
102 *512:51 *546:119 0
103 *515:33 *546:119 0.000148963
104 *515:42 *546:119 0.000121626
105 *518:31 *546:44 0
106 *519:12 *1932:A2 6.79006e-05
107 *519:25 *1932:A2 0.000114656
108 *539:85 *546:119 0
109 *540:82 *546:142 0.000101842
110 *542:84 *546:119 0.00118229
111 *542:133 *546:142 0.000192957
112 *545:21 *546:142 8.21123e-05
*RES
1 *2082:X *546:6 38 
2 *546:6 *546:10 16.5536 
3 *546:10 *1652:A 25.5479 
4 *546:10 *546:25 44.9321 
5 *546:25 *546:27 15 
6 *546:27 *546:35 39.5464 
7 *546:35 *1986:B 38 
8 *546:35 *546:44 11.4136 
9 *546:44 *1933:B 38 
10 *546:44 *1932:A2 44.0486 
11 *546:27 *2032:B 23 
12 *546:6 *546:73 15.4736 
13 *546:73 *546:81 45.4425 
14 *546:81 *1709:B1 44.9289 
15 *546:81 *1710:A 38.9425 
16 *546:73 *546:119 48.8247 
17 *546:119 *546:121 8 
18 *546:121 *2080:A 47.3303 
19 *546:121 *546:142 29.6202 
20 *546:142 *2081:A 23 
*END

*D_NET *547 0.0144948
*CONN
*I *1830:A2 I *D sky130_fd_sc_hd__o22a_1
*I *1828:B I *D sky130_fd_sc_hd__and2_1
*I *1881:A2 I *D sky130_fd_sc_hd__a21oi_1
*I *1880:B I *D sky130_fd_sc_hd__and3_1
*I *1599:A2 I *D sky130_fd_sc_hd__o41ai_4
*I *1807:B I *D sky130_fd_sc_hd__or3_1
*I *1598:B1 I *D sky130_fd_sc_hd__a2111oi_1
*I *1601:A1 I *D sky130_fd_sc_hd__a211o_1
*I *1603:A I *D sky130_fd_sc_hd__or2_1
*I *1602:A I *D sky130_fd_sc_hd__nor2_1
*I *2083:X O *D sky130_fd_sc_hd__buf_2
*CAP
1 *1830:A2 0.000492697
2 *1828:B 0
3 *1881:A2 7.27192e-05
4 *1880:B 2.21796e-05
5 *1599:A2 0.000175654
6 *1807:B 0.000145603
7 *1598:B1 0
8 *1601:A1 5.98297e-05
9 *1603:A 0
10 *1602:A 6.93096e-05
11 *2083:X 0
12 *547:96 0.000336697
13 *547:88 0.00054214
14 *547:82 0.00122422
15 *547:65 0.000841079
16 *547:45 0.000581276
17 *547:37 0.000940778
18 *547:26 0.000570669
19 *547:12 0.000396104
20 *547:4 0.000566767
21 *1601:A1 *1832:B1 1.21972e-05
22 *1830:A2 *550:54 0
23 *1830:A2 *550:65 0
24 *547:12 *1832:B1 7.9567e-06
25 *547:12 *548:94 0.000182832
26 *547:26 *1832:B1 2.03764e-06
27 *547:37 *1832:B1 7.44161e-06
28 *547:65 *1832:B1 5.89166e-05
29 *547:65 *554:75 0.000154366
30 *547:82 *1833:A 9.84851e-05
31 *1599:A4 *547:82 1.40958e-05
32 *1599:B1 *547:82 0.000140259
33 *1601:C1 *1601:A1 1.75562e-05
34 *1601:C1 *547:37 0.000137651
35 *1607:B1 *547:37 2.93747e-05
36 *1641:A1 *1599:A2 1.24376e-05
37 *1833:C *547:82 8.07498e-05
38 *1853:B1 *547:88 1.24376e-05
39 *1862:A *1881:A2 6.24278e-05
40 *1878:A *547:96 5.3304e-05
41 *38:34 *1881:A2 2.12126e-06
42 *38:46 *1881:A2 9.2946e-05
43 *182:16 *1807:B 4.37586e-06
44 *182:16 *547:45 1.56662e-06
45 *188:28 *1830:A2 0.000128492
46 *202:21 *547:88 0.00044967
47 *202:32 *547:88 9.85378e-05
48 *202:43 *1830:A2 0.00055717
49 *202:43 *547:88 2.46345e-05
50 *207:6 *547:82 3.7122e-06
51 *256:12 *1881:A2 3.17805e-05
52 *326:78 *1807:B 0.000137651
53 *326:78 *547:45 5.33851e-05
54 *326:86 *547:45 1.05984e-05
55 *337:60 *547:45 3.7122e-06
56 *348:10 *547:45 0.000172508
57 *348:32 *547:45 0.000303616
58 *369:6 *1599:A2 0.00011639
59 *369:6 *547:82 2.93845e-05
60 *369:10 *1599:A2 2.93845e-05
61 *380:12 *1602:A 5.50049e-05
62 *380:27 *1602:A 9.84851e-05
63 *380:27 *547:12 6.17437e-06
64 *380:27 *547:26 0.000114846
65 *412:29 *1601:A1 1.24376e-05
66 *412:29 *547:37 2.06822e-05
67 *434:51 *547:45 0.000531976
68 *434:51 *547:65 0.000317247
69 *518:54 *547:12 0.000148412
70 *520:18 *1830:A2 0.000223692
71 *521:83 *1881:A2 9.41704e-05
72 *523:33 *547:88 4.95081e-05
73 *523:33 *547:96 9.58714e-05
74 *525:59 *1880:B 6.38845e-05
75 *525:59 *547:88 2.76611e-06
76 *525:59 *547:96 0.000420397
77 *525:81 *547:88 1.06693e-05
78 *528:85 *1830:A2 6.72184e-06
79 *528:85 *547:82 2.30292e-05
80 *529:31 *1830:A2 0.000209157
81 *529:31 *547:88 0.000605241
82 *532:20 *1880:B 6.16439e-05
83 *532:20 *547:96 0.000429621
84 *534:122 *547:12 2.24973e-05
85 *538:24 *547:82 0.000249083
86 *543:42 *547:12 0.000247678
*RES
1 *2083:X *547:4 23 
2 *547:4 *547:12 37.0221 
3 *547:12 *1602:A 24.5743 
4 *547:12 *1603:A 23 
5 *547:4 *547:26 3.48 
6 *547:26 *1601:A1 24.4707 
7 *547:26 *547:37 3.48 
8 *547:37 *547:45 40.2743 
9 *547:45 *1598:B1 23 
10 *547:45 *1807:B 25.0507 
11 *547:37 *547:65 35.4686 
12 *547:65 *1599:A2 26.5007 
13 *547:65 *547:82 24.8393 
14 *547:82 *547:88 24.3421 
15 *547:88 *547:96 22.3743 
16 *547:96 *1880:B 38.8493 
17 *547:96 *1881:A2 40.3925 
18 *547:88 *1828:B 23 
19 *547:82 *1830:A2 48.4193 
*END

*D_NET *548 0.0144826
*CONN
*I *2083:A I *D sky130_fd_sc_hd__buf_2
*I *1832:B1 I *D sky130_fd_sc_hd__a22o_1
*I *1590:A I *D sky130_fd_sc_hd__inv_2
*I *1869:A2 I *D sky130_fd_sc_hd__o31a_1
*I *1846:A2 I *D sky130_fd_sc_hd__o21a_1
*I *1731:A I *D sky130_fd_sc_hd__xnor2_2
*I *1681:B1 I *D sky130_fd_sc_hd__a21o_1
*I *1682:A I *D sky130_fd_sc_hd__and3_1
*I *2084:X O *D sky130_fd_sc_hd__buf_2
*CAP
1 *2083:A 0
2 *1832:B1 0.0011419
3 *1590:A 0.000426988
4 *1869:A2 0
5 *1846:A2 0
6 *1731:A 0.00013237
7 *1681:B1 0
8 *1682:A 0.000292203
9 *2084:X 0.000121913
10 *548:94 0.00174281
11 *548:73 0.0010279
12 *548:66 0.000221169
13 *548:53 0.000737732
14 *548:38 0.000964451
15 *548:18 0.000782869
16 *548:10 0.00110316
17 *548:6 0.000418893
18 *1590:A *1585:A 5.7137e-05
19 *1590:A *2086:A 2.18409e-05
20 *1590:A *550:6 4.96717e-05
21 *1590:A *550:21 1.56665e-05
22 *1590:A *550:32 2.69066e-05
23 *1590:A *551:120 2.93845e-05
24 *1590:A *551:126 0.000219873
25 *548:18 *565:52 0
26 *548:66 *551:126 0.000277705
27 *548:94 *551:126 0.00021039
28 *1601:A1 *1832:B1 1.21972e-05
29 *1601:C1 *1832:B1 1.73928e-05
30 *1604:A1 *1590:A 0
31 *1607:B1 *1832:B1 4.07131e-05
32 *1663:A *1682:A 0
33 *1681:A1 *1682:A 8.16356e-05
34 *1683:B *548:18 0
35 *1685:A *548:10 5.3304e-05
36 *1727:B *548:10 6.17437e-06
37 *1776:B *548:38 0
38 *1867:A2 *548:38 0.000194309
39 *50:31 *1682:A 6.34418e-05
40 *51:8 *1682:A 5.6652e-05
41 *58:10 *548:18 0
42 *60:16 *548:18 7.32496e-05
43 *101:8 *548:18 8.25099e-05
44 *102:10 *548:10 5.50106e-05
45 *102:10 *548:38 0.000163352
46 *103:43 *548:38 0
47 *106:36 *1731:A 3.22879e-05
48 *106:36 *548:53 0
49 *107:10 *548:53 0
50 *107:12 *548:53 0
51 *107:23 *548:53 0
52 *109:8 *548:53 2.79004e-05
53 *219:10 *1590:A 8.91738e-05
54 *219:25 *1590:A 2.64506e-05
55 *219:25 *548:94 4.88351e-05
56 *294:39 *548:94 0.00018282
57 *380:27 *1832:B1 8.10857e-05
58 *412:29 *1832:B1 6.70361e-05
59 *440:14 *1832:B1 5.50049e-05
60 *475:102 *1590:A 2.60152e-05
61 *493:23 *1590:A 0
62 *512:51 *548:18 1.01436e-05
63 *512:51 *548:38 7.86584e-05
64 *516:6 *548:10 0.000308045
65 *516:23 *548:18 3.17261e-05
66 *516:38 *548:18 0
67 *516:40 *1682:A 0
68 *516:40 *548:18 0
69 *516:42 *1682:A 0
70 *516:108 *548:18 4.99753e-06
71 *516:108 *548:38 0.000214225
72 *516:108 *548:53 0.000164926
73 *518:50 *1590:A 5.50106e-05
74 *523:52 *548:18 0
75 *528:14 *1832:B1 4.9662e-05
76 *529:43 *1832:B1 0.000114595
77 *534:116 *548:94 8.06804e-06
78 *536:64 *548:53 0.000308952
79 *536:64 *548:66 0.000178517
80 *543:29 *548:94 0.000131189
81 *543:42 *548:94 0.000730662
82 *543:104 *548:66 0.000274553
83 *546:119 *548:18 0
84 *547:12 *1832:B1 7.9567e-06
85 *547:12 *548:94 0.000182832
86 *547:26 *1832:B1 2.03764e-06
87 *547:37 *1832:B1 7.44161e-06
88 *547:65 *1832:B1 5.89166e-05
*RES
1 *2084:X *548:6 24.5743 
2 *548:6 *548:10 20.3857 
3 *548:10 *548:18 10.3364 
4 *548:18 *1682:A 43.7171 
5 *548:18 *1681:B1 38 
6 *548:10 *548:38 8.24429 
7 *548:38 *1731:A 40.5271 
8 *548:38 *548:53 23.2029 
9 *548:53 *1846:A2 23 
10 *548:53 *548:66 35.7171 
11 *548:66 *1869:A2 23 
12 *548:6 *548:73 15 
13 *548:73 *1590:A 47.5493 
14 *548:73 *548:94 29.0857 
15 *548:94 *1832:B1 40.6279 
16 *548:94 *2083:A 23 
*END

*D_NET *549 0.0123207
*CONN
*I *1907:B I *D sky130_fd_sc_hd__and3_1
*I *1934:B I *D sky130_fd_sc_hd__and3_1
*I *1879:B I *D sky130_fd_sc_hd__nand2_1
*I *1935:A2 I *D sky130_fd_sc_hd__a21oi_1
*I *1989:B1 I *D sky130_fd_sc_hd__a22oi_1
*I *1988:B I *D sky130_fd_sc_hd__and3_1
*I *1634:A3 I *D sky130_fd_sc_hd__a31o_1
*I *1633:B1 I *D sky130_fd_sc_hd__a21o_1
*I *1660:C1 I *D sky130_fd_sc_hd__o211ai_2
*I *1987:B I *D sky130_fd_sc_hd__nand2_1
*I *2085:X O *D sky130_fd_sc_hd__buf_2
*CAP
1 *1907:B 0.000379539
2 *1934:B 0.000216288
3 *1879:B 3.15879e-05
4 *1935:A2 9.08871e-05
5 *1989:B1 0.000109049
6 *1988:B 0
7 *1634:A3 0
8 *1633:B1 7.47851e-05
9 *1660:C1 0
10 *1987:B 0
11 *2085:X 0
12 *549:118 0.000640578
13 *549:107 0.000627668
14 *549:92 0.000774414
15 *549:81 0.000351716
16 *549:72 0.000850733
17 *549:44 0.000135094
18 *549:35 0.000812223
19 *549:23 0.00117854
20 *549:19 0.00124733
21 *549:12 0.000276092
22 *549:4 0.000477147
23 *1989:B1 *1988:A 6.4393e-05
24 *549:12 *552:46 0.000134585
25 *549:12 *552:56 6.07611e-06
26 *549:23 *551:41 0
27 *549:23 *551:49 0
28 *549:23 *552:46 0
29 *549:35 *552:46 0
30 *549:107 *1653:A 4.5051e-05
31 *549:107 *554:36 0
32 *549:107 *554:58 0
33 *1634:A1 *1633:B1 5.55032e-05
34 *1634:A2 *1633:B1 9.04257e-05
35 *1636:C1 *549:35 0.000200193
36 *1642:A1 *549:35 9.84794e-05
37 *1642:A2 *549:35 9.00923e-05
38 *1653:B *1879:B 3.91386e-05
39 *1653:B *549:107 0.00014196
40 *1655:B *549:107 5.12254e-05
41 *1657:C1 *549:35 6.08751e-05
42 *1660:A2 *549:35 2.64616e-05
43 *1932:A2 *1934:B 0
44 *1990:A *549:72 3.71251e-05
45 *1990:A *549:81 4.75206e-05
46 *2085:A *549:12 4.14058e-05
47 *38:27 *1907:B 3.08952e-05
48 *255:10 *549:107 5.14746e-06
49 *255:10 *549:118 5.26733e-06
50 *285:14 *1907:B 0.000228288
51 *372:12 *549:72 1.91479e-05
52 *373:21 *1989:B1 1.37246e-05
53 *439:20 *549:35 1.47563e-05
54 *448:22 *1989:B1 3.39231e-05
55 *448:22 *549:92 0.000118004
56 *448:22 *549:107 7.75329e-06
57 *448:33 *1935:A2 0.000182832
58 *453:14 *549:35 0.000135547
59 *463:8 *549:35 6.33614e-05
60 *463:27 *1633:B1 0.00011172
61 *463:27 *549:23 0
62 *463:27 *549:35 0
63 *464:14 *1633:B1 0.000122967
64 *466:10 *549:35 1.62615e-05
65 *467:10 *549:35 0
66 *469:6 *549:35 3.97138e-05
67 *475:8 *549:35 0.000520415
68 *486:8 *549:107 8.48502e-06
69 *486:36 *1907:B 6.00827e-05
70 *488:8 *549:35 9.67842e-05
71 *492:73 *1989:B1 0.000219882
72 *492:73 *549:92 0.000243928
73 *492:73 *549:107 0.000183179
74 *517:58 *1907:B 0
75 *517:62 *1934:B 0
76 *518:31 *1934:B 4.6318e-06
77 *519:12 *1907:B 3.3123e-05
78 *519:12 *1934:B 4.08537e-05
79 *519:25 *1907:B 0.000255857
80 *546:25 *549:23 0
81 *546:44 *1934:B 0
*RES
1 *2085:X *549:4 23 
2 *549:4 *549:12 35.2407 
3 *549:12 *1987:B 23 
4 *549:4 *549:19 2.52714 
5 *549:19 *549:23 19.7229 
6 *549:23 *549:35 32.3171 
7 *549:35 *1660:C1 23 
8 *549:23 *549:44 15.6214 
9 *549:44 *1633:B1 26.7648 
10 *549:44 *1634:A3 23 
11 *549:19 *549:72 9.67357 
12 *549:72 *1988:B 23 
13 *549:72 *549:81 16.5743 
14 *549:81 *1989:B1 41.3143 
15 *549:81 *549:92 4.72286 
16 *549:92 *1935:A2 40.0507 
17 *549:92 *549:107 24.5079 
18 *549:107 *1879:B 23.8493 
19 *549:107 *549:118 15.6214 
20 *549:118 *1934:B 42.0186 
21 *549:118 *1907:B 46.7829 
*END

*D_NET *550 0.0134917
*CONN
*I *1853:A1 I *D sky130_fd_sc_hd__a21o_1
*I *1819:A1 I *D sky130_fd_sc_hd__o22a_1
*I *1818:A1 I *D sky130_fd_sc_hd__a22oi_1
*I *1807:A I *D sky130_fd_sc_hd__or3_1
*I *1598:A1 I *D sky130_fd_sc_hd__a2111oi_1
*I *1832:A1 I *D sky130_fd_sc_hd__a22o_1
*I *1833:A I *D sky130_fd_sc_hd__and3_1
*I *1855:A I *D sky130_fd_sc_hd__and3_1
*I *1585:A I *D sky130_fd_sc_hd__inv_2
*I *1600:B I *D sky130_fd_sc_hd__and2b_1
*I *2086:X O *D sky130_fd_sc_hd__clkbuf_4
*CAP
1 *1853:A1 0.000310638
2 *1819:A1 9.43106e-05
3 *1818:A1 6.04725e-05
4 *1807:A 0
5 *1598:A1 8.90243e-05
6 *1832:A1 0
7 *1833:A 2.01521e-05
8 *1855:A 0
9 *1585:A 3.3051e-05
10 *1600:B 0
11 *2086:X 4.34165e-05
12 *550:95 0.00053029
13 *550:67 0.000212399
14 *550:65 0.000993235
15 *550:54 0.000701561
16 *550:43 0.00033399
17 *550:41 0.000447224
18 *550:32 0.00102916
19 *550:21 0.00105087
20 *550:14 0.000124955
21 *550:6 0.000186988
22 *1589:A *550:67 5.3304e-05
23 *1590:A *1585:A 5.7137e-05
24 *1590:A *550:6 4.96717e-05
25 *1590:A *550:21 1.56665e-05
26 *1590:A *550:32 2.69066e-05
27 *1598:A2 *1598:A1 6.91178e-05
28 *1598:A2 *550:67 9.45591e-05
29 *1604:A1 *550:32 0.000150819
30 *1604:B1_N *550:32 0.000267167
31 *1605:A1 *550:32 0.000136738
32 *1809:C *1818:A1 1.97597e-05
33 *1818:B1 *1818:A1 2.23935e-05
34 *1830:A2 *550:54 0
35 *1830:A2 *550:65 0
36 *1836:B1 *550:65 9.77007e-05
37 *1853:B1 *1853:A1 9.84851e-05
38 *1855:B *1853:A1 0.000293785
39 *50:35 *550:14 0.000219873
40 *182:16 *1598:A1 2.43233e-05
41 *182:40 *550:67 8.48502e-06
42 *188:22 *1819:A1 1.01436e-05
43 *188:22 *550:95 0.000648978
44 *192:86 *1819:A1 0.000103009
45 *202:62 *550:65 0.000152214
46 *206:10 *550:54 0.000107676
47 *206:10 *550:65 0.000124873
48 *211:10 *550:65 0.000133316
49 *219:10 *550:6 9.41704e-05
50 *219:10 *550:21 5.3304e-05
51 *219:10 *550:32 1.24376e-05
52 *227:8 *1853:A1 0.000141879
53 *273:8 *550:32 5.12254e-05
54 *294:39 *550:14 0.000222104
55 *326:78 *1598:A1 0.000141725
56 *326:78 *550:67 0.000379137
57 *326:78 *550:95 0.00016778
58 *348:53 *1598:A1 5.50106e-05
59 *348:53 *550:67 5.50049e-05
60 *434:8 *550:32 0.000268074
61 *492:56 *550:67 8.17328e-05
62 *492:56 *550:95 0.000178517
63 *492:67 *550:54 7.90671e-05
64 *492:67 *550:65 0.00012903
65 *492:73 *1853:A1 8.65932e-05
66 *492:73 *550:43 6.4393e-05
67 *492:73 *550:54 1.12487e-05
68 *518:50 *550:32 2.07791e-05
69 *523:33 *1853:A1 1.32939e-05
70 *526:92 *550:65 0.000356723
71 *528:32 *550:65 5.79427e-05
72 *528:34 *550:65 6.64964e-05
73 *528:34 *550:95 0.000292844
74 *528:49 *1819:A1 0.000203407
75 *528:49 *550:95 3.70094e-05
76 *528:85 *550:54 4.31296e-05
77 *529:31 *1853:A1 0
78 *529:31 *550:43 0
79 *529:31 *550:54 0
80 *538:24 *1833:A 9.84851e-05
81 *540:33 *550:32 0.000526324
82 *542:139 *550:32 0.000138861
83 *542:139 *550:41 1.76557e-05
84 *547:82 *1833:A 9.84851e-05
*RES
1 *2086:X *550:6 24.0979 
2 *550:6 *550:14 33.5836 
3 *550:14 *1600:B 23 
4 *550:6 *550:21 0.621429 
5 *550:21 *1585:A 24.0771 
6 *550:21 *550:32 20.6314 
7 *550:32 *1855:A 23 
8 *550:32 *550:41 15.6214 
9 *550:41 *550:43 1.90571 
10 *550:43 *1833:A 39.0979 
11 *550:43 *550:54 4.01857 
12 *550:54 *1832:A1 38 
13 *550:54 *550:65 25.7093 
14 *550:65 *550:67 4.43286 
15 *550:67 *1598:A1 26.1486 
16 *550:67 *1807:A 23 
17 *550:65 *550:95 25.9993 
18 *550:95 *1818:A1 39.1186 
19 *550:95 *1819:A1 40.9621 
20 *550:41 *1853:A1 45.6229 
*END

*D_NET *551 0.0205562
*CONN
*I *2086:A I *D sky130_fd_sc_hd__clkbuf_4
*I *1869:A1 I *D sky130_fd_sc_hd__o31a_1
*I *1662:A I *D sky130_fd_sc_hd__nor2_1
*I *1653:A I *D sky130_fd_sc_hd__nand2_1
*I *1612:A I *D sky130_fd_sc_hd__or2_1
*I *1614:A I *D sky130_fd_sc_hd__nor2_1
*I *1615:A I *D sky130_fd_sc_hd__and2_1
*I *1989:A1 I *D sky130_fd_sc_hd__a22oi_1
*I *2033:A I *D sky130_fd_sc_hd__nand2_1
*I *1664:A I *D sky130_fd_sc_hd__nand2_1
*I *2087:X O *D sky130_fd_sc_hd__buf_4
*CAP
1 *2086:A 2.10134e-05
2 *1869:A1 0
3 *1662:A 0
4 *1653:A 5.95032e-05
5 *1612:A 0
6 *1614:A 4.29051e-05
7 *1615:A 0
8 *1989:A1 0.000305697
9 *2033:A 7.08178e-05
10 *1664:A 0
11 *2087:X 0.000153738
12 *551:126 0.000550375
13 *551:120 0.00102345
14 *551:107 0.00116101
15 *551:89 0.000523659
16 *551:74 0.000852847
17 *551:49 0.000703033
18 *551:41 0.000678741
19 *551:37 0.00117306
20 *551:33 0.0014969
21 *551:25 0.00201998
22 *551:14 0.000236366
23 *551:6 0.00067929
24 *1614:A *1629:B1 4.00259e-06
25 *1989:A1 *1989:A2 1.46586e-05
26 *551:33 *552:46 0.000248994
27 *551:41 *554:23 0
28 *551:41 *554:36 0
29 *551:49 *554:23 0
30 *551:74 *1629:B1 3.22879e-05
31 *551:74 *554:40 2.93747e-05
32 *1590:A *2086:A 2.18409e-05
33 *1590:A *551:120 2.93845e-05
34 *1590:A *551:126 0.000219873
35 *1629:A2 *1614:A 0
36 *1629:A2 *551:74 0.00010018
37 *1630:B *551:74 2.25419e-05
38 *1630:C *551:41 0
39 *1653:B *1653:A 5.50106e-05
40 *1655:B *1653:A 1.14154e-05
41 *1657:B1 *551:33 0.000137788
42 *1658:B1 *551:33 0.000161605
43 *2031:A1 *1989:A1 7.00619e-05
44 *2031:A2 *1989:A1 3.53115e-05
45 *2033:B *1989:A1 0.000158723
46 *2033:B *2033:A 2.01081e-05
47 *2034:A *2033:A 0
48 *2034:B *2033:A 3.22879e-05
49 *31:6 *551:33 0.000182981
50 *33:6 *551:33 5.85822e-06
51 *34:6 *551:14 0.000151601
52 *35:6 *551:6 5.10686e-05
53 *45:48 *551:107 0
54 *219:10 *2086:A 5.3304e-05
55 *219:10 *551:120 0.00018282
56 *243:14 *551:126 0.00023335
57 *251:14 *551:25 0.000160182
58 *251:14 *551:107 0.000222113
59 *446:10 *551:14 0
60 *446:10 *551:25 7.76364e-06
61 *448:8 *551:41 0
62 *453:14 *551:74 1.56762e-05
63 *463:8 *551:41 1.06693e-05
64 *463:27 *551:41 6.16531e-05
65 *466:10 *551:41 0.000101647
66 *474:14 *551:33 8.06804e-06
67 *474:18 *551:33 0.000166504
68 *475:102 *551:126 0.00096696
69 *486:8 *1653:A 0.000141052
70 *487:14 *551:33 6.17437e-06
71 *492:73 *551:89 0.000110922
72 *492:81 *1989:A1 0.000313255
73 *493:10 *551:14 5.3656e-05
74 *493:10 *551:25 0
75 *493:21 *551:6 7.59794e-05
76 *493:21 *551:25 0.000174996
77 *493:23 *551:107 0.000565399
78 *493:23 *551:120 0.000882304
79 *517:62 *551:89 5.21127e-05
80 *518:25 *551:37 0.000601939
81 *518:25 *551:41 5.93278e-05
82 *518:25 *551:74 0.000127821
83 *539:125 *551:107 0.000155739
84 *543:29 *551:126 8.47307e-05
85 *543:104 *551:126 0.000273073
86 *544:32 *551:107 0.000166522
87 *544:32 *551:120 0.000437954
88 *546:25 *551:49 0
89 *548:66 *551:126 0.000277705
90 *548:94 *551:126 0.00021039
91 *549:23 *551:41 0
92 *549:23 *551:49 0
93 *549:107 *1653:A 4.5051e-05
*RES
1 *2087:X *551:6 26.0036 
2 *551:6 *551:14 35.2614 
3 *551:14 *1664:A 23 
4 *551:6 *551:25 21.09 
5 *551:25 *551:33 45.1214 
6 *551:33 *551:37 21.815 
7 *551:37 *551:41 21.4836 
8 *551:41 *551:49 20.9554 
9 *551:49 *2033:A 24.8332 
10 *551:49 *1989:A1 31.0061 
11 *551:41 *1615:A 38 
12 *551:37 *551:74 5.38571 
13 *551:74 *1614:A 23.8493 
14 *551:74 *551:89 36.4629 
15 *551:89 *1612:A 23 
16 *551:89 *1653:A 25.0714 
17 *551:25 *551:107 18.7257 
18 *551:107 *1662:A 38 
19 *551:107 *551:120 29.7693 
20 *551:120 *551:126 49.1607 
21 *551:126 *1869:A1 23 
22 *551:120 *2086:A 23.6214 
*END

*D_NET *552 0.0233598
*CONN
*I *1809:D I *D sky130_fd_sc_hd__or4_1
*I *1966:B2 I *D sky130_fd_sc_hd__a32o_1
*I *1600:A_N I *D sky130_fd_sc_hd__and2b_1
*I *1609:A I *D sky130_fd_sc_hd__and3_1
*I *1611:A2 I *D sky130_fd_sc_hd__a21o_1
*I *1987:A I *D sky130_fd_sc_hd__nand2_1
*I *1988:A I *D sky130_fd_sc_hd__and3_1
*I *1989:A2 I *D sky130_fd_sc_hd__a22oi_1
*I *1623:A1 I *D sky130_fd_sc_hd__a22o_1
*I *1610:A I *D sky130_fd_sc_hd__nand3_1
*I *2088:X O *D sky130_fd_sc_hd__buf_2
*CAP
1 *1809:D 0.000134105
2 *1966:B2 0
3 *1600:A_N 0
4 *1609:A 0.000136997
5 *1611:A2 0
6 *1987:A 0
7 *1988:A 0.00015824
8 *1989:A2 6.39928e-06
9 *1623:A1 1.89692e-05
10 *1610:A 0.000100532
11 *2088:X 0
12 *552:116 0.000687208
13 *552:110 0.00107888
14 *552:56 0.00121451
15 *552:46 0.00267291
16 *552:38 0.00177918
17 *552:34 0.000442988
18 *552:25 0.000544715
19 *552:12 0.0007127
20 *552:10 0.0021136
21 *552:4 0.0021349
22 *1988:A *554:23 0
23 *1988:A *554:135 2.76611e-06
24 *552:56 *2032:A 0.000269976
25 *552:56 *554:23 0
26 *552:56 *554:135 4.66036e-05
27 *1623:A2 *1609:A 2.02872e-05
28 *1623:A2 *552:34 7.59794e-05
29 *1623:B1 *552:25 5.3304e-05
30 *1623:B2 *552:25 2.64616e-05
31 *1636:C1 *552:46 0.000428691
32 *1657:B1 *552:46 0
33 *1924:A1 *552:10 1.38978e-05
34 *1989:A1 *1989:A2 1.46586e-05
35 *1989:B1 *1988:A 6.4393e-05
36 *1990:A *1988:A 5.50106e-05
37 *2031:A1 *1989:A2 1.46586e-05
38 *2035:A *552:56 1.32939e-05
39 *2129:A *552:38 1.14452e-05
40 *2129:A *552:46 8.92738e-05
41 *2131:A *552:116 5.67058e-05
42 *183:12 *1809:D 0.000236604
43 *183:12 *552:116 8.04879e-05
44 *197:46 *552:116 0.000560328
45 *199:51 *1809:D 0
46 *199:51 *552:116 0
47 *205:38 *552:116 0.000136738
48 *240:10 *552:10 7.54888e-05
49 *243:14 *552:10 0.000281928
50 *245:8 *552:10 2.54046e-05
51 *274:20 *552:10 0
52 *294:24 *552:10 3.31683e-05
53 *294:39 *1610:A 0.000270382
54 *294:39 *552:10 0.000265042
55 *294:39 *552:12 0.00058795
56 *294:47 *552:46 1.4471e-05
57 *294:51 *552:46 0.000123723
58 *326:90 *552:10 0.000389574
59 *372:12 *1988:A 0
60 *418:8 *552:56 0
61 *422:8 *552:56 0.000701016
62 *441:14 *1609:A 6.72278e-05
63 *441:25 *552:38 0.000227492
64 *448:22 *1988:A 1.01436e-05
65 *452:8 *552:46 0.000140949
66 *458:10 *552:46 0.000238194
67 *459:16 *552:46 0.000286812
68 *467:10 *552:46 0.000136484
69 *472:8 *552:46 0
70 *474:14 *552:38 1.98354e-05
71 *474:14 *552:46 0.000193737
72 *474:18 *552:46 4.32475e-05
73 *475:102 *552:10 0
74 *475:102 *552:12 0
75 *492:81 *1988:A 0
76 *492:81 *552:56 0
77 *494:32 *552:12 0.000232466
78 *497:29 *552:10 9.59941e-05
79 *497:44 *552:10 0.000103353
80 *497:50 *552:10 0.00056799
81 *497:50 *552:110 0.000351502
82 *514:8 *552:116 7.50061e-05
83 *515:20 *1610:A 0.000301419
84 *515:20 *552:12 0.000102638
85 *515:88 *1610:A 1.14452e-05
86 *518:50 *552:46 0
87 *519:88 *552:46 0
88 *523:39 *552:25 8.71387e-05
89 *523:39 *552:34 8.48502e-06
90 *524:121 *552:10 6.90304e-05
91 *529:43 *552:116 2.76153e-05
92 *543:54 *552:38 0.000106132
93 *543:54 *552:46 0.000165583
94 *546:25 *552:46 0.000236939
95 *546:25 *552:56 8.16356e-05
96 *546:35 *552:56 5.14746e-06
97 *549:12 *552:46 0.000134585
98 *549:12 *552:56 6.07611e-06
99 *549:23 *552:46 0
100 *549:35 *552:46 0
101 *551:33 *552:46 0.000248994
*RES
1 *2088:X *552:4 23 
2 *552:4 *552:10 48.7229 
3 *552:10 *552:12 7.89214 
4 *552:12 *1610:A 42.0186 
5 *552:12 *552:25 19.4329 
6 *552:25 *1623:A1 23.4971 
7 *552:25 *552:34 2.05071 
8 *552:34 *552:38 19.0186 
9 *552:38 *552:46 38.28 
10 *552:46 *552:56 47.5243 
11 *552:56 *1989:A2 38.1709 
12 *552:56 *1988:A 40.8793 
13 *552:46 *1987:A 38 
14 *552:38 *1611:A2 38 
15 *552:34 *1609:A 25.0714 
16 *552:10 *1600:A_N 38 
17 *552:4 *552:110 18.9564 
18 *552:110 *552:116 28.485 
19 *552:116 *1966:B2 23 
20 *552:110 *1809:D 41.3143 
*END

*D_NET *553 0.00881746
*CONN
*I *2013:A1 I *D sky130_fd_sc_hd__a21oi_1
*I *1973:A I *D sky130_fd_sc_hd__xor2_1
*I *2008:A1 I *D sky130_fd_sc_hd__o22a_1
*I *2009:A1 I *D sky130_fd_sc_hd__a32o_1
*I *2007:A1 I *D sky130_fd_sc_hd__a21oi_1
*I *2049:A1 I *D sky130_fd_sc_hd__a211o_1
*I *2089:X O *D sky130_fd_sc_hd__clkbuf_2
*CAP
1 *2013:A1 5.31953e-05
2 *1973:A 0
3 *2008:A1 0.000138158
4 *2009:A1 0
5 *2007:A1 0
6 *2049:A1 0
7 *2089:X 4.50142e-05
8 *553:74 7.38177e-05
9 *553:68 0.000895688
10 *553:47 0.00116237
11 *553:26 0.000516329
12 *553:16 0.000741192
13 *553:10 0.000322572
14 *553:6 0.00039826
15 *1956:A1 *553:26 2.35393e-05
16 *1957:A *2008:A1 2.32004e-05
17 *1957:B *2008:A1 5.3304e-05
18 *1970:A1 *2008:A1 6.07826e-05
19 *1970:A1 *553:47 5.50106e-05
20 *1970:B1 *2008:A1 0.000167452
21 *1970:B1 *553:68 3.70187e-05
22 *1971:B *553:68 3.92407e-05
23 *2009:A2 *553:16 8.94487e-05
24 *2015:A2 *553:68 4.96717e-05
25 *2018:A *2013:A1 4.95081e-05
26 *2018:A *553:68 2.93845e-05
27 *2049:B1 *553:26 7.27986e-05
28 *188:101 *553:26 0.000138444
29 *190:93 *553:16 9.41704e-05
30 *191:76 *553:68 3.93526e-05
31 *191:90 *2008:A1 7.75329e-06
32 *191:90 *553:68 1.33351e-05
33 *192:97 *553:74 0.000111852
34 *352:10 *553:47 2.45549e-06
35 *352:10 *553:68 0.000166522
36 *354:10 *553:74 8.51432e-05
37 *393:10 *2008:A1 1.14452e-05
38 *438:6 *553:26 0.000147475
39 *490:48 *553:26 0.000137651
40 *490:67 *553:26 0.000527229
41 *492:14 *553:10 0
42 *497:50 *553:26 0.000814107
43 *507:12 *553:10 0.000163352
44 *507:12 *553:16 0.000285519
45 *507:12 *553:26 0.000577437
46 *534:145 *553:68 0
47 *535:16 *553:16 1.69668e-05
48 *535:65 *553:16 0.000156945
49 *535:82 *553:68 0.000223344
*RES
1 *2089:X *553:6 23.6214 
2 *553:6 *553:10 17.2579 
3 *553:10 *553:16 20.1164 
4 *553:16 *553:26 47.5864 
5 *553:26 *2049:A1 23 
6 *553:16 *2007:A1 23 
7 *553:10 *2009:A1 38 
8 *553:6 *553:47 18.9564 
9 *553:47 *2008:A1 41.3557 
10 *553:47 *553:68 30.4114 
11 *553:68 *553:74 32.2579 
12 *553:74 *1973:A 23 
13 *553:68 *2013:A1 24.0979 
*END

*D_NET *554 0.0239144
*CONN
*I *1989:B2 I *D sky130_fd_sc_hd__a22oi_1
*I *1959:A I *D sky130_fd_sc_hd__nand2_1
*I *1958:A I *D sky130_fd_sc_hd__or2_1
*I *1921:A I *D sky130_fd_sc_hd__and2_1
*I *1809:A I *D sky130_fd_sc_hd__or4_1
*I *1616:B I *D sky130_fd_sc_hd__or2_1
*I *1614:B I *D sky130_fd_sc_hd__nor2_1
*I *1629:B1 I *D sky130_fd_sc_hd__o21ai_1
*I *1615:B I *D sky130_fd_sc_hd__and2_1
*I *2032:A I *D sky130_fd_sc_hd__nand2_1
*I *2090:X O *D sky130_fd_sc_hd__buf_6
*CAP
1 *1989:B2 0
2 *1959:A 0
3 *1958:A 7.18966e-05
4 *1921:A 0
5 *1809:A 0
6 *1616:B 0
7 *1614:B 0
8 *1629:B1 2.54137e-05
9 *1615:B 0.000170685
10 *2032:A 0.000190179
11 *2090:X 0
12 *554:135 0.000315032
13 *554:111 0.000395193
14 *554:98 0.000656777
15 *554:88 0.00284023
16 *554:75 0.0033777
17 *554:66 0.00035022
18 *554:58 0.00303218
19 *554:40 5.27043e-05
20 *554:36 0.00158711
21 *554:23 0.0010349
22 *554:4 0.000974022
23 *554:58 *563:26 0.000463284
24 *1606:A *554:58 9.35649e-05
25 *1606:A *554:66 0
26 *1606:A *554:75 5.0702e-05
27 *1614:A *1629:B1 4.00259e-06
28 *1616:A *554:66 0
29 *1629:A1 *1629:B1 9.72057e-06
30 *1629:A2 *1629:B1 5.90675e-06
31 *1630:B *1629:B1 3.22879e-05
32 *1920:B1 *554:98 4.38375e-05
33 *1921:B *554:98 2.32004e-05
34 *1952:A *554:98 0
35 *1956:A2 *554:88 0.000151114
36 *1958:B *1958:A 5.50049e-05
37 *1988:A *554:23 0
38 *1988:A *554:135 2.76611e-06
39 *2025:B2 *554:58 0.000380333
40 *2031:A1 *554:135 5.3304e-05
41 *2035:A *2032:A 6.23433e-05
42 *2036:A *554:135 0.000315857
43 *182:16 *554:75 2.29192e-05
44 *183:12 *554:75 2.60152e-05
45 *183:12 *554:88 8.16253e-05
46 *184:10 *554:88 8.62876e-05
47 *188:71 *554:98 6.7177e-06
48 *190:67 *554:98 0
49 *190:80 *554:98 0.000163352
50 *199:51 *554:88 0.000729761
51 *199:89 *554:88 0.000294802
52 *297:20 *554:98 8.80821e-05
53 *299:10 *554:98 5.22857e-05
54 *326:78 *554:75 6.73383e-05
55 *326:86 *554:75 2.14538e-05
56 *333:10 *554:98 5.56203e-05
57 *336:18 *554:88 0.000119489
58 *336:18 *554:111 3.71228e-05
59 *337:66 *554:75 0
60 *338:8 *554:111 0
61 *339:10 *554:111 6.07611e-06
62 *341:6 *1958:A 7.27182e-05
63 *347:10 *554:98 0.000185755
64 *358:8 *554:75 0
65 *359:14 *1958:A 1.41077e-05
66 *372:12 *554:23 0.000140958
67 *373:21 *554:135 5.94125e-05
68 *397:14 *1958:A 0.000265445
69 *418:8 *554:23 0
70 *418:8 *554:135 0
71 *422:8 *2032:A 0.000356724
72 *422:8 *554:135 0.000485452
73 *434:10 *554:75 0.000152031
74 *434:51 *554:75 0.000121664
75 *443:33 *554:58 0
76 *448:8 *554:36 0
77 *448:22 *554:23 0
78 *448:22 *554:36 0
79 *449:6 *554:66 0.000185434
80 *449:23 *554:66 3.92407e-05
81 *454:10 *554:66 1.01436e-05
82 *462:8 *554:36 5.15745e-05
83 *487:8 *554:58 0.000141879
84 *491:32 *554:75 9.64022e-05
85 *491:32 *554:88 3.36638e-05
86 *492:73 *554:58 0
87 *492:73 *554:75 0
88 *492:81 *554:23 2.70469e-05
89 *492:81 *554:135 6.17437e-06
90 *497:56 *554:98 0
91 *497:87 *554:98 0
92 *517:47 *554:58 0
93 *518:117 *554:98 0
94 *519:50 *554:58 0.000142808
95 *524:64 *554:75 0
96 *524:107 *554:75 7.4462e-05
97 *526:94 *554:88 0.000164364
98 *529:43 *554:75 0.00139915
99 *534:145 *554:98 0
100 *534:145 *554:111 8.23276e-05
101 *537:42 *554:98 0
102 *537:42 *554:111 0
103 *538:20 *554:75 0
104 *540:33 *554:58 0
105 *540:33 *554:75 0
106 *540:47 *554:58 0.000122257
107 *546:35 *2032:A 0.000204933
108 *546:35 *554:135 6.52495e-05
109 *547:65 *554:75 0.000154366
110 *549:107 *554:36 0
111 *549:107 *554:58 0
112 *551:41 *554:23 0
113 *551:41 *554:36 0
114 *551:49 *554:23 0
115 *551:74 *1629:B1 3.22879e-05
116 *551:74 *554:40 2.93747e-05
117 *552:56 *2032:A 0.000269976
118 *552:56 *554:23 0
119 *552:56 *554:135 4.66036e-05
*RES
1 *2090:X *554:4 23 
2 *554:4 *2032:A 31.7829 
3 *554:4 *554:23 38.5964 
4 *554:23 *1615:B 26.0036 
5 *554:23 *554:36 21.8771 
6 *554:36 *554:40 15.6214 
7 *554:40 *1629:B1 24.1186 
8 *554:40 *1614:B 23 
9 *554:36 *554:58 26.825 
10 *554:58 *554:66 35.1579 
11 *554:66 *1616:B 38 
12 *554:58 *554:75 32.8943 
13 *554:75 *1809:A 38 
14 *554:75 *554:88 42.1771 
15 *554:88 *554:98 42.6564 
16 *554:98 *1921:A 23 
17 *554:88 *554:111 35.2407 
18 *554:111 *1958:A 26.0243 
19 *554:111 *1959:A 23 
20 *554:4 *554:135 38.9693 
21 *554:135 *1989:B2 23 
*END

*D_NET *555 0.00410856
*CONN
*I *2062:A I *D sky130_fd_sc_hd__buf_2
*I *2108:X O *D sky130_fd_sc_hd__clkbuf_1
*CAP
1 *2062:A 0
2 *2108:X 0.000327154
3 *555:14 0.000733045
4 *555:8 0.0010602
5 *2020:A *555:14 0
6 *2060:A *555:14 0.000141052
7 *323:14 *555:14 0
8 *360:12 *555:14 0.00102125
9 *362:8 *555:14 0
10 *363:10 *555:14 0
11 *383:23 *555:8 3.7122e-06
12 *384:10 *555:14 8.62876e-05
13 *386:12 *555:14 4.07715e-05
14 *387:8 *555:14 5.51058e-05
15 *430:8 *555:14 3.14377e-05
16 *529:116 *555:14 9.74235e-05
17 *535:34 *555:14 0.000110922
18 *544:18 *555:14 0.000400198
*RES
1 *2108:X *555:8 41.9564 
2 *555:8 *555:14 35.4243 
3 *555:14 *2062:A 23 
*END

*D_NET *556 0.0044962
*CONN
*I *1692:A1 I *D sky130_fd_sc_hd__a21o_1
*I *1677:A1 I *D sky130_fd_sc_hd__a21o_1
*I *2123:A I *D sky130_fd_sc_hd__buf_2
*I *2121:X O *D sky130_fd_sc_hd__dlygate4sd1_1
*CAP
1 *1692:A1 0.000407892
2 *1677:A1 8.46333e-05
3 *2123:A 1.50079e-05
4 *2121:X 0.000321946
5 *556:21 0.000570009
6 *556:10 0.000467184
7 *556:8 0.000696638
8 *1674:B *1692:A1 6.06716e-05
9 *1674:C *1692:A1 2.08774e-05
10 *1677:B1 *1677:A1 6.17437e-06
11 *1687:A *556:8 0.000137651
12 *1688:A2 *2123:A 5.50049e-05
13 *1692:A2 *1692:A1 0.000217873
14 *1692:B1 *1692:A1 2.77574e-05
15 *1716:A1 *1692:A1 9.84851e-05
16 *2121:A *556:8 0.000302812
17 *43:12 *1677:A1 2.61526e-05
18 *43:12 *1692:A1 0.000308946
19 *49:14 *556:10 0
20 *49:14 *556:21 0
21 *471:20 *1692:A1 1.01436e-05
22 *471:20 *556:10 8.72173e-05
23 *471:20 *556:21 0.000136486
24 *513:23 *1677:A1 6.17437e-06
25 *513:23 *1692:A1 2.60152e-05
26 *513:23 *556:21 4.08537e-05
27 *539:104 *2123:A 5.50049e-05
28 *546:73 *556:10 4.96264e-05
29 *546:119 *1692:A1 4.85126e-05
30 *546:119 *556:10 0.000210454
*RES
1 *2121:X *556:8 43.8621 
2 *556:8 *556:10 8.24429 
3 *556:10 *2123:A 38.6214 
4 *556:10 *556:21 1.90571 
5 *556:21 *1677:A1 39.0979 
6 *556:21 *1692:A1 47.5079 
*END

*D_NET *557 0.000369714
*CONN
*I *1688:A1 I *D sky130_fd_sc_hd__a21oi_1
*I *2123:X O *D sky130_fd_sc_hd__buf_2
*CAP
1 *1688:A1 0.000131673
2 *2123:X 0.000131673
3 *1688:A2 *1688:A1 9.41704e-05
4 *539:104 *1688:A1 1.21972e-05
*RES
1 *2123:X *1688:A1 47.5743 
*END

*D_NET *558 0.00170271
*CONN
*I *2126:A I *D sky130_fd_sc_hd__dlymetal6s2s_1
*I *1757:A2 I *D sky130_fd_sc_hd__o31a_1
*I *2125:X O *D sky130_fd_sc_hd__buf_1
*CAP
1 *2126:A 0
2 *1757:A2 0.000116276
3 *2125:X 0.000420169
4 *558:8 0.000536444
5 *558:8 *559:10 2.93747e-05
6 *558:8 *565:8 0.000269151
7 *1757:B1 *1757:A2 5.3304e-05
8 *542:21 *1757:A2 9.58714e-05
9 *542:55 *1757:A2 1.21972e-05
10 *542:55 *558:8 0.000169923
*RES
1 *2125:X *558:8 31.7414 
2 *558:8 *1757:A2 25.0507 
3 *558:8 *2126:A 23 
*END

*D_NET *559 0.00117874
*CONN
*I *1766:A2 I *D sky130_fd_sc_hd__o32a_1
*I *2127:A I *D sky130_fd_sc_hd__dlygate4sd1_1
*I *2126:X O *D sky130_fd_sc_hd__dlymetal6s2s_1
*CAP
1 *1766:A2 0.000132956
2 *2127:A 0
3 *2126:X 0.000104546
4 *559:12 0.000132956
5 *559:10 0.000104546
6 *1748:B *1766:A2 0.000141954
7 *1766:A3 *1766:A2 2.93845e-05
8 *1766:B1 *1766:A2 5.3304e-05
9 *100:36 *1766:A2 3.47781e-05
10 *117:27 *559:10 0.000191148
11 *123:8 *1766:A2 6.17437e-06
12 *539:22 *559:10 0.000191157
13 *542:55 *559:10 2.64616e-05
14 *558:8 *559:10 2.93747e-05
*RES
1 *2126:X *559:10 41.2314 
2 *559:10 *559:12 15 
3 *559:12 *2127:A 23 
4 *559:12 *1766:A2 26.0243 
*END

*D_NET *560 0.000368248
*CONN
*I *1736:B I *D sky130_fd_sc_hd__nor2_1
*I *2127:X O *D sky130_fd_sc_hd__dlygate4sd1_1
*CAP
1 *1736:B 7.88657e-05
2 *2127:X 7.88657e-05
3 *100:36 *1736:B 0.000210517
*RES
1 *2127:X *1736:B 48.4236 
*END

*D_NET *561 0.00354463
*CONN
*I *1742:S I *D sky130_fd_sc_hd__mux2_4
*I *1720:S I *D sky130_fd_sc_hd__mux2_4
*I *1746:S I *D sky130_fd_sc_hd__mux2_4
*I *2128:X O *D sky130_fd_sc_hd__buf_6
*CAP
1 *1742:S 0
2 *1720:S 4.67873e-05
3 *1746:S 0.00013846
4 *2128:X 0.00016971
5 *561:36 9.79147e-05
6 *561:23 0.000703114
7 *561:6 0.000866582
8 *61:22 *1746:S 6.8137e-05
9 *61:22 *561:6 0.00024763
10 *69:6 *561:6 8.11489e-05
11 *69:16 *561:6 0.000103405
12 *70:12 *561:23 0.000121336
13 *75:12 *561:36 0.000197479
14 *83:14 *1746:S 9.5877e-05
15 *83:14 *561:6 4.17736e-05
16 *95:10 *561:23 0.000226306
17 *121:12 *561:23 0
18 *534:60 *1746:S 5.3304e-05
19 *534:60 *561:6 5.56356e-05
20 *534:60 *561:23 0.000230026
21 *539:37 *561:36 0
*RES
1 *2128:X *561:6 27.9093 
2 *561:6 *1746:S 26.0243 
3 *561:6 *561:23 41.2064 
4 *561:23 *1720:S 23.6214 
5 *561:23 *561:36 32.61 
6 *561:36 *1742:S 23 
*END

*D_NET *562 0.00202352
*CONN
*I *1610:C I *D sky130_fd_sc_hd__nand3_1
*I *2129:X O *D sky130_fd_sc_hd__buf_1
*CAP
1 *1610:C 0
2 *2129:X 0.000744586
3 *562:10 0.000744586
4 *1662:B *562:10 5.41288e-05
5 *2129:A *562:10 4.67488e-05
6 *38:19 *562:10 0.000128539
7 *470:10 *562:10 2.5415e-05
8 *475:102 *562:10 0.000116314
9 *515:20 *562:10 6.07611e-06
10 *515:88 *562:10 0
11 *519:62 *562:10 0.000157128
*RES
1 *2129:X *562:10 48.7507 
2 *562:10 *1610:C 38 
*END

*D_NET *563 0.0215625
*CONN
*I *1919:A2 I *D sky130_fd_sc_hd__a21oi_1
*I *1899:A I *D sky130_fd_sc_hd__xor2_1
*I *1904:B1 I *D sky130_fd_sc_hd__a22oi_1
*I *1982:B1 I *D sky130_fd_sc_hd__a22oi_1
*I *2025:B1 I *D sky130_fd_sc_hd__a22o_1
*I *2052:X O *D sky130_fd_sc_hd__clkbuf_1
*CAP
1 *1919:A2 0.00027466
2 *1899:A 0
3 *1904:B1 0.000971525
4 *1982:B1 0
5 *2025:B1 0
6 *2052:X 0.000226577
7 *563:77 0.00179404
8 *563:69 0.00262934
9 *563:41 0.000658901
10 *563:35 0.00196789
11 *563:26 0.000397261
12 *563:22 0.0015723
13 *563:14 0.0020224
14 *563:8 0.00129712
15 *1882:B *563:22 4.57742e-05
16 *1892:B1 *563:8 0.00026808
17 *1904:A2 *1904:B1 2.41268e-05
18 *1966:A2 *1919:A2 5.67058e-05
19 *2052:A *563:8 1.76557e-05
20 *2075:A *563:77 7.8128e-05
21 *182:40 *563:69 0.000215755
22 *197:28 *563:69 3.65079e-05
23 *197:63 *563:77 0
24 *205:38 *1919:A2 9.67842e-05
25 *236:10 *563:14 1.01436e-05
26 *236:10 *563:69 0.000110373
27 *287:10 *563:41 0.000200422
28 *348:53 *563:77 0
29 *351:18 *563:69 0.00026599
30 *490:27 *563:14 0.000341706
31 *490:27 *563:69 0.000312529
32 *490:48 *1919:A2 9.18779e-05
33 *497:50 *563:77 4.54033e-05
34 *507:12 *1919:A2 2.05503e-05
35 *518:103 *1919:A2 0.000266033
36 *518:103 *563:77 0.00105704
37 *519:144 *563:41 0.000365576
38 *520:44 *563:77 0
39 *521:39 *563:41 0.000111731
40 *525:28 *563:41 0
41 *525:112 *563:41 0
42 *526:45 *1904:B1 1.28407e-05
43 *527:45 *563:14 2.55642e-05
44 *527:45 *563:22 0.000114092
45 *527:51 *1904:B1 0.000609752
46 *527:51 *563:35 0.000434165
47 *527:76 *1904:B1 0.000136697
48 *527:109 *563:14 0.000219882
49 *535:16 *563:14 6.53856e-05
50 *535:16 *563:69 0.00033905
51 *535:22 *563:14 0.000473932
52 *535:22 *563:22 9.66514e-05
53 *537:52 *1919:A2 2.70047e-05
54 *537:69 *563:41 6.93125e-05
55 *538:12 *563:77 0.000158879
56 *540:33 *563:26 0.00045369
57 *540:47 *563:26 1.14452e-05
58 *554:58 *563:26 0.000463284
*RES
1 *2052:X *563:8 41.48 
2 *563:8 *563:14 14.4171 
3 *563:14 *563:22 47.8971 
4 *563:22 *563:26 27.1179 
5 *563:26 *2025:B1 23 
6 *563:14 *563:35 19.9093 
7 *563:35 *563:41 43.5264 
8 *563:41 *1982:B1 23 
9 *563:35 *1904:B1 38.7636 
10 *563:8 *563:69 22.4068 
11 *563:69 *563:77 31.8961 
12 *563:77 *1899:A 23 
13 *563:69 *1919:A2 49.0466 
*END

*D_NET *564 0.000581725
*CONN
*I *1714:B1 I *D sky130_fd_sc_hd__a21o_1
*I *2130:X O *D sky130_fd_sc_hd__dlygate4sd3_1
*CAP
1 *1714:B1 0
2 *2130:X 0.000236442
3 *564:10 0.000236442
4 *75:12 *564:10 0
5 *76:8 *564:10 4.6318e-06
6 *76:34 *564:10 0
7 *78:10 *564:10 6.07611e-06
8 *89:8 *564:10 4.334e-05
9 *89:25 *564:10 5.47927e-05
*RES
1 *2130:X *564:10 41.9564 
2 *564:10 *1714:B1 38 
*END

*D_NET *565 0.0267087
*CONN
*I *1770:A I *D sky130_fd_sc_hd__nand2_1
*I *1769:A I *D sky130_fd_sc_hd__nor2_1
*I *1926:B I *D sky130_fd_sc_hd__nand2_1
*I *1753:B2 I *D sky130_fd_sc_hd__o2bb2a_1
*I *1737:A I *D sky130_fd_sc_hd__xor2_1
*I *2051:X O *D sky130_fd_sc_hd__clkbuf_1
*CAP
1 *1770:A 7.75119e-05
2 *1769:A 0
3 *1926:B 0
4 *1753:B2 0
5 *1737:A 0.000540681
6 *2051:X 0.000589796
7 *565:73 0.00121333
8 *565:62 0.00274697
9 *565:58 0.0038734
10 *565:52 0.0027921
11 *565:33 0.0023201
12 *565:12 0.00168114
13 *565:8 0.00221165
14 *1625:B *565:62 0.000140259
15 *1626:B *565:58 0.000127821
16 *1627:B1 *565:58 4.5051e-05
17 *1663:B *565:52 4.9809e-06
18 *1679:A *565:52 1.94693e-05
19 *1683:B *565:52 0.000261257
20 *1689:A1 *565:52 0.000250512
21 *1737:B *1737:A 0.000250056
22 *1754:B1 *565:12 0
23 *1756:B *1737:A 3.22879e-05
24 *1768:S *565:73 7.55491e-05
25 *1773:A *565:73 9.84851e-05
26 *1773:B *565:73 0
27 *1983:C *565:62 4.44904e-05
28 *2025:B2 *565:62 1.59094e-05
29 *2029:A_N *565:62 1.39317e-05
30 *44:10 *565:52 0.000421998
31 *50:31 *565:52 0.00015414
32 *57:10 *565:52 0.000108681
33 *58:10 *565:52 4.08537e-05
34 *62:14 *565:52 0.000373109
35 *64:10 *565:52 0.000182585
36 *95:10 *565:33 0
37 *95:23 *1737:A 0.000139754
38 *95:23 *565:12 6.25829e-05
39 *95:23 *565:33 2.64616e-05
40 *100:21 *565:12 0.000166513
41 *100:21 *565:73 0.000274543
42 *110:14 *565:8 0.000399785
43 *111:8 *565:73 0.000354778
44 *112:10 *1737:A 1.57571e-05
45 *113:6 *565:52 7.53303e-06
46 *121:12 *565:12 0.000994388
47 *127:8 *565:33 0.00016821
48 *127:8 *565:52 3.22051e-05
49 *128:12 *565:12 0
50 *128:12 *565:33 3.76761e-05
51 *143:29 *1770:A 1.60667e-05
52 *144:10 *1770:A 0.00010018
53 *145:10 *1770:A 2.51651e-05
54 *147:10 *565:73 0
55 *149:8 *565:73 0
56 *283:101 *565:73 0
57 *294:43 *565:58 0.000308033
58 *365:10 *565:62 2.64616e-05
59 *366:10 *565:62 1.59094e-05
60 *413:18 *565:62 7.80404e-05
61 *457:14 *565:58 1.21972e-05
62 *458:10 *565:58 9.5877e-05
63 *458:10 *565:62 7.48207e-05
64 *460:10 *565:62 5.3304e-05
65 *471:49 *565:52 0.000259026
66 *498:23 *565:73 0.000136687
67 *510:76 *565:12 0
68 *510:76 *565:73 0
69 *510:89 *565:73 0.000230623
70 *517:47 *565:62 1.39431e-05
71 *521:47 *565:62 2.81406e-06
72 *521:51 *565:62 0.000252208
73 *531:21 *565:73 0
74 *531:25 *565:12 1.30202e-06
75 *531:31 *565:12 8.79717e-05
76 *534:46 *565:33 0.000168891
77 *534:50 *565:33 0
78 *539:12 *1770:A 7.51216e-05
79 *539:12 *565:73 9.58714e-05
80 *539:22 *565:73 0
81 *541:36 *565:62 0.000119618
82 *542:55 *565:8 5.94404e-06
83 *542:84 *565:52 0.000151291
84 *546:119 *565:52 0.000643918
85 *548:18 *565:52 0
86 *558:8 *565:8 0.000269151
*RES
1 *2051:X *565:8 46.2443 
2 *565:8 *565:12 29.2307 
3 *565:12 *1737:A 32.2386 
4 *565:12 *565:33 39.4457 
5 *565:33 *1753:B2 23 
6 *565:33 *565:52 48.9507 
7 *565:52 *565:58 33.7464 
8 *565:58 *565:62 36.6021 
9 *565:62 *1926:B 23 
10 *565:8 *565:73 40.4786 
11 *565:73 *1769:A 23 
12 *565:73 *1770:A 25.843 
*END

*D_NET *566 0.0120075
*CONN
*I *2059:A I *D sky130_fd_sc_hd__dlymetal6s2s_1
*I *2058:A I *D sky130_fd_sc_hd__buf_2
*I *2109:X O *D sky130_fd_sc_hd__buf_1
*CAP
1 *2059:A 6.30365e-05
2 *2058:A 0.000761499
3 *2109:X 0.000872608
4 *566:31 0.0019998
5 *566:29 0.00193677
6 *566:14 0.00163411
7 *1893:A2 *566:31 0.000178782
8 *1930:C *566:31 5.87192e-05
9 *1933:A *2058:A 0
10 *1938:A *2058:A 0.000282098
11 *1938:B *2058:A 1.03836e-05
12 *1997:B *566:14 2.93845e-05
13 *1998:A1 *566:14 2.80394e-05
14 *1998:A2 *566:14 5.50106e-05
15 *1998:B1 *566:14 0.000152749
16 *2000:C *566:14 5.90675e-06
17 *188:47 *566:31 2.3529e-05
18 *196:54 *566:31 0
19 *253:10 *566:31 0
20 *259:10 *566:31 0
21 *269:10 *566:31 0.000243605
22 *296:10 *2059:A 3.3577e-05
23 *305:8 *566:31 0
24 *306:27 *566:31 0
25 *310:10 *566:31 0
26 *317:34 *2058:A 2.93845e-05
27 *319:10 *2058:A 0.000307608
28 *319:10 *566:14 0.000128401
29 *321:10 *566:31 0
30 *322:8 *566:31 0
31 *365:10 *566:31 0
32 *381:10 *566:31 0
33 *381:14 *566:14 9.70259e-06
34 *382:10 *566:14 7.1533e-05
35 *383:6 *566:14 0.000121067
36 *383:15 *566:14 0.000143059
37 *383:36 *566:14 0.000132178
38 *426:10 *566:31 0
39 *525:28 *566:31 2.05503e-05
40 *525:112 *566:31 0.000858576
41 *527:30 *566:31 5.86296e-05
42 *534:145 *566:31 0.00041708
43 *540:116 *566:31 0.000191157
44 *541:18 *566:31 0.000831092
45 *541:36 *566:31 0.000317847
*RES
1 *2109:X *566:14 40.0271 
2 *566:14 *2058:A 38.4529 
3 *566:14 *566:29 15 
4 *566:29 *566:31 45.2193 
5 *566:31 *2059:A 39.0979 
*END

*D_NET *567 0.00152838
*CONN
*I *1909:B I *D sky130_fd_sc_hd__xnor2_2
*I *2122:X O *D sky130_fd_sc_hd__buf_2
*CAP
1 *1909:B 0
2 *2122:X 0.000559091
3 *567:10 0.000559091
4 *1909:A *567:10 3.92407e-05
5 *1932:A3 *567:10 0
6 *417:12 *567:10 0.000114083
7 *490:27 *567:10 0.000234652
8 *521:57 *567:10 0
9 *521:79 *567:10 0
10 *523:16 *567:10 2.22183e-05
*RES
1 *2122:X *567:10 49.3307 
2 *567:10 *1909:B 38 
*END

*D_NET *568 0.00513779
*CONN
*I *2057:A I *D sky130_fd_sc_hd__clkbuf_4
*I *2110:X O *D sky130_fd_sc_hd__clkbuf_1
*CAP
1 *2057:A 0
2 *2110:X 0.000223733
3 *568:26 0.00163467
4 *568:12 0.00185841
5 *475:68 *568:26 4.73716e-05
6 *494:14 *568:26 0.000305018
7 *494:32 *568:26 0.0010475
8 *515:88 *568:26 2.10926e-05
*RES
1 *2110:X *568:12 46.8493 
2 *568:12 *568:26 45.2452 
3 *568:26 *2057:A 23 
*END

*D_NET *569 0.000669212
*CONN
*I *1932:B1 I *D sky130_fd_sc_hd__a31oi_2
*I *2124:X O *D sky130_fd_sc_hd__dlymetal6s2s_1
*CAP
1 *1932:B1 0
2 *2124:X 0.000210095
3 *569:10 0.000210095
4 *1932:A3 *569:10 7.75329e-06
5 *286:18 *569:10 0.00017842
6 *417:12 *569:10 6.28488e-05
*RES
1 *2124:X *569:10 42.6607 
2 *569:10 *1932:B1 38 
*END
