*SPEF "ieee 1481-1999"
*DESIGN "alu8bit"
*DATE "13:38:45 Wednesday August 05, 2026"
*VENDOR "The OpenROAD Project"
*PROGRAM "OpenROAD"
*VERSION "edf00dff99f6c40d67a30c0e22a8191c5d2ed9d6"
*DESIGN_FLOW "NAME_SCOPE LOCAL" "PIN_CAP NONE"
*DIVIDER /
*DELIMITER :
*BUS_DELIMITER []
*T_UNIT 1 NS
*C_UNIT 1 PF
*R_UNIT 1 OHM
*L_UNIT 1 HENRY

*NAME_MAP
*3 inst[0]
*4 inst[1]
*5 inst[2]
*6 inst[3]
*7 op_a[0]
*8 op_a[1]
*9 op_a[2]
*10 op_a[3]
*11 op_a[4]
*12 op_a[5]
*13 op_a[6]
*14 op_a[7]
*15 op_b[0]
*16 op_b[1]
*17 op_b[2]
*18 op_b[3]
*19 op_b[4]
*20 op_b[5]
*21 op_b[6]
*22 op_b[7]
*23 op_out[0]
*24 op_out[1]
*25 op_out[2]
*26 op_out[3]
*27 op_out[4]
*28 op_out[5]
*29 op_out[6]
*30 op_out[7]
*31 _000_
*32 _001_
*33 _002_
*34 _003_
*35 _004_
*36 _005_
*37 _006_
*38 _007_
*39 _008_
*40 _009_
*41 _010_
*42 _011_
*43 _012_
*44 _013_
*45 _014_
*46 _015_
*47 _016_
*48 _017_
*49 _018_
*50 _019_
*51 _020_
*52 _021_
*53 _022_
*54 _023_
*55 _024_
*56 _025_
*57 _026_
*58 _027_
*59 _028_
*60 _029_
*61 _030_
*62 _031_
*63 _032_
*64 _033_
*65 _034_
*66 _035_
*67 _036_
*68 _037_
*69 _038_
*70 _039_
*71 _040_
*72 _041_
*73 _042_
*74 _043_
*75 _044_
*76 _045_
*77 _046_
*78 _047_
*79 _048_
*80 _049_
*81 _050_
*82 _051_
*83 _052_
*84 _053_
*85 _054_
*86 _055_
*87 _056_
*88 _057_
*89 _058_
*90 _059_
*91 _060_
*92 _061_
*93 _062_
*94 _063_
*95 _064_
*96 _065_
*97 _066_
*98 _067_
*99 _068_
*100 _069_
*101 _070_
*102 _071_
*103 _072_
*104 _073_
*105 _074_
*106 _075_
*107 _076_
*108 _077_
*109 _078_
*110 _079_
*111 _080_
*112 _081_
*113 _082_
*114 _083_
*115 _084_
*116 _085_
*117 _086_
*118 _087_
*119 _088_
*120 _089_
*121 _090_
*122 _091_
*123 _092_
*124 _093_
*125 _094_
*126 _095_
*127 _096_
*128 _097_
*129 _098_
*130 _099_
*131 _100_
*132 _101_
*133 _102_
*134 _103_
*135 _104_
*136 _105_
*137 _106_
*138 _107_
*139 _108_
*140 _109_
*141 _110_
*142 _111_
*143 _112_
*144 _113_
*145 _114_
*146 _115_
*147 _116_
*148 _117_
*149 _118_
*150 _119_
*151 _120_
*152 _121_
*153 _122_
*154 _123_
*155 _124_
*156 _125_
*157 _126_
*158 _127_
*159 _128_
*160 _129_
*161 _130_
*162 _131_
*163 _132_
*164 _133_
*165 _134_
*166 _135_
*167 _136_
*168 _137_
*169 _138_
*170 _139_
*171 _140_
*172 _141_
*173 _142_
*174 _143_
*175 _144_
*176 _145_
*177 _146_
*178 _147_
*179 _148_
*180 _149_
*181 _150_
*182 _151_
*183 _152_
*184 _153_
*185 _154_
*186 _155_
*187 _156_
*188 _157_
*189 _158_
*190 _159_
*191 _160_
*192 _161_
*193 _162_
*194 _163_
*195 _164_
*196 _165_
*197 _166_
*198 _167_
*199 _168_
*200 _169_
*201 _170_
*202 _171_
*203 _172_
*204 _173_
*205 _174_
*206 _175_
*207 _176_
*208 _177_
*209 _178_
*210 _179_
*211 _180_
*212 _181_
*213 _182_
*214 _183_
*215 _184_
*216 _185_
*217 _186_
*218 _187_
*219 _188_
*220 _189_
*221 _190_
*222 _191_
*223 _192_
*224 _193_
*225 _194_
*226 _195_
*227 _196_
*228 _197_
*229 _198_
*230 _199_
*231 _200_
*232 _201_
*233 _202_
*234 _203_
*235 _204_
*236 _205_
*237 _206_
*238 _207_
*239 _208_
*240 _209_
*241 _210_
*242 _211_
*243 _212_
*244 _213_
*245 _214_
*246 _215_
*247 _216_
*248 _217_
*249 _218_
*250 _219_
*251 _220_
*252 _221_
*253 _222_
*254 _223_
*255 _224_
*256 _225_
*257 _226_
*258 _227_
*259 _228_
*260 _229_
*261 _230_
*262 _231_
*263 _232_
*264 _233_
*265 _234_
*266 _235_
*267 _236_
*268 _237_
*269 _238_
*270 _239_
*271 _240_
*272 _241_
*273 _242_
*274 _243_
*275 _244_
*276 _245_
*277 _246_
*278 _247_
*279 _248_
*280 _249_
*281 _250_
*282 _251_
*283 _252_
*284 _253_
*285 _254_
*286 _255_
*287 _256_
*288 _257_
*289 _258_
*290 _259_
*291 _260_
*292 _261_
*293 _262_
*294 _263_
*295 _264_
*296 _265_
*297 _266_
*298 _267_
*299 _268_
*300 _269_
*301 _270_
*302 _271_
*303 _272_
*304 _273_
*305 _274_
*306 _275_
*307 _276_
*308 _277_
*309 _278_
*310 _279_
*311 _280_
*312 _281_
*313 _282_
*314 _283_
*315 _284_
*316 _285_
*317 _286_
*318 _287_
*319 _288_
*320 _289_
*321 _290_
*322 _291_
*323 _292_
*324 _293_
*325 _294_
*326 _295_
*327 _296_
*328 _297_
*329 _298_
*330 _299_
*331 _300_
*332 _301_
*333 _302_
*334 _303_
*335 _304_
*336 _305_
*337 _306_
*338 _307_
*339 _308_
*340 _309_
*341 _310_
*342 _311_
*343 _312_
*344 _313_
*345 _314_
*346 _315_
*347 _316_
*348 _317_
*349 _318_
*350 _319_
*351 _320_
*352 _321_
*353 _322_
*354 _323_
*355 _324_
*356 _325_
*357 _326_
*358 _327_
*359 _328_
*360 _329_
*361 _330_
*362 _331_
*363 _332_
*364 _333_
*365 _334_
*366 _335_
*367 _336_
*368 _337_
*369 _338_
*370 _339_
*371 _340_
*372 _341_
*373 _342_
*374 _343_
*375 _344_
*376 _345_
*377 _346_
*378 _347_
*379 _348_
*380 _349_
*381 _350_
*382 _351_
*383 _352_
*384 _353_
*385 _354_
*386 _355_
*387 _356_
*388 _357_
*389 _358_
*390 _359_
*391 _360_
*392 _361_
*393 _362_
*394 _363_
*395 _364_
*396 _365_
*397 _366_
*398 _367_
*399 _368_
*400 _369_
*401 _370_
*402 _371_
*403 _372_
*404 _373_
*405 _374_
*406 _375_
*407 _376_
*408 _377_
*409 _378_
*410 _379_
*411 _380_
*412 _381_
*413 _382_
*414 _383_
*415 _384_
*416 _385_
*417 _386_
*418 _387_
*419 _388_
*420 _389_
*421 _390_
*422 _391_
*423 _392_
*424 _393_
*425 _394_
*426 _395_
*427 _396_
*428 _397_
*429 _398_
*430 _399_
*431 _400_
*432 _401_
*433 _402_
*434 _403_
*435 _404_
*436 _405_
*437 _406_
*438 _407_
*439 _408_
*440 _409_
*441 _410_
*442 _411_
*443 _412_
*444 _413_
*445 _414_
*446 _415_
*447 _416_
*448 _417_
*449 _418_
*450 _419_
*451 _420_
*452 _421_
*453 _422_
*454 _423_
*455 _424_
*456 _425_
*457 _426_
*458 _427_
*459 _428_
*460 _429_
*461 _430_
*462 _431_
*463 _432_
*464 _433_
*465 _434_
*466 _435_
*467 _436_
*468 _437_
*469 _438_
*470 _439_
*471 _440_
*472 _441_
*473 _442_
*474 _443_
*475 _444_
*476 _445_
*477 _446_
*478 _447_
*479 _448_
*480 _449_
*481 _450_
*482 _451_
*483 _452_
*484 _453_
*485 _454_
*486 _455_
*487 _456_
*488 _457_
*489 net1
*490 net10
*491 net11
*492 net12
*493 net13
*494 net14
*495 net15
*496 net16
*497 net17
*498 net18
*499 net19
*500 net2
*501 net20
*502 net21
*503 net22
*504 net23
*505 net24
*506 net25
*507 net26
*508 net27
*509 net28
*510 net29
*511 net3
*512 net30
*513 net31
*514 net32
*515 net33
*516 net34
*517 net35
*518 net36
*519 net37
*520 net38
*521 net39
*522 net4
*523 net40
*524 net41
*525 net42
*526 net43
*527 net44
*528 net45
*529 net46
*530 net47
*531 net48
*532 net49
*533 net5
*534 net50
*535 net51
*536 net52
*537 net53
*538 net54
*539 net55
*540 net56
*541 net57
*542 net58
*543 net59
*544 net6
*545 net60
*546 net61
*547 net62
*548 net63
*549 net64
*550 net65
*551 net66
*552 net67
*553 net68
*554 net69
*555 net7
*556 net70
*557 net71
*558 net72
*559 net73
*560 net74
*561 net75
*562 net76
*563 net77
*564 net78
*565 net79
*566 net8
*567 net87
*568 net9
*569 net92
*570 FILLER_0_109
*571 FILLER_0_113
*572 FILLER_0_125
*573 FILLER_0_137
*574 FILLER_0_141
*575 FILLER_0_15
*576 FILLER_0_153
*577 FILLER_0_165
*578 FILLER_0_169
*579 FILLER_0_181
*580 FILLER_0_193
*581 FILLER_0_197
*582 FILLER_0_209
*583 FILLER_0_221
*584 FILLER_0_27
*585 FILLER_0_29
*586 FILLER_0_3
*587 FILLER_0_41
*588 FILLER_0_48
*589 FILLER_0_57
*590 FILLER_0_69
*591 FILLER_0_77
*592 FILLER_0_85
*593 FILLER_0_90
*594 FILLER_0_97
*595 FILLER_10_123
*596 FILLER_10_131
*597 FILLER_10_15
*598 FILLER_10_152
*599 FILLER_10_164
*600 FILLER_10_177
*601 FILLER_10_189
*602 FILLER_10_200
*603 FILLER_10_208
*604 FILLER_10_220
*605 FILLER_10_27
*606 FILLER_10_29
*607 FILLER_10_3
*608 FILLER_10_41
*609 FILLER_10_53
*610 FILLER_10_61
*611 FILLER_10_66
*612 FILLER_10_76
*613 FILLER_10_95
*614 FILLER_11_101
*615 FILLER_11_109
*616 FILLER_11_116
*617 FILLER_11_128
*618 FILLER_11_140
*619 FILLER_11_15
*620 FILLER_11_160
*621 FILLER_11_169
*622 FILLER_11_181
*623 FILLER_11_193
*624 FILLER_11_199
*625 FILLER_11_207
*626 FILLER_11_218
*627 FILLER_11_27
*628 FILLER_11_3
*629 FILLER_11_34
*630 FILLER_11_39
*631 FILLER_11_78
*632 FILLER_11_86
*633 FILLER_11_91
*634 FILLER_12_110
*635 FILLER_12_115
*636 FILLER_12_127
*637 FILLER_12_139
*638 FILLER_12_141
*639 FILLER_12_145
*640 FILLER_12_15
*641 FILLER_12_165
*642 FILLER_12_169
*643 FILLER_12_177
*644 FILLER_12_189
*645 FILLER_12_195
*646 FILLER_12_197
*647 FILLER_12_223
*648 FILLER_12_3
*649 FILLER_12_35
*650 FILLER_12_80
*651 FILLER_12_85
*652 FILLER_12_94
*653 FILLER_13_110
*654 FILLER_13_120
*655 FILLER_13_132
*656 FILLER_13_145
*657 FILLER_13_158
*658 FILLER_13_166
*659 FILLER_13_169
*660 FILLER_13_183
*661 FILLER_13_19
*662 FILLER_13_191
*663 FILLER_13_199
*664 FILLER_13_210
*665 FILLER_13_222
*666 FILLER_13_3
*667 FILLER_13_38
*668 FILLER_13_50
*669 FILLER_13_57
*670 FILLER_13_69
*671 FILLER_13_97
*672 FILLER_14_105
*673 FILLER_14_11
*674 FILLER_14_119
*675 FILLER_14_131
*676 FILLER_14_154
*677 FILLER_14_166
*678 FILLER_14_182
*679 FILLER_14_187
*680 FILLER_14_197
*681 FILLER_14_21
*682 FILLER_14_217
*683 FILLER_14_27
*684 FILLER_14_3
*685 FILLER_14_37
*686 FILLER_14_49
*687 FILLER_14_61
*688 FILLER_14_73
*689 FILLER_14_81
*690 FILLER_14_85
*691 FILLER_14_97
*692 FILLER_15_109
*693 FILLER_15_120
*694 FILLER_15_132
*695 FILLER_15_147
*696 FILLER_15_15
*697 FILLER_15_159
*698 FILLER_15_167
*699 FILLER_15_169
*700 FILLER_15_181
*701 FILLER_15_215
*702 FILLER_15_223
*703 FILLER_15_27
*704 FILLER_15_3
*705 FILLER_15_35
*706 FILLER_15_47
*707 FILLER_15_55
*708 FILLER_15_73
*709 FILLER_15_85
*710 FILLER_15_97
*711 FILLER_16_102
*712 FILLER_16_110
*713 FILLER_16_127
*714 FILLER_16_139
*715 FILLER_16_141
*716 FILLER_16_15
*717 FILLER_16_153
*718 FILLER_16_159
*719 FILLER_16_173
*720 FILLER_16_185
*721 FILLER_16_193
*722 FILLER_16_209
*723 FILLER_16_217
*724 FILLER_16_223
*725 FILLER_16_27
*726 FILLER_16_29
*727 FILLER_16_3
*728 FILLER_16_47
*729 FILLER_16_69
*730 FILLER_16_7
*731 FILLER_16_79
*732 FILLER_16_83
*733 FILLER_16_85
*734 FILLER_17_101
*735 FILLER_17_105
*736 FILLER_17_111
*737 FILLER_17_116
*738 FILLER_17_134
*739 FILLER_17_146
*740 FILLER_17_164
*741 FILLER_17_169
*742 FILLER_17_17
*743 FILLER_17_181
*744 FILLER_17_193
*745 FILLER_17_201
*746 FILLER_17_208
*747 FILLER_17_220
*748 FILLER_17_29
*749 FILLER_17_62
*750 FILLER_17_89
*751 FILLER_18_104
*752 FILLER_18_109
*753 FILLER_18_123
*754 FILLER_18_130
*755 FILLER_18_138
*756 FILLER_18_141
*757 FILLER_18_15
*758 FILLER_18_153
*759 FILLER_18_161
*760 FILLER_18_175
*761 FILLER_18_194
*762 FILLER_18_197
*763 FILLER_18_218
*764 FILLER_18_27
*765 FILLER_18_3
*766 FILLER_18_41
*767 FILLER_18_60
*768 FILLER_18_68
*769 FILLER_18_75
*770 FILLER_18_83
*771 FILLER_18_85
*772 FILLER_18_92
*773 FILLER_19_102
*774 FILLER_19_110
*775 FILLER_19_118
*776 FILLER_19_122
*777 FILLER_19_134
*778 FILLER_19_142
*779 FILLER_19_155
*780 FILLER_19_163
*781 FILLER_19_176
*782 FILLER_19_188
*783 FILLER_19_192
*784 FILLER_19_217
*785 FILLER_19_223
*786 FILLER_19_27
*787 FILLER_19_3
*788 FILLER_19_35
*789 FILLER_19_52
*790 FILLER_19_57
*791 FILLER_19_84
*792 FILLER_19_96
*793 FILLER_1_105
*794 FILLER_1_111
*795 FILLER_1_113
*796 FILLER_1_125
*797 FILLER_1_137
*798 FILLER_1_149
*799 FILLER_1_15
*800 FILLER_1_161
*801 FILLER_1_167
*802 FILLER_1_169
*803 FILLER_1_181
*804 FILLER_1_193
*805 FILLER_1_205
*806 FILLER_1_217
*807 FILLER_1_223
*808 FILLER_1_27
*809 FILLER_1_3
*810 FILLER_1_39
*811 FILLER_1_51
*812 FILLER_1_55
*813 FILLER_1_57
*814 FILLER_1_69
*815 FILLER_1_81
*816 FILLER_1_93
*817 FILLER_20_109
*818 FILLER_20_122
*819 FILLER_20_134
*820 FILLER_20_141
*821 FILLER_20_15
*822 FILLER_20_164
*823 FILLER_20_176
*824 FILLER_20_188
*825 FILLER_20_200
*826 FILLER_20_209
*827 FILLER_20_221
*828 FILLER_20_29
*829 FILLER_20_3
*830 FILLER_20_37
*831 FILLER_20_43
*832 FILLER_20_55
*833 FILLER_20_63
*834 FILLER_20_74
*835 FILLER_20_82
*836 FILLER_20_85
*837 FILLER_20_97
*838 FILLER_21_105
*839 FILLER_21_11
*840 FILLER_21_113
*841 FILLER_21_126
*842 FILLER_21_138
*843 FILLER_21_142
*844 FILLER_21_148
*845 FILLER_21_155
*846 FILLER_21_167
*847 FILLER_21_169
*848 FILLER_21_177
*849 FILLER_21_191
*850 FILLER_21_203
*851 FILLER_21_215
*852 FILLER_21_223
*853 FILLER_21_23
*854 FILLER_21_3
*855 FILLER_21_52
*856 FILLER_21_57
*857 FILLER_21_68
*858 FILLER_21_77
*859 FILLER_21_83
*860 FILLER_21_91
*861 FILLER_21_98
*862 FILLER_22_103
*863 FILLER_22_141
*864 FILLER_22_145
*865 FILLER_22_151
*866 FILLER_22_16
*867 FILLER_22_165
*868 FILLER_22_177
*869 FILLER_22_189
*870 FILLER_22_195
*871 FILLER_22_206
*872 FILLER_22_213
*873 FILLER_22_221
*874 FILLER_22_25
*875 FILLER_22_29
*876 FILLER_22_3
*877 FILLER_22_41
*878 FILLER_22_47
*879 FILLER_22_59
*880 FILLER_22_69
*881 FILLER_22_75
*882 FILLER_22_91
*883 FILLER_23_108
*884 FILLER_23_117
*885 FILLER_23_129
*886 FILLER_23_167
*887 FILLER_23_172
*888 FILLER_23_180
*889 FILLER_23_187
*890 FILLER_23_195
*891 FILLER_23_200
*892 FILLER_23_206
*893 FILLER_23_211
*894 FILLER_23_22
*895 FILLER_23_223
*896 FILLER_23_3
*897 FILLER_23_34
*898 FILLER_23_46
*899 FILLER_23_54
*900 FILLER_23_57
*901 FILLER_23_62
*902 FILLER_23_70
*903 FILLER_23_86
*904 FILLER_23_92
*905 FILLER_23_96
*906 FILLER_24_105
*907 FILLER_24_117
*908 FILLER_24_129
*909 FILLER_24_137
*910 FILLER_24_141
*911 FILLER_24_151
*912 FILLER_24_155
*913 FILLER_24_174
*914 FILLER_24_195
*915 FILLER_24_202
*916 FILLER_24_223
*917 FILLER_24_29
*918 FILLER_24_3
*919 FILLER_24_41
*920 FILLER_24_50
*921 FILLER_24_54
*922 FILLER_24_69
*923 FILLER_24_75
*924 FILLER_24_83
*925 FILLER_24_85
*926 FILLER_24_89
*927 FILLER_24_9
*928 FILLER_24_97
*929 FILLER_25_11
*930 FILLER_25_117
*931 FILLER_25_121
*932 FILLER_25_129
*933 FILLER_25_141
*934 FILLER_25_154
*935 FILLER_25_166
*936 FILLER_25_169
*937 FILLER_25_181
*938 FILLER_25_192
*939 FILLER_25_208
*940 FILLER_25_214
*941 FILLER_25_222
*942 FILLER_25_3
*943 FILLER_25_52
*944 FILLER_25_79
*945 FILLER_25_91
*946 FILLER_25_95
*947 FILLER_26_115
*948 FILLER_26_134
*949 FILLER_26_153
*950 FILLER_26_165
*951 FILLER_26_177
*952 FILLER_26_181
*953 FILLER_26_190
*954 FILLER_26_197
*955 FILLER_26_209
*956 FILLER_26_22
*957 FILLER_26_221
*958 FILLER_26_29
*959 FILLER_26_49
*960 FILLER_26_6
*961 FILLER_26_83
*962 FILLER_26_85
*963 FILLER_27_101
*964 FILLER_27_109
*965 FILLER_27_113
*966 FILLER_27_125
*967 FILLER_27_142
*968 FILLER_27_154
*969 FILLER_27_166
*970 FILLER_27_169
*971 FILLER_27_181
*972 FILLER_27_188
*973 FILLER_27_193
*974 FILLER_27_205
*975 FILLER_27_219
*976 FILLER_27_223
*977 FILLER_27_29
*978 FILLER_27_3
*979 FILLER_27_35
*980 FILLER_27_39
*981 FILLER_27_57
*982 FILLER_27_69
*983 FILLER_27_81
*984 FILLER_27_89
*985 FILLER_28_102
*986 FILLER_28_114
*987 FILLER_28_126
*988 FILLER_28_132
*989 FILLER_28_136
*990 FILLER_28_141
*991 FILLER_28_149
*992 FILLER_28_173
*993 FILLER_28_194
*994 FILLER_28_203
*995 FILLER_28_208
*996 FILLER_28_216
*997 FILLER_28_3
*998 FILLER_28_32
*999 FILLER_28_40
*1000 FILLER_28_53
*1001 FILLER_28_65
*1002 FILLER_28_76
*1003 FILLER_28_85
*1004 FILLER_29_105
*1005 FILLER_29_11
*1006 FILLER_29_111
*1007 FILLER_29_113
*1008 FILLER_29_125
*1009 FILLER_29_131
*1010 FILLER_29_143
*1011 FILLER_29_151
*1012 FILLER_29_167
*1013 FILLER_29_169
*1014 FILLER_29_188
*1015 FILLER_29_19
*1016 FILLER_29_200
*1017 FILLER_29_220
*1018 FILLER_29_3
*1019 FILLER_29_31
*1020 FILLER_29_46
*1021 FILLER_29_54
*1022 FILLER_29_57
*1023 FILLER_29_69
*1024 FILLER_29_81
*1025 FILLER_29_93
*1026 FILLER_2_109
*1027 FILLER_2_121
*1028 FILLER_2_133
*1029 FILLER_2_139
*1030 FILLER_2_141
*1031 FILLER_2_15
*1032 FILLER_2_153
*1033 FILLER_2_165
*1034 FILLER_2_177
*1035 FILLER_2_189
*1036 FILLER_2_195
*1037 FILLER_2_197
*1038 FILLER_2_209
*1039 FILLER_2_221
*1040 FILLER_2_27
*1041 FILLER_2_29
*1042 FILLER_2_3
*1043 FILLER_2_41
*1044 FILLER_2_53
*1045 FILLER_2_65
*1046 FILLER_2_77
*1047 FILLER_2_83
*1048 FILLER_2_85
*1049 FILLER_2_97
*1050 FILLER_30_104
*1051 FILLER_30_112
*1052 FILLER_30_120
*1053 FILLER_30_124
*1054 FILLER_30_137
*1055 FILLER_30_141
*1056 FILLER_30_151
*1057 FILLER_30_157
*1058 FILLER_30_162
*1059 FILLER_30_174
*1060 FILLER_30_186
*1061 FILLER_30_194
*1062 FILLER_30_197
*1063 FILLER_30_29
*1064 FILLER_30_55
*1065 FILLER_30_67
*1066 FILLER_30_81
*1067 FILLER_30_85
*1068 FILLER_30_93
*1069 FILLER_31_111
*1070 FILLER_31_113
*1071 FILLER_31_123
*1072 FILLER_31_129
*1073 FILLER_31_135
*1074 FILLER_31_139
*1075 FILLER_31_15
*1076 FILLER_31_160
*1077 FILLER_31_169
*1078 FILLER_31_183
*1079 FILLER_31_195
*1080 FILLER_31_211
*1081 FILLER_31_27
*1082 FILLER_31_3
*1083 FILLER_31_39
*1084 FILLER_31_57
*1085 FILLER_31_63
*1086 FILLER_31_87
*1087 FILLER_32_109
*1088 FILLER_32_11
*1089 FILLER_32_119
*1090 FILLER_32_139
*1091 FILLER_32_141
*1092 FILLER_32_153
*1093 FILLER_32_166
*1094 FILLER_32_172
*1095 FILLER_32_178
*1096 FILLER_32_185
*1097 FILLER_32_205
*1098 FILLER_32_217
*1099 FILLER_32_23
*1100 FILLER_32_27
*1101 FILLER_32_29
*1102 FILLER_32_3
*1103 FILLER_32_41
*1104 FILLER_32_51
*1105 FILLER_32_70
*1106 FILLER_32_75
*1107 FILLER_32_83
*1108 FILLER_32_85
*1109 FILLER_32_97
*1110 FILLER_33_105
*1111 FILLER_33_111
*1112 FILLER_33_113
*1113 FILLER_33_125
*1114 FILLER_33_13
*1115 FILLER_33_137
*1116 FILLER_33_149
*1117 FILLER_33_191
*1118 FILLER_33_203
*1119 FILLER_33_216
*1120 FILLER_33_23
*1121 FILLER_33_27
*1122 FILLER_33_3
*1123 FILLER_33_39
*1124 FILLER_33_48
*1125 FILLER_33_57
*1126 FILLER_33_69
*1127 FILLER_33_81
*1128 FILLER_33_93
*1129 FILLER_34_103
*1130 FILLER_34_115
*1131 FILLER_34_129
*1132 FILLER_34_14
*1133 FILLER_34_150
*1134 FILLER_34_160
*1135 FILLER_34_168
*1136 FILLER_34_173
*1137 FILLER_34_185
*1138 FILLER_34_193
*1139 FILLER_34_197
*1140 FILLER_34_209
*1141 FILLER_34_21
*1142 FILLER_34_221
*1143 FILLER_34_27
*1144 FILLER_34_29
*1145 FILLER_34_3
*1146 FILLER_34_41
*1147 FILLER_34_53
*1148 FILLER_34_65
*1149 FILLER_34_73
*1150 FILLER_34_79
*1151 FILLER_34_83
*1152 FILLER_34_85
*1153 FILLER_34_89
*1154 FILLER_35_108
*1155 FILLER_35_113
*1156 FILLER_35_150
*1157 FILLER_35_164
*1158 FILLER_35_169
*1159 FILLER_35_177
*1160 FILLER_35_185
*1161 FILLER_35_197
*1162 FILLER_35_209
*1163 FILLER_35_213
*1164 FILLER_35_217
*1165 FILLER_35_223
*1166 FILLER_35_26
*1167 FILLER_35_30
*1168 FILLER_35_51
*1169 FILLER_35_55
*1170 FILLER_35_57
*1171 FILLER_35_6
*1172 FILLER_35_82
*1173 FILLER_35_94
*1174 FILLER_36_105
*1175 FILLER_36_111
*1176 FILLER_36_121
*1177 FILLER_36_138
*1178 FILLER_36_161
*1179 FILLER_36_174
*1180 FILLER_36_184
*1181 FILLER_36_19
*1182 FILLER_36_195
*1183 FILLER_36_197
*1184 FILLER_36_201
*1185 FILLER_36_216
*1186 FILLER_36_29
*1187 FILLER_36_3
*1188 FILLER_36_47
*1189 FILLER_36_55
*1190 FILLER_36_63
*1191 FILLER_36_71
*1192 FILLER_36_83
*1193 FILLER_36_85
*1194 FILLER_36_89
*1195 FILLER_36_99
*1196 FILLER_37_107
*1197 FILLER_37_113
*1198 FILLER_37_15
*1199 FILLER_37_179
*1200 FILLER_37_191
*1201 FILLER_37_195
*1202 FILLER_37_197
*1203 FILLER_37_208
*1204 FILLER_37_220
*1205 FILLER_37_23
*1206 FILLER_37_29
*1207 FILLER_37_3
*1208 FILLER_37_36
*1209 FILLER_37_43
*1210 FILLER_37_55
*1211 FILLER_37_57
*1212 FILLER_37_69
*1213 FILLER_37_77
*1214 FILLER_37_83
*1215 FILLER_37_85
*1216 FILLER_37_90
*1217 FILLER_37_98
*1218 FILLER_3_105
*1219 FILLER_3_111
*1220 FILLER_3_113
*1221 FILLER_3_125
*1222 FILLER_3_137
*1223 FILLER_3_149
*1224 FILLER_3_15
*1225 FILLER_3_161
*1226 FILLER_3_167
*1227 FILLER_3_169
*1228 FILLER_3_181
*1229 FILLER_3_193
*1230 FILLER_3_205
*1231 FILLER_3_217
*1232 FILLER_3_223
*1233 FILLER_3_27
*1234 FILLER_3_3
*1235 FILLER_3_39
*1236 FILLER_3_51
*1237 FILLER_3_55
*1238 FILLER_3_57
*1239 FILLER_3_69
*1240 FILLER_3_81
*1241 FILLER_3_93
*1242 FILLER_4_109
*1243 FILLER_4_132
*1244 FILLER_4_148
*1245 FILLER_4_15
*1246 FILLER_4_160
*1247 FILLER_4_172
*1248 FILLER_4_184
*1249 FILLER_4_197
*1250 FILLER_4_209
*1251 FILLER_4_221
*1252 FILLER_4_27
*1253 FILLER_4_29
*1254 FILLER_4_3
*1255 FILLER_4_41
*1256 FILLER_4_53
*1257 FILLER_4_65
*1258 FILLER_4_77
*1259 FILLER_4_83
*1260 FILLER_4_85
*1261 FILLER_4_97
*1262 FILLER_5_123
*1263 FILLER_5_143
*1264 FILLER_5_15
*1265 FILLER_5_155
*1266 FILLER_5_166
*1267 FILLER_5_169
*1268 FILLER_5_181
*1269 FILLER_5_193
*1270 FILLER_5_205
*1271 FILLER_5_217
*1272 FILLER_5_223
*1273 FILLER_5_27
*1274 FILLER_5_3
*1275 FILLER_5_39
*1276 FILLER_5_51
*1277 FILLER_5_55
*1278 FILLER_5_57
*1279 FILLER_5_69
*1280 FILLER_5_77
*1281 FILLER_5_85
*1282 FILLER_5_97
*1283 FILLER_6_104
*1284 FILLER_6_114
*1285 FILLER_6_126
*1286 FILLER_6_134
*1287 FILLER_6_146
*1288 FILLER_6_15
*1289 FILLER_6_158
*1290 FILLER_6_170
*1291 FILLER_6_176
*1292 FILLER_6_184
*1293 FILLER_6_194
*1294 FILLER_6_197
*1295 FILLER_6_209
*1296 FILLER_6_221
*1297 FILLER_6_27
*1298 FILLER_6_29
*1299 FILLER_6_3
*1300 FILLER_6_41
*1301 FILLER_6_53
*1302 FILLER_6_65
*1303 FILLER_6_92
*1304 FILLER_7_109
*1305 FILLER_7_113
*1306 FILLER_7_121
*1307 FILLER_7_127
*1308 FILLER_7_139
*1309 FILLER_7_15
*1310 FILLER_7_151
*1311 FILLER_7_163
*1312 FILLER_7_187
*1313 FILLER_7_199
*1314 FILLER_7_211
*1315 FILLER_7_223
*1316 FILLER_7_27
*1317 FILLER_7_3
*1318 FILLER_7_39
*1319 FILLER_7_52
*1320 FILLER_7_64
*1321 FILLER_7_69
*1322 FILLER_7_81
*1323 FILLER_7_97
*1324 FILLER_8_109
*1325 FILLER_8_113
*1326 FILLER_8_130
*1327 FILLER_8_138
*1328 FILLER_8_141
*1329 FILLER_8_15
*1330 FILLER_8_153
*1331 FILLER_8_166
*1332 FILLER_8_178
*1333 FILLER_8_187
*1334 FILLER_8_195
*1335 FILLER_8_197
*1336 FILLER_8_203
*1337 FILLER_8_223
*1338 FILLER_8_27
*1339 FILLER_8_29
*1340 FILLER_8_3
*1341 FILLER_8_41
*1342 FILLER_8_45
*1343 FILLER_8_56
*1344 FILLER_8_72
*1345 FILLER_8_97
*1346 FILLER_9_101
*1347 FILLER_9_109
*1348 FILLER_9_113
*1349 FILLER_9_117
*1350 FILLER_9_134
*1351 FILLER_9_146
*1352 FILLER_9_15
*1353 FILLER_9_161
*1354 FILLER_9_167
*1355 FILLER_9_177
*1356 FILLER_9_189
*1357 FILLER_9_193
*1358 FILLER_9_203
*1359 FILLER_9_210
*1360 FILLER_9_218
*1361 FILLER_9_27
*1362 FILLER_9_3
*1363 FILLER_9_39
*1364 FILLER_9_48
*1365 FILLER_9_57
*1366 FILLER_9_67
*1367 FILLER_9_73
*1368 FILLER_9_85
*1369 PHY_EDGE_ROW_0_Left_38
*1370 PHY_EDGE_ROW_0_Right_0
*1371 PHY_EDGE_ROW_10_Left_48
*1372 PHY_EDGE_ROW_10_Right_10
*1373 PHY_EDGE_ROW_11_Left_49
*1374 PHY_EDGE_ROW_11_Right_11
*1375 PHY_EDGE_ROW_12_Left_50
*1376 PHY_EDGE_ROW_12_Right_12
*1377 PHY_EDGE_ROW_13_Left_51
*1378 PHY_EDGE_ROW_13_Right_13
*1379 PHY_EDGE_ROW_14_Left_52
*1380 PHY_EDGE_ROW_14_Right_14
*1381 PHY_EDGE_ROW_15_Left_53
*1382 PHY_EDGE_ROW_15_Right_15
*1383 PHY_EDGE_ROW_16_Left_54
*1384 PHY_EDGE_ROW_16_Right_16
*1385 PHY_EDGE_ROW_17_Left_55
*1386 PHY_EDGE_ROW_17_Right_17
*1387 PHY_EDGE_ROW_18_Left_56
*1388 PHY_EDGE_ROW_18_Right_18
*1389 PHY_EDGE_ROW_19_Left_57
*1390 PHY_EDGE_ROW_19_Right_19
*1391 PHY_EDGE_ROW_1_Left_39
*1392 PHY_EDGE_ROW_1_Right_1
*1393 PHY_EDGE_ROW_20_Left_58
*1394 PHY_EDGE_ROW_20_Right_20
*1395 PHY_EDGE_ROW_21_Left_59
*1396 PHY_EDGE_ROW_21_Right_21
*1397 PHY_EDGE_ROW_22_Left_60
*1398 PHY_EDGE_ROW_22_Right_22
*1399 PHY_EDGE_ROW_23_Left_61
*1400 PHY_EDGE_ROW_23_Right_23
*1401 PHY_EDGE_ROW_24_Left_62
*1402 PHY_EDGE_ROW_24_Right_24
*1403 PHY_EDGE_ROW_25_Left_63
*1404 PHY_EDGE_ROW_25_Right_25
*1405 PHY_EDGE_ROW_26_Left_64
*1406 PHY_EDGE_ROW_26_Right_26
*1407 PHY_EDGE_ROW_27_Left_65
*1408 PHY_EDGE_ROW_27_Right_27
*1409 PHY_EDGE_ROW_28_Left_66
*1410 PHY_EDGE_ROW_28_Right_28
*1411 PHY_EDGE_ROW_29_Left_67
*1412 PHY_EDGE_ROW_29_Right_29
*1413 PHY_EDGE_ROW_2_Left_40
*1414 PHY_EDGE_ROW_2_Right_2
*1415 PHY_EDGE_ROW_30_Left_68
*1416 PHY_EDGE_ROW_30_Right_30
*1417 PHY_EDGE_ROW_31_Left_69
*1418 PHY_EDGE_ROW_31_Right_31
*1419 PHY_EDGE_ROW_32_Left_70
*1420 PHY_EDGE_ROW_32_Right_32
*1421 PHY_EDGE_ROW_33_Left_71
*1422 PHY_EDGE_ROW_33_Right_33
*1423 PHY_EDGE_ROW_34_Left_72
*1424 PHY_EDGE_ROW_34_Right_34
*1425 PHY_EDGE_ROW_35_Left_73
*1426 PHY_EDGE_ROW_35_Right_35
*1427 PHY_EDGE_ROW_36_Left_74
*1428 PHY_EDGE_ROW_36_Right_36
*1429 PHY_EDGE_ROW_37_Left_75
*1430 PHY_EDGE_ROW_37_Right_37
*1431 PHY_EDGE_ROW_3_Left_41
*1432 PHY_EDGE_ROW_3_Right_3
*1433 PHY_EDGE_ROW_4_Left_42
*1434 PHY_EDGE_ROW_4_Right_4
*1435 PHY_EDGE_ROW_5_Left_43
*1436 PHY_EDGE_ROW_5_Right_5
*1437 PHY_EDGE_ROW_6_Left_44
*1438 PHY_EDGE_ROW_6_Right_6
*1439 PHY_EDGE_ROW_7_Left_45
*1440 PHY_EDGE_ROW_7_Right_7
*1441 PHY_EDGE_ROW_8_Left_46
*1442 PHY_EDGE_ROW_8_Right_8
*1443 PHY_EDGE_ROW_9_Left_47
*1444 PHY_EDGE_ROW_9_Right_9
*1445 TAP_TAPCELL_ROW_0_76
*1446 TAP_TAPCELL_ROW_0_77
*1447 TAP_TAPCELL_ROW_0_78
*1448 TAP_TAPCELL_ROW_0_79
*1449 TAP_TAPCELL_ROW_0_80
*1450 TAP_TAPCELL_ROW_0_81
*1451 TAP_TAPCELL_ROW_0_82
*1452 TAP_TAPCELL_ROW_10_114
*1453 TAP_TAPCELL_ROW_10_115
*1454 TAP_TAPCELL_ROW_10_116
*1455 TAP_TAPCELL_ROW_10_117
*1456 TAP_TAPCELL_ROW_11_118
*1457 TAP_TAPCELL_ROW_11_119
*1458 TAP_TAPCELL_ROW_11_120
*1459 TAP_TAPCELL_ROW_12_121
*1460 TAP_TAPCELL_ROW_12_122
*1461 TAP_TAPCELL_ROW_12_123
*1462 TAP_TAPCELL_ROW_12_124
*1463 TAP_TAPCELL_ROW_13_125
*1464 TAP_TAPCELL_ROW_13_126
*1465 TAP_TAPCELL_ROW_13_127
*1466 TAP_TAPCELL_ROW_14_128
*1467 TAP_TAPCELL_ROW_14_129
*1468 TAP_TAPCELL_ROW_14_130
*1469 TAP_TAPCELL_ROW_14_131
*1470 TAP_TAPCELL_ROW_15_132
*1471 TAP_TAPCELL_ROW_15_133
*1472 TAP_TAPCELL_ROW_15_134
*1473 TAP_TAPCELL_ROW_16_135
*1474 TAP_TAPCELL_ROW_16_136
*1475 TAP_TAPCELL_ROW_16_137
*1476 TAP_TAPCELL_ROW_16_138
*1477 TAP_TAPCELL_ROW_17_139
*1478 TAP_TAPCELL_ROW_17_140
*1479 TAP_TAPCELL_ROW_17_141
*1480 TAP_TAPCELL_ROW_18_142
*1481 TAP_TAPCELL_ROW_18_143
*1482 TAP_TAPCELL_ROW_18_144
*1483 TAP_TAPCELL_ROW_18_145
*1484 TAP_TAPCELL_ROW_19_146
*1485 TAP_TAPCELL_ROW_19_147
*1486 TAP_TAPCELL_ROW_19_148
*1487 TAP_TAPCELL_ROW_1_83
*1488 TAP_TAPCELL_ROW_1_84
*1489 TAP_TAPCELL_ROW_1_85
*1490 TAP_TAPCELL_ROW_20_149
*1491 TAP_TAPCELL_ROW_20_150
*1492 TAP_TAPCELL_ROW_20_151
*1493 TAP_TAPCELL_ROW_20_152
*1494 TAP_TAPCELL_ROW_21_153
*1495 TAP_TAPCELL_ROW_21_154
*1496 TAP_TAPCELL_ROW_21_155
*1497 TAP_TAPCELL_ROW_22_156
*1498 TAP_TAPCELL_ROW_22_157
*1499 TAP_TAPCELL_ROW_22_158
*1500 TAP_TAPCELL_ROW_22_159
*1501 TAP_TAPCELL_ROW_23_160
*1502 TAP_TAPCELL_ROW_23_161
*1503 TAP_TAPCELL_ROW_23_162
*1504 TAP_TAPCELL_ROW_24_163
*1505 TAP_TAPCELL_ROW_24_164
*1506 TAP_TAPCELL_ROW_24_165
*1507 TAP_TAPCELL_ROW_24_166
*1508 TAP_TAPCELL_ROW_25_167
*1509 TAP_TAPCELL_ROW_25_168
*1510 TAP_TAPCELL_ROW_25_169
*1511 TAP_TAPCELL_ROW_26_170
*1512 TAP_TAPCELL_ROW_26_171
*1513 TAP_TAPCELL_ROW_26_172
*1514 TAP_TAPCELL_ROW_26_173
*1515 TAP_TAPCELL_ROW_27_174
*1516 TAP_TAPCELL_ROW_27_175
*1517 TAP_TAPCELL_ROW_27_176
*1518 TAP_TAPCELL_ROW_28_177
*1519 TAP_TAPCELL_ROW_28_178
*1520 TAP_TAPCELL_ROW_28_179
*1521 TAP_TAPCELL_ROW_28_180
*1522 TAP_TAPCELL_ROW_29_181
*1523 TAP_TAPCELL_ROW_29_182
*1524 TAP_TAPCELL_ROW_29_183
*1525 TAP_TAPCELL_ROW_2_86
*1526 TAP_TAPCELL_ROW_2_87
*1527 TAP_TAPCELL_ROW_2_88
*1528 TAP_TAPCELL_ROW_2_89
*1529 TAP_TAPCELL_ROW_30_184
*1530 TAP_TAPCELL_ROW_30_185
*1531 TAP_TAPCELL_ROW_30_186
*1532 TAP_TAPCELL_ROW_30_187
*1533 TAP_TAPCELL_ROW_31_188
*1534 TAP_TAPCELL_ROW_31_189
*1535 TAP_TAPCELL_ROW_31_190
*1536 TAP_TAPCELL_ROW_32_191
*1537 TAP_TAPCELL_ROW_32_192
*1538 TAP_TAPCELL_ROW_32_193
*1539 TAP_TAPCELL_ROW_32_194
*1540 TAP_TAPCELL_ROW_33_195
*1541 TAP_TAPCELL_ROW_33_196
*1542 TAP_TAPCELL_ROW_33_197
*1543 TAP_TAPCELL_ROW_34_198
*1544 TAP_TAPCELL_ROW_34_199
*1545 TAP_TAPCELL_ROW_34_200
*1546 TAP_TAPCELL_ROW_34_201
*1547 TAP_TAPCELL_ROW_35_202
*1548 TAP_TAPCELL_ROW_35_203
*1549 TAP_TAPCELL_ROW_35_204
*1550 TAP_TAPCELL_ROW_36_205
*1551 TAP_TAPCELL_ROW_36_206
*1552 TAP_TAPCELL_ROW_36_207
*1553 TAP_TAPCELL_ROW_36_208
*1554 TAP_TAPCELL_ROW_37_209
*1555 TAP_TAPCELL_ROW_37_210
*1556 TAP_TAPCELL_ROW_37_211
*1557 TAP_TAPCELL_ROW_37_212
*1558 TAP_TAPCELL_ROW_37_213
*1559 TAP_TAPCELL_ROW_37_214
*1560 TAP_TAPCELL_ROW_37_215
*1561 TAP_TAPCELL_ROW_3_90
*1562 TAP_TAPCELL_ROW_3_91
*1563 TAP_TAPCELL_ROW_3_92
*1564 TAP_TAPCELL_ROW_4_93
*1565 TAP_TAPCELL_ROW_4_94
*1566 TAP_TAPCELL_ROW_4_95
*1567 TAP_TAPCELL_ROW_4_96
*1568 TAP_TAPCELL_ROW_5_97
*1569 TAP_TAPCELL_ROW_5_98
*1570 TAP_TAPCELL_ROW_5_99
*1571 TAP_TAPCELL_ROW_6_100
*1572 TAP_TAPCELL_ROW_6_101
*1573 TAP_TAPCELL_ROW_6_102
*1574 TAP_TAPCELL_ROW_6_103
*1575 TAP_TAPCELL_ROW_7_104
*1576 TAP_TAPCELL_ROW_7_105
*1577 TAP_TAPCELL_ROW_7_106
*1578 TAP_TAPCELL_ROW_8_107
*1579 TAP_TAPCELL_ROW_8_108
*1580 TAP_TAPCELL_ROW_8_109
*1581 TAP_TAPCELL_ROW_8_110
*1582 TAP_TAPCELL_ROW_9_111
*1583 TAP_TAPCELL_ROW_9_112
*1584 TAP_TAPCELL_ROW_9_113
*1585 _458_
*1586 _459_
*1587 _460_
*1588 _461_
*1589 _462_
*1590 _463_
*1591 _464_
*1592 _465_
*1593 _466_
*1594 _467_
*1595 _468_
*1596 _469_
*1597 _470_
*1598 _471_
*1599 _472_
*1600 _473_
*1601 _474_
*1602 _475_
*1603 _476_
*1604 _477_
*1605 _478_
*1606 _479_
*1607 _480_
*1608 _481_
*1609 _482_
*1610 _483_
*1611 _484_
*1612 _485_
*1613 _486_
*1614 _487_
*1615 _488_
*1616 _489_
*1617 _490_
*1618 _491_
*1619 _492_
*1620 _493_
*1621 _494_
*1622 _495_
*1623 _496_
*1624 _497_
*1625 _498_
*1626 _499_
*1627 _500_
*1628 _501_
*1629 _502_
*1630 _503_
*1631 _504_
*1632 _505_
*1633 _506_
*1634 _507_
*1635 _508_
*1636 _509_
*1637 _510_
*1638 _511_
*1639 _512_
*1640 _513_
*1641 _514_
*1642 _515_
*1643 _516_
*1644 _517_
*1645 _518_
*1646 _519_
*1647 _520_
*1648 _521_
*1649 _522_
*1650 _523_
*1651 _524_
*1652 _525_
*1653 _526_
*1654 _527_
*1655 _528_
*1656 _529_
*1657 _530_
*1658 _531_
*1659 _532_
*1660 _533_
*1661 _534_
*1662 _535_
*1663 _536_
*1664 _537_
*1665 _538_
*1666 _539_
*1667 _540_
*1668 _541_
*1669 _542_
*1670 _543_
*1671 _544_
*1672 _545_
*1673 _546_
*1674 _547_
*1675 _548_
*1676 _549_
*1677 _550_
*1678 _551_
*1679 _552_
*1680 _553_
*1681 _554_
*1682 _555_
*1683 _556_
*1684 _557_
*1685 _558_
*1686 _559_
*1687 _560_
*1688 _561_
*1689 _562_
*1690 _563_
*1691 _564_
*1692 _565_
*1693 _566_
*1694 _567_
*1695 _568_
*1696 _569_
*1697 _570_
*1698 _571_
*1699 _572_
*1700 _573_
*1701 _574_
*1702 _575_
*1703 _576_
*1704 _577_
*1705 _578_
*1706 _579_
*1707 _580_
*1708 _581_
*1709 _582_
*1710 _583_
*1711 _584_
*1712 _585_
*1713 _586_
*1714 _587_
*1715 _588_
*1716 _589_
*1717 _590_
*1718 _591_
*1719 _592_
*1720 _593_
*1721 _594_
*1722 _595_
*1723 _596_
*1724 _597_
*1725 _598_
*1726 _599_
*1727 _600_
*1728 _601_
*1729 _602_
*1730 _603_
*1731 _604_
*1732 _605_
*1733 _606_
*1734 _607_
*1735 _608_
*1736 _609_
*1737 _610_
*1738 _611_
*1739 _612_
*1740 _613_
*1741 _614_
*1742 _615_
*1743 _616_
*1744 _617_
*1745 _618_
*1746 _619_
*1747 _620_
*1748 _621_
*1749 _622_
*1750 _623_
*1751 _624_
*1752 _625_
*1753 _626_
*1754 _627_
*1755 _628_
*1756 _629_
*1757 _630_
*1758 _631_
*1759 _632_
*1760 _633_
*1761 _634_
*1762 _635_
*1763 _636_
*1764 _637_
*1765 _638_
*1766 _639_
*1767 _640_
*1768 _641_
*1769 _642_
*1770 _643_
*1771 _644_
*1772 _645_
*1773 _646_
*1774 _647_
*1775 _648_
*1776 _649_
*1777 _650_
*1778 _651_
*1779 _652_
*1780 _653_
*1781 _654_
*1782 _655_
*1783 _656_
*1784 _657_
*1785 _658_
*1786 _659_
*1787 _660_
*1788 _661_
*1789 _662_
*1790 _663_
*1791 _664_
*1792 _665_
*1793 _666_
*1794 _667_
*1795 _668_
*1796 _669_
*1797 _670_
*1798 _671_
*1799 _672_
*1800 _673_
*1801 _674_
*1802 _675_
*1803 _676_
*1804 _677_
*1805 _678_
*1806 _679_
*1807 _680_
*1808 _681_
*1809 _682_
*1810 _683_
*1811 _684_
*1812 _685_
*1813 _686_
*1814 _687_
*1815 _688_
*1816 _689_
*1817 _690_
*1818 _691_
*1819 _692_
*1820 _693_
*1821 _694_
*1822 _695_
*1823 _696_
*1824 _697_
*1825 _698_
*1826 _699_
*1827 _700_
*1828 _701_
*1829 _702_
*1830 _703_
*1831 _704_
*1832 _705_
*1833 _706_
*1834 _707_
*1835 _708_
*1836 _709_
*1837 _710_
*1838 _711_
*1839 _712_
*1840 _713_
*1841 _714_
*1842 _715_
*1843 _716_
*1844 _717_
*1845 _718_
*1846 _719_
*1847 _720_
*1848 _721_
*1849 _722_
*1850 _723_
*1851 _724_
*1852 _725_
*1853 _726_
*1854 _727_
*1855 _728_
*1856 _729_
*1857 _730_
*1858 _731_
*1859 _732_
*1860 _733_
*1861 _734_
*1862 _735_
*1863 _736_
*1864 _737_
*1865 _738_
*1866 _739_
*1867 _740_
*1868 _741_
*1869 _742_
*1870 _743_
*1871 _744_
*1872 _745_
*1873 _746_
*1874 _747_
*1875 _748_
*1876 _749_
*1877 _750_
*1878 _751_
*1879 _752_
*1880 _753_
*1881 _754_
*1882 _755_
*1883 _756_
*1884 _757_
*1885 _758_
*1886 _759_
*1887 _760_
*1888 _761_
*1889 _762_
*1890 _763_
*1891 _764_
*1892 _765_
*1893 _766_
*1894 _767_
*1895 _768_
*1896 _769_
*1897 _770_
*1898 _771_
*1899 _772_
*1900 _773_
*1901 _774_
*1902 _775_
*1903 _776_
*1904 _777_
*1905 _778_
*1906 _779_
*1907 _780_
*1908 _781_
*1909 _782_
*1910 _783_
*1911 _784_
*1912 _785_
*1913 _786_
*1914 _787_
*1915 _788_
*1916 _789_
*1917 _790_
*1918 _791_
*1919 _792_
*1920 _793_
*1921 _794_
*1922 _795_
*1923 _796_
*1924 _797_
*1925 _798_
*1926 _799_
*1927 _800_
*1928 _801_
*1929 _802_
*1930 _803_
*1931 _804_
*1932 _805_
*1933 _806_
*1934 _807_
*1935 _808_
*1936 _809_
*1937 _810_
*1938 _811_
*1939 _812_
*1940 _813_
*1941 _814_
*1942 _815_
*1943 _816_
*1944 _817_
*1945 _818_
*1946 _819_
*1947 _820_
*1948 _821_
*1949 _822_
*1950 _823_
*1951 _824_
*1952 _825_
*1953 _826_
*1954 _827_
*1955 _828_
*1956 _829_
*1957 _830_
*1958 _831_
*1959 _832_
*1960 _833_
*1961 _834_
*1962 _835_
*1963 _836_
*1964 _837_
*1965 _838_
*1966 _839_
*1967 _840_
*1968 _841_
*1969 _842_
*1970 _843_
*1971 _844_
*1972 _845_
*1973 _846_
*1974 _847_
*1975 _848_
*1976 _849_
*1977 _850_
*1978 _851_
*1979 _852_
*1980 _853_
*1981 _854_
*1982 _855_
*1983 _856_
*1984 _857_
*1985 _858_
*1986 _859_
*1987 _860_
*1988 _861_
*1989 _862_
*1990 _863_
*1991 _864_
*1992 _865_
*1993 _866_
*1994 _867_
*1995 _868_
*1996 _869_
*1997 _870_
*1998 _871_
*1999 _872_
*2000 _873_
*2001 _874_
*2002 _875_
*2003 _876_
*2004 _877_
*2005 _878_
*2006 _879_
*2007 _880_
*2008 _881_
*2009 _882_
*2010 _883_
*2011 _884_
*2012 _885_
*2013 _886_
*2014 _887_
*2015 _888_
*2016 _889_
*2017 _890_
*2018 _891_
*2019 _892_
*2020 _893_
*2021 _894_
*2022 _895_
*2023 _896_
*2024 _897_
*2025 _898_
*2026 _899_
*2027 _900_
*2028 _901_
*2029 _902_
*2030 _903_
*2031 _904_
*2032 _905_
*2033 _906_
*2034 _907_
*2035 _908_
*2036 _909_
*2037 _910_
*2038 _911_
*2039 _912_
*2040 _913_
*2041 _914_
*2042 _915_
*2043 _916_
*2044 _917_
*2045 _918_
*2046 _919_
*2047 _920_
*2048 _921_
*2049 _922_
*2050 _923_
*2051 clone10
*2052 clone8
*2053 fanout29
*2054 fanout33
*2055 fanout34
*2056 fanout35
*2057 fanout36
*2058 fanout37
*2059 fanout38
*2060 fanout39
*2061 fanout40
*2062 fanout41
*2063 fanout42
*2064 fanout43
*2065 fanout44
*2066 fanout45
*2067 fanout46
*2068 fanout47
*2069 fanout48
*2070 fanout49
*2071 fanout50
*2072 fanout51
*2073 fanout52
*2074 fanout53
*2075 fanout54
*2076 fanout55
*2077 fanout56
*2078 fanout57
*2079 fanout58
*2080 fanout59
*2081 fanout60
*2082 fanout61
*2083 fanout62
*2084 fanout63
*2085 fanout64
*2086 fanout65
*2087 fanout66
*2088 fanout67
*2089 fanout68
*2090 fanout69
*2091 input1
*2092 input10
*2093 input11
*2094 input12
*2095 input13
*2096 input14
*2097 input15
*2098 input16
*2099 input17
*2100 input18
*2101 input19
*2102 input2
*2103 input20
*2104 input3
*2105 input4
*2106 input5
*2107 input6
*2108 input7
*2109 input8
*2110 input9
*2111 max_cap30
*2112 max_cap31
*2113 output21
*2114 output22
*2115 output23
*2116 output24
*2117 output25
*2118 output26
*2119 output27
*2120 output28
*2121 rebuffer1
*2122 rebuffer18
*2123 rebuffer2
*2124 rebuffer23
*2125 rebuffer3
*2126 rebuffer4
*2127 rebuffer5
*2128 rebuffer6
*2129 rebuffer7
*2130 rebuffer9
*2131 wire32

*PORTS
inst[0] I
inst[1] I
inst[2] I
inst[3] I
op_a[0] I
op_a[1] I
op_a[2] I
op_a[3] I
op_a[4] I
op_a[5] I
op_a[6] I
op_a[7] I
op_b[0] I
op_b[1] I
op_b[2] I
op_b[3] I
op_b[4] I
op_b[5] I
op_b[6] I
op_b[7] I
op_out[0] O
op_out[1] O
op_out[2] O
op_out[3] O
op_out[4] O
op_out[5] O
op_out[6] O
op_out[7] O

*D_NET *3 0.00148323
*CONN
*P inst[0] I
*I *2091:A I *D sky130_fd_sc_hd__dlymetal6s2s_1
*CAP
1 inst[0] 0.00050601
2 *2091:A 0.00050601
3 *2091:A op_out[1] 0
4 *2091:A *1594:A 7.17136e-05
5 *2091:A *1594:B 7.28437e-05
6 *2091:A *2105:A 0
7 *2091:A *326:18 0.000229456
8 *2091:A *511:51 9.72012e-05
*RES
1 inst[0] *2091:A 25.5321 
*END

*D_NET *4 0.000935472
*CONN
*P inst[1] I
*I *2102:A I *D sky130_fd_sc_hd__dlymetal6s2s_1
*CAP
1 inst[1] 0.000467736
2 *2102:A 0.000467736
3 *2102:A op_out[0] 0
4 *2102:A op_out[3] 0
5 *2102:A *2113:A 0
6 *2102:A *2116:A 0
*RES
1 inst[1] *2102:A 23.05 
*END

*D_NET *5 0.00270681
*CONN
*P inst[2] I
*I *2104:A I *D sky130_fd_sc_hd__buf_2
*CAP
1 inst[2] 0.000681024
2 *2104:A 0.000681024
3 *2104:A op_out[5] 3.48705e-05
4 *2104:A *1595:A_N 3.51442e-05
5 *2104:A *2094:A 0
6 *2104:A *2105:A 0.000622917
7 *2104:A *326:6 0.000186669
8 *2104:A *326:18 5.52238e-05
9 *2104:A *511:8 9.77274e-05
10 *2104:A *522:10 0.000312215
*RES
1 inst[2] *2104:A 31.7107 
*END

*D_NET *6 0.00287477
*CONN
*P inst[3] I
*I *2105:A I *D sky130_fd_sc_hd__buf_1
*CAP
1 inst[3] 0.000714746
2 *2105:A 0.000714746
3 *2105:A op_out[5] 5.62995e-05
4 *2105:A *2094:A 5.71472e-05
5 *2105:A *326:18 9.21719e-05
6 *2105:A *489:21 2.89016e-05
7 *2105:A *511:45 0.000158231
8 *2105:A *511:51 0.000429612
9 *2091:A *2105:A 0
10 *2104:A *2105:A 0.000622917
*RES
1 inst[3] *2105:A 33.2821 
*END

*D_NET *7 0.000593039
*CONN
*P op_a[0] I
*I *2106:A I *D sky130_fd_sc_hd__clkbuf_1
*CAP
1 op_a[0] 0.000226989
2 *2106:A 0.000226989
3 *2106:A *2107:A 7.60209e-05
4 *2106:A *544:18 6.30405e-05
*RES
1 op_a[0] *2106:A 19.8722 
*END

*D_NET *8 0.000631232
*CONN
*P op_a[1] I
*I *2107:A I *D sky130_fd_sc_hd__clkbuf_2
*CAP
1 op_a[1] 0.000239518
2 *2107:A 0.000239518
3 *2107:A *2108:A 0
4 *2107:A *544:18 7.6176e-05
5 *2106:A *2107:A 7.60209e-05
*RES
1 op_a[1] *2107:A 19.6407 
*END

*D_NET *9 0.000527246
*CONN
*P op_a[2] I
*I *2108:A I *D sky130_fd_sc_hd__clkbuf_1
*CAP
1 op_a[2] 0.000226899
2 *2108:A 0.000226899
3 *2108:A *2109:A 7.3448e-05
4 *2108:A *385:23 0
5 *2107:A *2108:A 0
*RES
1 op_a[2] *2108:A 19.2651 
*END

*D_NET *10 0.000718125
*CONN
*P op_a[3] I
*I *2109:A I *D sky130_fd_sc_hd__buf_1
*CAP
1 op_a[3] 0.000239591
2 *2109:A 0.000239591
3 *2109:A *2021:A_N 0.000165494
4 *2109:A *385:23 0
5 *2108:A *2109:A 7.3448e-05
*RES
1 op_a[3] *2109:A 20.1758 
*END

*D_NET *11 0.0008575
*CONN
*P op_a[4] I
*I *2110:A I *D sky130_fd_sc_hd__clkbuf_1
*CAP
1 op_a[4] 0.000414294
2 *2110:A 0.000414294
3 *2110:A *2092:A 0
4 *2110:A *2096:A 0
5 *2110:A *490:10 2.89114e-05
*RES
1 op_a[4] *2110:A 21.8357 
*END

*D_NET *12 0.00087234
*CONN
*P op_a[5] I
*I *2092:A I *D sky130_fd_sc_hd__clkbuf_2
*CAP
1 op_a[5] 0.00043617
2 *2092:A 0.00043617
3 *2092:A *2095:A 0
4 *2110:A *2092:A 0
*RES
1 op_a[5] *2092:A 21.9429 
*END

*D_NET *13 0.000930923
*CONN
*P op_a[6] I
*I *2093:A I *D sky130_fd_sc_hd__buf_1
*CAP
1 op_a[6] 0.000465461
2 *2093:A 0.000465461
3 *2093:A op_out[2] 0
4 *2093:A *2103:A 0
5 *2093:A *2115:A 0
*RES
1 op_a[6] *2093:A 23.05 
*END

*D_NET *14 0.00113386
*CONN
*P op_a[7] I
*I *2094:A I *D sky130_fd_sc_hd__clkbuf_4
*CAP
1 op_a[7] 0.000510743
2 *2094:A 0.000510743
3 *2094:A op_out[5] 0
4 *2094:A *511:45 5.52302e-05
5 *2104:A *2094:A 0
6 *2105:A *2094:A 5.71472e-05
*RES
1 op_a[7] *2094:A 24.1036 
*END

*D_NET *15 0.00087234
*CONN
*P op_b[0] I
*I *2095:A I *D sky130_fd_sc_hd__clkbuf_2
*CAP
1 op_b[0] 0.00043617
2 *2095:A 0.00043617
3 *2092:A *2095:A 0
*RES
1 op_b[0] *2095:A 21.9429 
*END

*D_NET *16 0.000852951
*CONN
*P op_b[1] I
*I *2096:A I *D sky130_fd_sc_hd__buf_1
*CAP
1 op_b[1] 0.00041202
2 *2096:A 0.00041202
3 *2096:A *490:10 2.89114e-05
4 *2110:A *2096:A 0
*RES
1 op_b[1] *2096:A 21.8357 
*END

*D_NET *17 0.000817553
*CONN
*P op_b[2] I
*I *2097:A I *D sky130_fd_sc_hd__clkbuf_1
*CAP
1 op_b[2] 0.000408777
2 *2097:A 0.000408777
*RES
1 op_b[2] *2097:A 21.9607 
*END

*D_NET *18 0.000578318
*CONN
*P op_b[3] I
*I *2098:A I *D sky130_fd_sc_hd__clkbuf_1
*CAP
1 op_b[3] 0.000289159
2 *2098:A 0.000289159
*RES
1 op_b[3] *2098:A 20.4803 
*END

*D_NET *19 0.000675077
*CONN
*P op_b[4] I
*I *2099:A I *D sky130_fd_sc_hd__buf_6
*CAP
1 op_b[4] 0.000337538
2 *2099:A 0.000337538
*RES
1 op_b[4] *2099:A 21.4981 
*END

*D_NET *20 0.0010916
*CONN
*P op_b[5] I
*I *2100:A I *D sky130_fd_sc_hd__clkbuf_2
*CAP
1 op_b[5] 0.000420646
2 *2100:A 0.000420646
3 *2100:A *2073:A 3.51442e-05
4 *2100:A *2076:A 0.000139739
5 *2100:A *2101:A 2.25951e-05
6 *2100:A *534:27 5.28317e-05
*RES
1 op_b[5] *2100:A 20.2172 
*END

*D_NET *21 0.000666493
*CONN
*P op_b[6] I
*I *2101:A I *D sky130_fd_sc_hd__buf_1
*CAP
1 op_b[6] 0.000321949
2 *2101:A 0.000321949
3 *2100:A *2101:A 2.25951e-05
*RES
1 op_b[6] *2101:A 21.391 
*END

*D_NET *22 0.000930923
*CONN
*P op_b[7] I
*I *2103:A I *D sky130_fd_sc_hd__buf_1
*CAP
1 op_b[7] 0.000465461
2 *2103:A 0.000465461
3 *2093:A *2103:A 0
*RES
1 op_b[7] *2103:A 23.05 
*END

*D_NET *23 0.00160488
*CONN
*P op_out[0] O
*I *2113:X O *D sky130_fd_sc_hd__buf_8
*CAP
1 op_out[0] 0.000554288
2 *2113:X 0.000554288
3 op_out[0] op_out[1] 0
4 op_out[0] *2113:A 0.000176285
5 op_out[0] *326:18 0.000320024
6 *2102:A op_out[0] 0
*RES
1 *2113:X op_out[0] 26.3536 
*END

*D_NET *24 0.00203696
*CONN
*P op_out[1] O
*I *2114:X O *D sky130_fd_sc_hd__buf_2
*CAP
1 op_out[1] 0.000852607
2 *2114:X 0.000852607
3 op_out[1] *1586:A 0
4 op_out[1] *1816:D_N 2.95726e-05
5 op_out[1] *1827:A 8.6229e-06
6 op_out[1] *1827:C 1.3409e-05
7 op_out[1] *2113:A 0
8 op_out[1] *2114:A 0.000139907
9 op_out[1] *491:26 0.000140234
10 op_out[1] *511:51 0
11 op_out[0] op_out[1] 0
12 *2091:A op_out[1] 0
*RES
1 *2114:X op_out[1] 29.3893 
*END

*D_NET *25 0.000911701
*CONN
*P op_out[2] O
*I *2115:X O *D sky130_fd_sc_hd__buf_2
*CAP
1 op_out[2] 0.00045585
2 *2115:X 0.00045585
3 op_out[2] op_out[4] 0
4 *2093:A op_out[2] 0
*RES
1 *2115:X op_out[2] 22.8536 
*END

*D_NET *26 0.00122314
*CONN
*P op_out[3] O
*I *2116:X O *D sky130_fd_sc_hd__buf_2
*CAP
1 op_out[3] 0.000469551
2 *2116:X 0.000469551
3 op_out[3] op_out[4] 0.000263791
4 op_out[3] *491:26 2.02508e-05
5 *2102:A op_out[3] 0
*RES
1 *2116:X op_out[3] 24.2107 
*END

*D_NET *27 0.00109681
*CONN
*P op_out[4] O
*I *2117:X O *D sky130_fd_sc_hd__buf_4
*CAP
1 op_out[4] 0.000407864
2 *2117:X 0.000407864
3 op_out[4] *491:26 1.72894e-05
4 op_out[2] op_out[4] 0
5 op_out[3] op_out[4] 0.000263791
*RES
1 *2117:X op_out[4] 24.1036 
*END

*D_NET *28 0.00168979
*CONN
*P op_out[5] O
*I *2118:X O *D sky130_fd_sc_hd__clkbuf_4
*CAP
1 op_out[5] 0.000791879
2 *2118:X 0.000791879
3 op_out[5] *511:8 1.03968e-05
4 op_out[5] *511:45 4.46186e-06
5 *2094:A op_out[5] 0
6 *2104:A op_out[5] 3.48705e-05
7 *2105:A op_out[5] 5.62995e-05
*RES
1 *2118:X op_out[5] 27.0857 
*END

*D_NET *29 0.000779255
*CONN
*P op_out[6] O
*I *2119:X O *D sky130_fd_sc_hd__clkbuf_4
*CAP
1 op_out[6] 0.000304685
2 *2119:X 0.000304685
3 op_out[6] op_out[7] 0.000169885
4 op_out[6] *2119:A 0
*RES
1 *2119:X op_out[6] 20.7829 
*END

*D_NET *30 0.000671049
*CONN
*P op_out[7] O
*I *2120:X O *D sky130_fd_sc_hd__buf_2
*CAP
1 op_out[7] 0.000231609
2 *2120:X 0.000231609
3 op_out[7] *2050:C1 0
4 op_out[7] *2119:A 3.79467e-05
5 op_out[6] op_out[7] 0.000169885
*RES
1 *2120:X op_out[7] 19.3371 
*END

*D_NET *31 0.00194403
*CONN
*I *1659:B1 I *D sky130_fd_sc_hd__o211a_1
*I *1658:B1 I *D sky130_fd_sc_hd__o21ai_1
*I *1656:X O *D sky130_fd_sc_hd__a211o_1
*CAP
1 *1659:B1 0.000160494
2 *1658:B1 0.000109667
3 *1656:X 0.000161994
4 *31:6 0.000432154
5 *1658:B1 *1658:A1 5.52238e-05
6 *1658:B1 *1658:A2 8.86413e-05
7 *1658:B1 *1706:B1 3.69047e-06
8 *1658:B1 *551:37 0.000158902
9 *1659:B1 *1660:B1 6.74911e-05
10 *1659:B1 *241:28 0.00012401
11 *1659:B1 *475:10 9.15804e-05
12 *1659:B1 *475:12 3.34295e-05
13 *1659:B1 *475:51 7.05447e-05
14 *1659:B1 *475:68 0.000161705
15 *1659:B1 *517:14 3.97273e-05
16 *31:6 *1658:A2 6.05161e-06
17 *31:6 *551:37 0.000178725
*RES
1 *1656:X *31:6 12.7107 
2 *31:6 *1658:B1 12.3 
3 *31:6 *1659:B1 22.9786 
*END

*D_NET *32 0.0012032
*CONN
*I *1660:B1 I *D sky130_fd_sc_hd__o211ai_2
*I *1657:X O *D sky130_fd_sc_hd__a211o_1
*CAP
1 *1660:B1 0.000363532
2 *1657:X 0.000363532
3 *1660:B1 *1659:A2 9.60875e-05
4 *1660:B1 *1659:C1 5.20669e-05
5 *1660:B1 *294:55 8.0786e-06
6 *1660:B1 *517:8 1.60655e-05
7 *1660:B1 *517:14 0.000137304
8 *1660:B1 *518:33 9.90431e-05
9 *1659:B1 *1660:B1 6.74911e-05
*RES
1 *1657:X *1660:B1 33.475 
*END

*D_NET *33 0.00321974
*CONN
*I *1706:B1 I *D sky130_fd_sc_hd__a21o_1
*I *1658:Y O *D sky130_fd_sc_hd__o21ai_1
*CAP
1 *1706:B1 0.00120748
2 *1658:Y 0.00120748
3 *1706:B1 *1670:A1 2.59355e-05
4 *1706:B1 *1670:A2 2.59355e-05
5 *1706:B1 *1670:B1 2.14757e-05
6 *1706:B1 *1670:C1 0.000186669
7 *1706:B1 *1698:B1 0.000479652
8 *1706:B1 *45:12 4.11485e-05
9 *1706:B1 *45:56 9.99644e-06
10 *1706:B1 *48:12 4.1331e-06
11 *1706:B1 *82:20 0
12 *1706:B1 *283:26 0
13 *1706:B1 *551:37 6.13757e-06
14 *1658:B1 *1706:B1 3.69047e-06
*RES
1 *1658:Y *1706:B1 42.9214 
*END

*D_NET *34 0.00363248
*CONN
*I *1666:C1 I *D sky130_fd_sc_hd__a221o_1
*I *1665:B1 I *D sky130_fd_sc_hd__a21oi_1
*I *1661:A_N I *D sky130_fd_sc_hd__and2b_1
*I *1659:X O *D sky130_fd_sc_hd__o211a_1
*CAP
1 *1666:C1 2.00962e-05
2 *1665:B1 0
3 *1661:A_N 8.66145e-06
4 *1659:X 0.000409431
5 *34:14 0.000148657
6 *34:8 0.000569522
7 *1661:A_N *1661:B 2.27416e-05
8 *1661:A_N *1697:A 5.71472e-05
9 *1666:C1 *1665:A2 5.59013e-05
10 *1666:C1 *1699:C 1.69115e-05
11 *34:8 *1664:A 0.000149489
12 *34:8 *1666:A1 0.000137983
13 *34:8 *1705:B 5.33005e-05
14 *34:8 *39:10 0.000112011
15 *34:8 *39:12 1.32995e-05
16 *34:8 *294:55 0.00109497
17 *34:14 *1661:B 5.23057e-05
18 *34:14 *1665:A1 0.00023632
19 *34:14 *1665:A2 0.000357531
20 *34:14 *1697:A 4.66702e-05
21 *34:14 *1699:C 6.95299e-05
*RES
1 *1659:X *34:8 26.2464 
2 *34:8 *34:14 10.0536 
3 *34:14 *1661:A_N 9.83571 
4 *34:14 *1665:B1 9.3 
5 *34:8 *1666:C1 14.5321 
*END

*D_NET *35 0.00492431
*CONN
*I *1666:B1 I *D sky130_fd_sc_hd__a221o_1
*I *1661:B I *D sky130_fd_sc_hd__and2b_1
*I *1665:A1 I *D sky130_fd_sc_hd__a21oi_1
*I *1660:Y O *D sky130_fd_sc_hd__o211ai_2
*CAP
1 *1666:B1 0
2 *1661:B 0.000307028
3 *1665:A1 0.000277544
4 *1660:Y 0.000495987
5 *35:12 0.000649323
6 *35:10 0.000560738
7 *1661:B *1665:A2 0.000117543
8 *1661:B *1697:A 3.97657e-05
9 *1665:A1 *1665:A2 5.38421e-05
10 *1665:A1 *485:12 0.000106403
11 *35:10 *1698:B1 1.78353e-05
12 *35:10 *1699:C 0
13 *35:10 *1707:C 0
14 *35:10 *241:28 0.000789278
15 *35:10 *485:12 0.000177234
16 *35:10 *485:25 0.000180764
17 *35:10 *493:21 0.000531267
18 *35:10 *551:6 5.04589e-05
19 *35:12 *1665:A2 8.24047e-05
20 *35:12 *485:12 0.000175526
21 *1661:A_N *1661:B 2.27416e-05
22 *34:14 *1661:B 5.23057e-05
23 *34:14 *1665:A1 0.00023632
*RES
1 *1660:Y *35:10 27.4607 
2 *35:10 *35:12 2.25 
3 *35:12 *1665:A1 18.55 
4 *35:12 *1661:B 19.675 
5 *35:10 *1666:B1 13.8 
*END

*D_NET *36 0.000482597
*CONN
*I *1705:A I *D sky130_fd_sc_hd__xnor2_1
*I *1661:X O *D sky130_fd_sc_hd__and2b_1
*CAP
1 *1705:A 0.000241298
2 *1661:X 0.000241298
*RES
1 *1661:X *1705:A 30.9036 
*END

*D_NET *37 0.001076
*CONN
*I *1676:A I *D sky130_fd_sc_hd__or4_1
*I *1662:Y O *D sky130_fd_sc_hd__nor2_1
*CAP
1 *1676:A 0.000295647
2 *1662:Y 0.000295647
3 *1676:A *1663:B 0.000191485
4 *1676:A *1676:B 9.22103e-06
5 *1676:A *38:19 0.000166407
6 *1676:A *45:56 0.000117597
*RES
1 *1662:Y *1676:A 25.35 
*END

*D_NET *38 0.00944055
*CONN
*I *1880:C I *D sky130_fd_sc_hd__and3_1
*I *1881:B1 I *D sky130_fd_sc_hd__a21oi_1
*I *1907:C I *D sky130_fd_sc_hd__and3_1
*I *1676:B I *D sky130_fd_sc_hd__or4_1
*I *1663:Y O *D sky130_fd_sc_hd__nor2_4
*CAP
1 *1880:C 0
2 *1881:B1 0.000161708
3 *1907:C 0.000648846
4 *1676:B 0.000211609
5 *1663:Y 0
6 *38:34 0.000364329
7 *38:19 0.00251896
8 *38:4 0.0018791
9 *1676:B *1663:B 0.000263276
10 *1881:B1 *1862:A 7.80802e-05
11 *1881:B1 *1881:A2 9.31356e-05
12 *1881:B1 *256:12 0.000132398
13 *1881:B1 *521:83 1.85024e-05
14 *1907:C *1907:B 2.98493e-05
15 *1907:C *1908:B1 5.83304e-05
16 *1907:C *2028:A2 0
17 *1907:C *2029:B 6.26559e-05
18 *1907:C *410:8 0
19 *1907:C *492:77 0
20 *1907:C *517:58 2.8266e-06
21 *1907:C *519:25 0
22 *1907:C *521:89 3.17148e-05
23 *1907:C *529:35 0.000477998
24 *38:19 *1610:C 0.000127042
25 *38:19 *1617:B 9.90431e-05
26 *38:19 *1617:C 3.48705e-05
27 *38:19 *1620:B1 5.71472e-05
28 *38:19 *1620:C1 5.71472e-05
29 *38:19 *1662:B 0.000354111
30 *38:19 *2129:A 0.00018077
31 *38:19 *439:10 5.96963e-05
32 *38:19 *444:30 0.000201572
33 *38:19 *450:10 8.40933e-05
34 *38:19 *519:58 0.000441731
35 *38:19 *519:62 0.000291951
36 *38:19 *521:89 5.33005e-05
37 *38:34 *1881:A2 2.10884e-06
38 *38:34 *521:83 1.57414e-05
39 *38:34 *521:89 0.000171283
40 *1676:A *1676:B 9.22103e-06
41 *1676:A *38:19 0.000166407
*RES
1 *1663:Y *38:4 9.3 
2 *38:4 *1676:B 12.6214 
3 *38:4 *38:19 29.2143 
4 *38:19 *1907:C 31.9786 
5 *38:19 *38:34 2.66071 
6 *38:34 *1881:B1 21.8 
7 *38:34 *1880:C 9.3 
*END

*D_NET *39 0.00271425
*CONN
*I *1666:B2 I *D sky130_fd_sc_hd__a221o_1
*I *1665:A2 I *D sky130_fd_sc_hd__a21oi_1
*I *1705:B I *D sky130_fd_sc_hd__xnor2_1
*I *1664:Y O *D sky130_fd_sc_hd__nand2_1
*CAP
1 *1666:B2 0
2 *1665:A2 0.000158771
3 *1705:B 0.000346139
4 *1664:Y 0.000276082
5 *39:12 0.000524319
6 *39:10 0.000295491
7 *1705:B *1666:A1 9.7049e-06
8 *1705:B *1707:C 0.000174361
9 *39:10 *1666:A1 6.88949e-05
10 *39:10 *1666:A2 1.46576e-05
11 *1661:B *1665:A2 0.000117543
12 *1665:A1 *1665:A2 5.38421e-05
13 *1666:C1 *1665:A2 5.59013e-05
14 *34:8 *1705:B 5.33005e-05
15 *34:8 *39:10 0.000112011
16 *34:8 *39:12 1.32995e-05
17 *34:14 *1665:A2 0.000357531
18 *35:12 *1665:A2 8.24047e-05
*RES
1 *1664:Y *39:10 14.2464 
2 *39:10 *39:12 0.375 
3 *39:12 *1705:B 16.425 
4 *39:12 *1665:A2 23.3357 
5 *39:10 *1666:B2 9.3 
*END

*D_NET *40 0.000720862
*CONN
*I *1697:A I *D sky130_fd_sc_hd__xnor2_1
*I *1665:Y O *D sky130_fd_sc_hd__a21oi_1
*CAP
1 *1697:A 0.000288639
2 *1665:Y 0.000288639
3 *1697:A *1699:C 0
4 *1661:A_N *1697:A 5.71472e-05
5 *1661:B *1697:A 3.97657e-05
6 *34:14 *1697:A 4.66702e-05
*RES
1 *1665:Y *1697:A 31.8589 
*END

*D_NET *41 0.00152866
*CONN
*I *1671:A2 I *D sky130_fd_sc_hd__a311o_1
*I *1670:A3 I *D sky130_fd_sc_hd__a311oi_2
*I *1667:B I *D sky130_fd_sc_hd__nand2_1
*I *1666:X O *D sky130_fd_sc_hd__a221o_1
*CAP
1 *1671:A2 0.000104246
2 *1670:A3 0
3 *1667:B 3.04135e-05
4 *1666:X 4.26117e-05
5 *41:19 0.000175271
6 *41:8 0.00014405
7 *1667:B *485:25 5.33005e-05
8 *1671:A2 *1671:A3 0.000137931
9 *1671:A2 *1687:B 5.41797e-05
10 *1671:A2 *1689:A2 9.41642e-05
11 *1671:A2 *1698:B1 2.24646e-05
12 *1671:A2 *2121:A 4.58194e-05
13 *1671:A2 *485:25 1.02504e-05
14 *41:8 *1698:B1 0.000128154
15 *41:8 *546:73 6.74911e-05
16 *41:19 *1698:B1 0.000209483
17 *41:19 *485:25 0.000197991
18 *41:19 *546:73 1.08359e-05
*RES
1 *1666:X *41:8 15.4429 
2 *41:8 *1667:B 14.3357 
3 *41:8 *41:19 2.85714 
4 *41:19 *1670:A3 13.8 
5 *41:19 *1671:A2 16.6929 
*END

*D_NET *42 0.00093227
*CONN
*I *1687:B I *D sky130_fd_sc_hd__xnor2_1
*I *1667:Y O *D sky130_fd_sc_hd__nand2_1
*CAP
1 *1687:B 0.000229812
2 *1667:Y 0.000229812
3 *1687:B *1671:A3 9.11365e-06
4 *1687:B *1687:A 8.11942e-05
5 *1687:B *1698:B1 0.000175512
6 *1687:B *1707:C 0
7 *1687:B *46:10 7.48091e-05
8 *1687:B *49:14 7.78371e-05
9 *1687:B *546:73 0
10 *1671:A2 *1687:B 5.41797e-05
*RES
1 *1667:Y *1687:B 33.3321 
*END

*D_NET *43 0.00371264
*CONN
*I *1669:A2 I *D sky130_fd_sc_hd__a21oi_1
*I *1692:B1 I *D sky130_fd_sc_hd__a21o_1
*I *1672:C I *D sky130_fd_sc_hd__and3_1
*I *1668:X O *D sky130_fd_sc_hd__or2_1
*CAP
1 *1669:A2 2.23854e-05
2 *1692:B1 0.000321788
3 *1672:C 5.20489e-05
4 *1668:X 0.000285161
5 *43:12 0.000572636
6 *43:6 0.000506346
7 *1672:C *1673:A 7.83587e-05
8 *1672:C *2112:A 6.33946e-06
9 *1672:C *49:14 3.69697e-05
10 *1692:B1 *1692:A1 2.72418e-05
11 *1692:B1 *1692:A2 0.000138777
12 *1692:B1 *1716:A1 3.30237e-05
13 *43:6 *1689:A2 0.00022459
14 *43:6 *44:10 0.000139907
15 *43:6 *64:14 2.44318e-05
16 *43:6 *471:10 0.000188008
17 *43:6 *471:20 1.21258e-05
18 *43:6 *544:28 0.000115971
19 *43:12 *1673:A 7.15521e-05
20 *43:12 *1677:A1 2.58821e-05
21 *43:12 *1677:B1 0.000178847
22 *43:12 *1692:A1 0.000310292
23 *43:12 *1692:A2 0.000180777
24 *43:12 *44:10 1.24368e-05
25 *43:12 *49:14 1.76135e-05
26 *43:12 *49:42 2.26327e-05
27 *43:12 *52:10 2.89016e-05
28 *43:12 *471:20 1.21258e-05
29 *43:12 *513:23 5.52238e-05
30 *43:12 *536:24 1.02504e-05
*RES
1 *1668:X *43:6 16.8179 
2 *43:6 *43:12 10.5893 
3 *43:12 *1672:C 15.0321 
4 *43:12 *1692:B1 18.6036 
5 *43:6 *1669:A2 9.72857 
*END

*D_NET *44 0.00308101
*CONN
*I *1671:B1 I *D sky130_fd_sc_hd__a311o_1
*I *1670:B1 I *D sky130_fd_sc_hd__a311oi_2
*I *1669:Y O *D sky130_fd_sc_hd__a21oi_1
*CAP
1 *1671:B1 0
2 *1670:B1 7.74072e-05
3 *1669:Y 0.000344468
4 *44:10 0.000421875
5 *1670:B1 *1670:C1 0.000207051
6 *1670:B1 *45:12 0.00010096
7 *1670:B1 *45:56 0
8 *1670:B1 *241:39 0.00017309
9 *44:10 *1663:B 5.59013e-05
10 *44:10 *1670:C1 1.02504e-05
11 *44:10 *1689:A2 0.000147112
12 *44:10 *64:14 9.41642e-05
13 *44:10 *241:39 0.000753634
14 *44:10 *478:10 0.00013966
15 *44:10 *565:54 0.000381617
16 *1706:B1 *1670:B1 2.14757e-05
17 *43:6 *44:10 0.000139907
18 *43:12 *44:10 1.24368e-05
*RES
1 *1669:Y *44:10 25.6036 
2 *44:10 *1670:B1 16.9964 
3 *44:10 *1671:B1 13.8 
*END

*D_NET *45 0.00545413
*CONN
*I *1676:C I *D sky130_fd_sc_hd__or4_1
*I *1675:A I *D sky130_fd_sc_hd__nor2_1
*I *1707:A I *D sky130_fd_sc_hd__or3_4
*I *1699:A I *D sky130_fd_sc_hd__or3_4
*I *1670:Y O *D sky130_fd_sc_hd__a311oi_2
*CAP
1 *1676:C 0
2 *1675:A 0.000115341
3 *1707:A 0
4 *1699:A 0.000228672
5 *1670:Y 0
6 *45:56 0.00118192
7 *45:12 0.00056418
8 *45:4 0.00140209
9 *1675:A *1645:A 5.59013e-05
10 *1675:A *1663:B 8.99927e-05
11 *1675:A *1676:D 2.78509e-05
12 *1675:A *49:42 0.000106517
13 *1675:A *52:10 5.7616e-05
14 *1675:A *64:14 1.38323e-05
15 *1699:A *1698:B1 0.000195131
16 *1699:A *1699:B 9.97462e-05
17 *1699:A *49:14 2.14757e-05
18 *1699:A *82:20 7.57127e-05
19 *45:12 *1670:A1 5.52238e-05
20 *45:12 *1670:A2 5.33005e-05
21 *45:12 *1670:C1 7.32955e-05
22 *45:12 *1698:B1 0.000224583
23 *45:12 *82:20 8.46829e-05
24 *45:56 *1663:A 0
25 *45:56 *1663:B 2.83192e-05
26 *45:56 *1688:B1 0.000118352
27 *45:56 *1689:A1 0.000119652
28 *45:56 *1689:A2 0
29 *45:56 *1689:B1 9.74684e-05
30 *45:56 *2026:D_N 0
31 *45:56 *49:42 1.40034e-05
32 *45:56 *50:8 6.71327e-05
33 *45:56 *64:14 1.24368e-05
34 *45:56 *241:39 0
35 *45:56 *544:34 0
36 *45:56 *551:107 0
37 *1670:B1 *45:12 0.00010096
38 *1670:B1 *45:56 0
39 *1676:A *45:56 0.000117597
40 *1706:B1 *45:12 4.11485e-05
41 *1706:B1 *45:56 9.99644e-06
*RES
1 *1670:Y *45:4 9.3 
2 *45:4 *45:12 7.67857 
3 *45:12 *1699:A 22.5143 
4 *45:12 *1707:A 9.3 
5 *45:4 *45:56 28.5536 
6 *45:56 *1675:A 21.3536 
7 *45:56 *1676:C 9.3 
*END

*D_NET *46 0.00197925
*CONN
*I *2121:A I *D sky130_fd_sc_hd__dlygate4sd1_1
*I *1706:A1 I *D sky130_fd_sc_hd__a21o_1
*I *1698:A1 I *D sky130_fd_sc_hd__a21o_1
*I *1671:X O *D sky130_fd_sc_hd__a311o_1
*CAP
1 *2121:A 0.000124315
2 *1706:A1 0
3 *1698:A1 0.000206741
4 *1671:X 1.91209e-05
5 *46:10 0.000439763
6 *46:6 0.000376458
7 *1698:A1 *1698:A2 5.91367e-05
8 *1698:A1 *81:8 0.00010096
9 *2121:A *1687:A 2.44318e-05
10 *2121:A *1689:A2 7.09112e-05
11 *2121:A *556:10 0.000303355
12 *46:6 *1687:A 0
13 *46:10 *1687:A 2.30823e-05
14 *46:10 *1689:A2 5.52302e-05
15 *46:10 *1698:A2 3.18676e-05
16 *46:10 *82:20 2.32517e-05
17 *1671:A2 *2121:A 4.58194e-05
18 *1687:B *46:10 7.48091e-05
*RES
1 *1671:X *46:6 9.72857 
2 *46:6 *46:10 4.55357 
3 *46:10 *1698:A1 12.3179 
4 *46:10 *1706:A1 9.3 
5 *46:6 *2121:A 12.7107 
*END

*D_NET *47 0.000648168
*CONN
*I *1673:D I *D sky130_fd_sc_hd__nor4_1
*I *1674:D I *D sky130_fd_sc_hd__or4_4
*I *1672:X O *D sky130_fd_sc_hd__and3_1
*CAP
1 *1673:D 0
2 *1674:D 5.8591e-05
3 *1672:X 9.94412e-05
4 *47:8 0.000158032
5 *1674:D *283:12 0.000125731
6 *1674:D *471:26 6.74911e-05
7 *47:8 *1673:A 0.000138881
8 *47:8 *539:85 0
*RES
1 *1672:X *47:8 11.0857 
2 *47:8 *1674:D 19.9429 
3 *47:8 *1673:D 9.3 
*END

*D_NET *48 0.00221002
*CONN
*I *2112:A I *D sky130_fd_sc_hd__buf_1
*I *1698:A2 I *D sky130_fd_sc_hd__a21o_1
*I *1706:A2 I *D sky130_fd_sc_hd__a21o_1
*I *1673:Y O *D sky130_fd_sc_hd__nor4_1
*CAP
1 *2112:A 9.4502e-05
2 *1698:A2 8.74639e-05
3 *1706:A2 0
4 *1673:Y 3.15414e-05
5 *48:12 0.000438646
6 *48:6 0.000477225
7 *1698:A2 *1687:A 1.3701e-05
8 *1698:A2 *81:8 3.18676e-05
9 *1698:A2 *82:20 0.000151061
10 *2112:A *1672:A 1.92905e-05
11 *2112:A *1673:A 2.89114e-05
12 *2112:A *471:20 0.00014183
13 *2112:A *471:26 8.66063e-05
14 *2112:A *539:104 3.57366e-05
15 *48:6 *1673:A 2.14658e-05
16 *48:6 *1673:C 9.80173e-05
17 *48:6 *471:26 0.000139907
18 *48:12 *49:14 0
19 *48:12 *82:20 4.25523e-05
20 *48:12 *283:12 0.000168217
21 *48:12 *283:26 0
22 *1672:C *2112:A 6.33946e-06
23 *1698:A1 *1698:A2 5.91367e-05
24 *1706:B1 *48:12 4.1331e-06
25 *46:10 *1698:A2 3.18676e-05
*RES
1 *1673:Y *48:6 10.6571 
2 *48:6 *48:12 16.1071 
3 *48:12 *1706:A2 9.3 
4 *48:12 *1698:A2 12.7464 
5 *48:6 *2112:A 12.2107 
*END

*D_NET *49 0.00372151
*CONN
*I *1676:D I *D sky130_fd_sc_hd__or4_1
*I *1675:B I *D sky130_fd_sc_hd__nor2_1
*I *1707:B I *D sky130_fd_sc_hd__or3_4
*I *1699:B I *D sky130_fd_sc_hd__or3_4
*I *1674:X O *D sky130_fd_sc_hd__or4_4
*CAP
1 *1676:D 1.21871e-05
2 *1675:B 0
3 *1707:B 0
4 *1699:B 8.93776e-05
5 *1674:X 3.34103e-05
6 *49:42 0.000302972
7 *49:14 0.000841803
8 *49:8 0.00107662
9 *1676:D *64:14 5.52238e-05
10 *49:8 *1692:A2 5.33005e-05
11 *49:14 *1673:A 1.78447e-05
12 *49:14 *82:20 0.000235781
13 *49:14 *539:85 0.00010326
14 *49:14 *556:10 0
15 *49:14 *556:21 0
16 *49:42 *64:14 0.000192697
17 *49:42 *64:24 6.05161e-06
18 *49:42 *536:24 5.7599e-05
19 *49:42 *539:85 0.000218734
20 *1672:C *49:14 3.69697e-05
21 *1675:A *1676:D 2.78509e-05
22 *1675:A *49:42 0.000106517
23 *1687:B *49:14 7.78371e-05
24 *1699:A *1699:B 9.97462e-05
25 *1699:A *49:14 2.14757e-05
26 *43:12 *49:14 1.76135e-05
27 *43:12 *49:42 2.26327e-05
28 *45:56 *49:42 1.40034e-05
29 *48:12 *49:14 0
*RES
1 *1674:X *49:8 14.3357 
2 *49:8 *49:14 18.125 
3 *49:14 *1699:B 20.6214 
4 *49:14 *1707:B 9.3 
5 *49:8 *49:42 11.6071 
6 *49:42 *1675:B 9.3 
7 *49:42 *1676:D 9.83571 
*END

*D_NET *50 0.00615538
*CONN
*I *1896:A2 I *D sky130_fd_sc_hd__a211o_1
*I *1689:A1 I *D sky130_fd_sc_hd__a21oi_1
*I *1675:Y O *D sky130_fd_sc_hd__nor2_1
*CAP
1 *1896:A2 0.00113442
2 *1689:A1 0.000265332
3 *1675:Y 0.000169853
4 *50:8 0.00156961
5 *1689:A1 *1663:A 0
6 *1689:A1 *1689:A2 6.10983e-05
7 *1689:A1 *1689:B1 1.02504e-05
8 *1689:A1 *51:8 4.46186e-06
9 *1689:A1 *471:10 5.52238e-05
10 *1689:A1 *565:54 0.000227537
11 *1896:A2 *1600:B 0.000198691
12 *1896:A2 *1613:A 0.000137437
13 *1896:A2 *1637:B1 3.69047e-06
14 *1896:A2 *1682:A 6.28356e-05
15 *1896:A2 *1728:A0 0.000195562
16 *1896:A2 *2084:A 0.000113064
17 *1896:A2 *51:8 9.01334e-05
18 *1896:A2 *51:12 9.71197e-05
19 *1896:A2 *57:10 9.25014e-06
20 *1896:A2 *294:43 0.000364095
21 *1896:A2 *443:16 0.000135028
22 *1896:A2 *446:10 1.32552e-05
23 *1896:A2 *515:10 2.15613e-05
24 *1896:A2 *515:12 3.17684e-05
25 *1896:A2 *518:54 0.000507042
26 *1896:A2 *519:88 0.000211952
27 *1896:A2 *565:54 0.000140341
28 *50:8 *64:14 0.000137983
29 *45:56 *1689:A1 0.000119652
30 *45:56 *50:8 6.71327e-05
*RES
1 *1675:Y *50:8 15.9786 
2 *50:8 *1689:A1 19.175 
3 *50:8 *1896:A2 49.9429 
*END

*D_NET *51 0.00197877
*CONN
*I *1681:A1 I *D sky130_fd_sc_hd__a21o_1
*I *1682:B I *D sky130_fd_sc_hd__and3_1
*I *1678:A I *D sky130_fd_sc_hd__nand2_1
*I *1676:X O *D sky130_fd_sc_hd__or4_1
*CAP
1 *1681:A1 7.45559e-05
2 *1682:B 0
3 *1678:A 0.000318198
4 *1676:X 0.000104419
5 *51:12 0.000457124
6 *51:8 0.000317901
7 *1678:A *52:23 8.15939e-05
8 *1678:A *57:10 9.41642e-05
9 *1678:A *61:26 0.000111491
10 *1678:A *536:20 0
11 *1681:A1 *1682:A 7.83366e-05
12 *1681:A1 *1683:B 2.66026e-05
13 *1681:A1 *57:10 2.05938e-05
14 *51:8 *1663:A 0
15 *51:8 *1682:A 5.43491e-05
16 *51:8 *57:10 6.8646e-06
17 *51:12 *57:10 4.08637e-05
18 *1689:A1 *51:8 4.46186e-06
19 *1896:A2 *51:8 9.01334e-05
20 *1896:A2 *51:12 9.71197e-05
*RES
1 *1676:X *51:8 16.3536 
2 *51:8 *51:12 6.26786 
3 *51:12 *1678:A 23.2464 
4 *51:12 *1682:B 9.3 
5 *51:8 *1681:A1 15.7464 
*END

*D_NET *52 0.00217728
*CONN
*I *1681:A2 I *D sky130_fd_sc_hd__a21o_1
*I *1678:B I *D sky130_fd_sc_hd__nand2_1
*I *1682:C I *D sky130_fd_sc_hd__and3_1
*I *1677:X O *D sky130_fd_sc_hd__a21o_1
*CAP
1 *1681:A2 0.000202683
2 *1678:B 0
3 *1682:C 0.000121178
4 *1677:X 0.000219483
5 *52:23 0.000314152
6 *52:10 0.00045213
7 *1681:A2 *1686:A1 8.25843e-06
8 *1681:A2 *1686:A2 0.00021804
9 *1681:A2 *1686:B1 5.71472e-05
10 *1681:A2 *53:10 5.71472e-05
11 *1682:C *57:10 2.35082e-05
12 *1682:C *61:26 7.3237e-05
13 *52:10 *1645:A 0.000110231
14 *52:10 *536:22 0
15 *52:10 *539:85 0
16 *52:10 *546:121 2.04825e-05
17 *52:23 *1645:A 0.000131491
18 *52:23 *536:20 0
19 *1675:A *52:10 5.7616e-05
20 *1678:A *52:23 8.15939e-05
21 *43:12 *52:10 2.89016e-05
*RES
1 *1677:X *52:10 18.1036 
2 *52:10 *1682:C 15.8357 
3 *52:10 *52:23 7.66071 
4 *52:23 *1678:B 9.3 
5 *52:23 *1681:A2 13.6929 
*END

*D_NET *53 0.00104808
*CONN
*I *1679:A I *D sky130_fd_sc_hd__inv_2
*I *1680:B I *D sky130_fd_sc_hd__and2_1
*I *1678:Y O *D sky130_fd_sc_hd__nand2_1
*CAP
1 *1679:A 0.000125911
2 *1680:B 0
3 *1678:Y 0.000162783
4 *53:10 0.000288693
5 *1679:A *1645:A 5.52238e-05
6 *1679:A *515:33 0.0002253
7 *1679:A *565:54 1.92789e-05
8 *53:10 *1645:A 8.03053e-05
9 *53:10 *515:33 3.34366e-05
10 *1681:A2 *53:10 5.71472e-05
*RES
1 *1678:Y *53:10 16.3893 
2 *53:10 *1680:B 13.8 
3 *53:10 *1679:A 17.1929 
*END

*D_NET *54 0.000359197
*CONN
*I *1722:A0 I *D sky130_fd_sc_hd__mux2_1
*I *1679:Y O *D sky130_fd_sc_hd__inv_2
*CAP
1 *1722:A0 0.000129118
2 *1679:Y 0.000129118
3 *1722:A0 *1645:A 0.00010096
4 *1722:A0 *515:33 0
5 *1722:A0 *536:20 0
*RES
1 *1679:Y *1722:A0 29.5821 
*END

*D_NET *55 0.000111776
*CONN
*I *1683:A I *D sky130_fd_sc_hd__nor2_1
*I *1680:X O *D sky130_fd_sc_hd__and2_1
*CAP
1 *1683:A 2.9238e-05
2 *1680:X 2.9238e-05
3 *1683:A *515:20 5.33005e-05
*RES
1 *1680:X *1683:A 19.1357 
*END

*D_NET *56 0.000438584
*CONN
*I *1686:B1 I *D sky130_fd_sc_hd__o21ai_2
*I *1681:X O *D sky130_fd_sc_hd__a21o_1
*CAP
1 *1686:B1 0.000134177
2 *1681:X 0.000134177
3 *1686:B1 *1686:A2 0.000113083
4 *1681:A2 *1686:B1 5.71472e-05
*RES
1 *1681:X *1686:B1 21.1893 
*END

*D_NET *57 0.00149433
*CONN
*I *1683:B I *D sky130_fd_sc_hd__nor2_1
*I *1686:A1 I *D sky130_fd_sc_hd__o21ai_2
*I *1682:X O *D sky130_fd_sc_hd__and3_1
*CAP
1 *1683:B 0.000118044
2 *1686:A1 0.000193862
3 *1682:X 0.000108317
4 *57:10 0.000420223
5 *1683:B *548:18 0
6 *1683:B *565:54 0.000236106
7 *1686:A1 *1686:A2 7.61264e-05
8 *57:10 *61:26 1.24368e-05
9 *57:10 *565:54 9.91086e-05
10 *1678:A *57:10 9.41642e-05
11 *1681:A1 *1683:B 2.66026e-05
12 *1681:A1 *57:10 2.05938e-05
13 *1681:A2 *1686:A1 8.25843e-06
14 *1682:C *57:10 2.35082e-05
15 *1896:A2 *57:10 9.25014e-06
16 *51:8 *57:10 6.8646e-06
17 *51:12 *57:10 4.08637e-05
*RES
1 *1682:X *57:10 16.4964 
2 *57:10 *1686:A1 16.3 
3 *57:10 *1683:B 16.9607 
*END

*D_NET *58 0.000362623
*CONN
*I *1721:A I *D sky130_fd_sc_hd__xnor2_1
*I *1683:Y O *D sky130_fd_sc_hd__nor2_1
*CAP
1 *1721:A 0.000122486
2 *1683:Y 0.000122486
3 *1721:A *1721:B 3.51442e-05
4 *1721:A *515:20 1.40415e-05
5 *1721:A *546:121 2.91887e-05
6 *1721:A *548:18 0
7 *1721:A *565:54 3.92757e-05
*RES
1 *1683:Y *1721:A 30.0821 
*END

*D_NET *59 0.000918343
*CONN
*I *1686:A2 I *D sky130_fd_sc_hd__o21ai_2
*I *1684:Y O *D sky130_fd_sc_hd__nor2_1
*CAP
1 *1686:A2 0.000239613
2 *1684:Y 0.000239613
3 *1686:A2 *1684:B 3.18676e-05
4 *1681:A2 *1686:A2 0.00021804
5 *1686:A1 *1686:A2 7.61264e-05
6 *1686:B1 *1686:A2 0.000113083
*RES
1 *1684:Y *1686:A2 24.0821 
*END

*D_NET *60 0.00069406
*CONN
*I *1727:A I *D sky130_fd_sc_hd__nand2_1
*I *1721:B I *D sky130_fd_sc_hd__xnor2_1
*I *1685:X O *D sky130_fd_sc_hd__or2_1
*CAP
1 *1727:A 0
2 *1721:B 0.000131706
3 *1685:X 6.1977e-05
4 *60:8 0.000193683
5 *1721:B *512:51 2.14757e-05
6 *1721:B *546:121 0
7 *1721:B *548:18 7.24248e-05
8 *60:8 *1685:A 0
9 *60:8 *1727:B 5.52238e-05
10 *60:8 *1728:A1 2.14658e-05
11 *60:8 *512:51 0.00010096
12 *1721:A *1721:B 3.51442e-05
*RES
1 *1685:X *60:8 11.0857 
2 *60:8 *1721:B 21.3893 
3 *60:8 *1727:A 9.3 
*END

*D_NET *61 0.00860523
*CONN
*I *1718:A1 I *D sky130_fd_sc_hd__a31o_1
*I *1740:A1 I *D sky130_fd_sc_hd__a21o_1
*I *1745:A I *D sky130_fd_sc_hd__xnor2_1
*I *1713:D_N I *D sky130_fd_sc_hd__or4b_4
*I *1686:Y O *D sky130_fd_sc_hd__o21ai_2
*CAP
1 *1718:A1 5.50549e-05
2 *1740:A1 0.000154409
3 *1745:A 0.000129726
4 *1713:D_N 0.000263754
5 *1686:Y 0.000892065
6 *61:62 0.000374585
7 *61:49 0.000544297
8 *61:26 0.00140527
9 *1713:D_N *1713:A 6.47439e-05
10 *1713:D_N *1713:B 2.83545e-05
11 *1713:D_N *1717:A2 7.83587e-05
12 *1713:D_N *70:24 0.000178425
13 *1718:A1 *1718:B1 5.52238e-05
14 *1740:A1 *1704:B 5.30637e-06
15 *1740:A1 *1740:A2 5.33005e-05
16 *1740:A1 *1742:A0 0.000126439
17 *1740:A1 *1742:A1 6.5185e-05
18 *1740:A1 *79:6 2.07491e-05
19 *1745:A *1691:A 0.000363496
20 *1745:A *1691:B 0.000125409
21 *61:26 *1645:A 0.000172375
22 *61:26 *1691:A 0
23 *61:26 *1694:A2 0.000251979
24 *61:26 *1694:B1 9.41642e-05
25 *61:26 *1717:A2 6.73939e-05
26 *61:26 *1746:A0 0.000137983
27 *61:26 *1746:S 6.58992e-05
28 *61:26 *69:6 0.000115457
29 *61:26 *539:37 0
30 *61:26 *539:68 0.000658448
31 *61:26 *546:121 0.000169939
32 *61:26 *561:6 0.000242433
33 *61:49 *1691:A 0.000256985
34 *61:49 *1691:B 3.69047e-06
35 *61:49 *64:24 0.000286584
36 *61:62 *1720:A1 9.91086e-05
37 *61:62 *1742:A0 0.000557544
38 *61:62 *1742:A1 0.000243929
39 *1678:A *61:26 0.000111491
40 *1682:C *61:26 7.3237e-05
41 *57:10 *61:26 1.24368e-05
*RES
1 *1686:Y *61:26 45.175 
2 *61:26 *1713:D_N 19.1036 
3 *61:26 *61:49 10.1071 
4 *61:49 *1745:A 13.4429 
5 *61:49 *61:62 11.6071 
6 *61:62 *1740:A1 16.8 
7 *61:62 *1718:A1 14.7464 
*END

*D_NET *62 0.0032227
*CONN
*I *1689:A2 I *D sky130_fd_sc_hd__a21oi_1
*I *1687:Y O *D sky130_fd_sc_hd__xnor2_1
*CAP
1 *1689:A2 0.000716221
2 *1687:Y 0.000716221
3 *1689:A2 *1669:B1 0.000102545
4 *1689:A2 *1670:C1 5.83304e-05
5 *1689:A2 *1688:B1 0.000388153
6 *1689:A2 *1689:B1 1.81805e-05
7 *1689:A2 *471:10 8.41032e-05
8 *1689:A2 *478:10 0.000148189
9 *1689:A2 *565:54 0.000337651
10 *1671:A2 *1689:A2 9.41642e-05
11 *1689:A1 *1689:A2 6.10983e-05
12 *2121:A *1689:A2 7.09112e-05
13 *43:6 *1689:A2 0.00022459
14 *44:10 *1689:A2 0.000147112
15 *45:56 *1689:A2 0
16 *46:10 *1689:A2 5.52302e-05
*RES
1 *1687:Y *1689:A2 44.0464 
*END

*D_NET *63 0.000696264
*CONN
*I *1689:B1 I *D sky130_fd_sc_hd__a21oi_1
*I *1688:Y O *D sky130_fd_sc_hd__a21oi_1
*CAP
1 *1689:B1 0.00017942
2 *1688:Y 0.00017942
3 *1689:B1 *1669:B1 0.000100831
4 *1689:B1 *1688:B1 0.000102435
5 *1689:B1 *2026:D_N 8.25843e-06
6 *1689:A1 *1689:B1 1.02504e-05
7 *1689:A2 *1689:B1 1.81805e-05
8 *45:56 *1689:B1 9.74684e-05
*RES
1 *1688:Y *1689:B1 31.5107 
*END

*D_NET *64 0.00762236
*CONN
*I *1690:B I *D sky130_fd_sc_hd__or2_1
*I *1720:A0 I *D sky130_fd_sc_hd__mux2_4
*I *1691:B I *D sky130_fd_sc_hd__xnor2_1
*I *1689:Y O *D sky130_fd_sc_hd__a21oi_1
*CAP
1 *1690:B 0
2 *1720:A0 0.000167213
3 *1691:B 0.000296093
4 *1689:Y 0.000408347
5 *64:24 0.0012391
6 *64:14 0.00118414
7 *1691:B *1691:A 0.00013744
8 *1691:B *1746:A1 0.000180764
9 *1720:A0 *1720:A1 0.000343203
10 *1720:A0 *1742:A0 0.000343203
11 *64:14 *1663:B 5.58875e-06
12 *64:14 *539:85 5.52238e-05
13 *64:14 *546:121 0.000153839
14 *64:14 *565:54 0.000166503
15 *64:24 *1693:B 5.52302e-05
16 *64:24 *1717:A3 0.000512665
17 *64:24 *1746:A1 0.000409062
18 *64:24 *70:24 0.000219711
19 *64:24 *534:66 9.77264e-06
20 *64:24 *534:74 0.000603045
21 *64:24 *539:68 0.000102922
22 *64:24 *539:85 7.67914e-05
23 *1675:A *64:14 1.38323e-05
24 *1676:D *64:14 5.52238e-05
25 *1745:A *1691:B 0.000125409
26 *43:6 *64:14 2.44318e-05
27 *44:10 *64:14 9.41642e-05
28 *45:56 *64:14 1.24368e-05
29 *49:42 *64:14 0.000192697
30 *49:42 *64:24 6.05161e-06
31 *50:8 *64:14 0.000137983
32 *61:49 *1691:B 3.69047e-06
33 *61:49 *64:24 0.000286584
*RES
1 *1689:Y *64:14 26.55 
2 *64:14 *64:24 19.2857 
3 *64:24 *1691:B 15.9071 
4 *64:24 *1720:A0 23.6214 
5 *64:14 *1690:B 9.3 
*END

*D_NET *65 0.00165255
*CONN
*I *1716:A1 I *D sky130_fd_sc_hd__a21o_1
*I *1690:X O *D sky130_fd_sc_hd__or2_1
*CAP
1 *1716:A1 0.000400074
2 *1690:X 0.000400074
3 *1716:A1 *1674:B 0.000225616
4 *1716:A1 *1692:A1 9.90431e-05
5 *1716:A1 *1693:A 9.90431e-05
6 *1716:A1 *1716:B1 5.07257e-05
7 *1716:A1 *283:12 0.000216304
8 *1716:A1 *471:26 4.78056e-05
9 *1716:A1 *471:41 6.09572e-05
10 *1716:A1 *539:68 1.98839e-05
11 *1692:B1 *1716:A1 3.30237e-05
*RES
1 *1690:X *1716:A1 36.6179 
*END

*D_NET *66 0.00213497
*CONN
*I *1713:A I *D sky130_fd_sc_hd__or4b_4
*I *1715:A I *D sky130_fd_sc_hd__or3b_1
*I *1719:A I *D sky130_fd_sc_hd__xor2_1
*I *1691:Y O *D sky130_fd_sc_hd__xnor2_1
*CAP
1 *1713:A 8.41265e-05
2 *1715:A 0.000125687
3 *1719:A 0
4 *1691:Y 0.000158675
5 *66:19 0.000743744
6 *66:12 0.000692605
7 *1715:A *1715:B 0
8 *1715:A *1715:C_N 4.1331e-06
9 *1715:A *1742:A0 0
10 *66:12 *1691:A 9.90367e-05
11 *66:12 *1719:B 3.34366e-05
12 *66:12 *1745:B 4.16021e-05
13 *66:19 *1720:A1 8.71847e-05
14 *1713:D_N *1713:A 6.47439e-05
*RES
1 *1691:Y *66:12 21.1929 
2 *66:12 *1719:A 9.3 
3 *66:12 *66:19 8.75 
4 *66:19 *1715:A 20.55 
5 *66:19 *1713:A 11.0857 
*END

*D_NET *67 0.00453494
*CONN
*I *1761:A I *D sky130_fd_sc_hd__or3_1
*I *1738:A1 I *D sky130_fd_sc_hd__o21ai_1
*I *1694:A2 I *D sky130_fd_sc_hd__a21o_1
*I *1693:C I *D sky130_fd_sc_hd__and3_1
*I *1692:X O *D sky130_fd_sc_hd__a21o_1
*CAP
1 *1761:A 0.000103867
2 *1738:A1 0
3 *1694:A2 0.000169945
4 *1693:C 7.83551e-05
5 *1692:X 5.36452e-05
6 *67:32 0.00033159
7 *67:19 0.000449638
8 *67:8 0.00018397
9 *1693:C *68:8 0.000136958
10 *1693:C *534:74 4.13595e-05
11 *1693:C *539:68 0.000124674
12 *1694:A2 *1694:A1 9.71197e-05
13 *1694:A2 *1694:B1 9.71197e-05
14 *1694:A2 *471:41 0.000181796
15 *1694:A2 *539:68 9.41642e-05
16 *1761:A *1761:C 9.71197e-05
17 *1761:A *136:14 9.77423e-05
18 *1761:A *512:25 9.97744e-05
19 *1761:A *512:36 2.14658e-05
20 *1761:A *531:72 0.000200406
21 *67:8 *1673:B 1.02504e-05
22 *67:8 *1716:B1 0.000174805
23 *67:8 *531:72 2.31791e-05
24 *67:8 *531:74 0.00013966
25 *67:19 *1695:A_N 9.91086e-05
26 *67:19 *1716:B1 2.31791e-05
27 *67:19 *531:72 0.000121573
28 *67:32 *1695:A_N 0.000209483
29 *67:32 *2111:A 1.08359e-05
30 *67:32 *512:12 0.000179053
31 *67:32 *512:25 4.46186e-06
32 *67:32 *531:72 0.00062666
33 *61:26 *1694:A2 0.000251979
*RES
1 *1692:X *67:8 16.05 
2 *67:8 *1693:C 15.8357 
3 *67:8 *67:19 1.64286 
4 *67:19 *1694:A2 18.8714 
5 *67:19 *67:32 8.01786 
6 *67:32 *1738:A1 13.8 
7 *67:32 *1761:A 17.7107 
*END

*D_NET *68 0.00264327
*CONN
*I *1695:A_N I *D sky130_fd_sc_hd__nand2b_1
*I *1716:B1 I *D sky130_fd_sc_hd__a21o_1
*I *1693:X O *D sky130_fd_sc_hd__and3_1
*CAP
1 *1695:A_N 0.000266234
2 *1716:B1 0.000246209
3 *1693:X 0.000143766
4 *68:8 0.000656209
5 *1695:A_N *2111:A 0.000296322
6 *1695:A_N *92:8 0.000114759
7 *1695:A_N *512:12 1.21258e-05
8 *1716:B1 *1673:B 5.08577e-05
9 *1716:B1 *1716:A2 0.000115258
10 *1716:B1 *92:8 3.51442e-05
11 *68:8 *534:74 1.21258e-05
12 *1693:C *68:8 0.000136958
13 *1716:A1 *1716:B1 5.07257e-05
14 *67:8 *1716:B1 0.000174805
15 *67:19 *1695:A_N 9.91086e-05
16 *67:19 *1716:B1 2.31791e-05
17 *67:32 *1695:A_N 0.000209483
*RES
1 *1693:X *68:8 15.5679 
2 *68:8 *1716:B1 19.7643 
3 *68:8 *1695:A_N 20.4786 
*END

*D_NET *69 0.00253221
*CONN
*I *1716:A2 I *D sky130_fd_sc_hd__a21o_1
*I *1695:B I *D sky130_fd_sc_hd__nand2b_1
*I *1694:X O *D sky130_fd_sc_hd__a21o_1
*CAP
1 *1716:A2 0.000346635
2 *1695:B 0.000234323
3 *1694:X 0.000293677
4 *69:6 0.000874635
5 *1695:B *534:66 0.000151613
6 *1695:B *561:6 9.93955e-05
7 *1716:A2 *2111:A 4.6355e-05
8 *1716:A2 *70:24 2.81946e-05
9 *1716:A2 *92:8 0.000147131
10 *69:6 *561:6 7.95355e-05
11 *1716:B1 *1716:A2 0.000115258
12 *61:26 *69:6 0.000115457
*RES
1 *1694:X *69:6 13.1214 
2 *69:6 *1695:B 22.1437 
3 *69:6 *1716:A2 24.8536 
*END

*D_NET *70 0.00312833
*CONN
*I *1713:C I *D sky130_fd_sc_hd__or4b_4
*I *1715:B I *D sky130_fd_sc_hd__or3b_1
*I *1695:Y O *D sky130_fd_sc_hd__nand2b_1
*CAP
1 *1713:C 0
2 *1715:B 0.000335296
3 *1695:Y 0.000615552
4 *70:24 0.000950848
5 *1715:B *1713:B 0.0001445
6 *1715:B *1715:C_N 0
7 *1715:B *1717:A1 8.28065e-06
8 *70:24 *1713:B 9.66977e-05
9 *70:24 *1717:A1 3.52311e-05
10 *70:24 *1717:A3 7.6997e-05
11 *70:24 *1746:A0 1.58716e-05
12 *70:24 *1746:A1 0.000121254
13 *70:24 *121:14 0
14 *70:24 *534:66 0.000191382
15 *70:24 *561:23 0.000110089
16 *1713:D_N *70:24 0.000178425
17 *1715:A *1715:B 0
18 *1716:A2 *70:24 2.81946e-05
19 *64:24 *70:24 0.000219711
*RES
1 *1695:Y *70:24 39.3536 
2 *70:24 *1715:B 23.8357 
3 *70:24 *1713:C 9.3 
*END

*D_NET *71 0.000545997
*CONN
*I *1697:B I *D sky130_fd_sc_hd__xnor2_1
*I *1696:Y O *D sky130_fd_sc_hd__xnor2_1
*CAP
1 *1697:B 0.000237843
2 *1696:Y 0.000237843
3 *1697:B *1699:C 7.03103e-05
*RES
1 *1696:Y *1697:B 22.85 
*END

*D_NET *72 0.00180891
*CONN
*I *1699:C I *D sky130_fd_sc_hd__or3_4
*I *1697:Y O *D sky130_fd_sc_hd__xnor2_1
*CAP
1 *1699:C 0.000619059
2 *1697:Y 0.000619059
3 *1699:C *1698:B1 5.71472e-05
4 *1699:C *1707:C 0.000356894
5 *1666:C1 *1699:C 1.69115e-05
6 *1697:A *1699:C 0
7 *1697:B *1699:C 7.03103e-05
8 *34:14 *1699:C 6.95299e-05
9 *35:10 *1699:C 0
*RES
1 *1697:Y *1699:C 39.6714 
*END

*D_NET *73 0.00291765
*CONN
*I *1703:A1 I *D sky130_fd_sc_hd__a21o_1
*I *1701:C I *D sky130_fd_sc_hd__and3_1
*I *1700:A I *D sky130_fd_sc_hd__nand2_1
*I *1702:A1 I *D sky130_fd_sc_hd__a21oi_1
*I *1698:X O *D sky130_fd_sc_hd__a21o_1
*CAP
1 *1703:A1 0
2 *1701:C 0
3 *1700:A 0.000174104
4 *1702:A1 3.62877e-05
5 *1698:X 0.00027972
6 *73:31 0.000409439
7 *73:18 0.000315266
8 *73:12 0.000323364
9 *1700:A *1700:B 0.000155512
10 *1700:A *1711:B 3.69336e-05
11 *1702:A1 *1703:A2 3.63281e-05
12 *1702:A1 *84:44 7.83587e-05
13 *73:12 *1701:A 0
14 *73:12 *1709:A1 5.52302e-05
15 *73:12 *1710:C 3.45806e-06
16 *73:12 *1711:B 0
17 *73:12 *81:8 9.18888e-05
18 *73:12 *81:17 0.000288508
19 *73:12 *82:24 0.000223746
20 *73:12 *85:6 0.000143375
21 *73:18 *1703:A2 2.71557e-05
22 *73:18 *1711:B 6.05161e-06
23 *73:18 *84:44 4.73656e-05
24 *73:18 *85:6 1.51571e-05
25 *73:31 *1700:B 6.2337e-05
26 *73:31 *1701:A 7.32173e-05
27 *73:31 *1703:B1 1.98839e-05
28 *73:31 *1711:B 1.4966e-05
*RES
1 *1698:X *73:12 16.3536 
2 *73:12 *73:18 5.76786 
3 *73:18 *1702:A1 14.8357 
4 *73:18 *73:31 7.57143 
5 *73:31 *1700:A 12.1393 
6 *73:31 *1701:C 9.3 
7 *73:12 *1703:A1 9.3 
*END

*D_NET *74 0.00296276
*CONN
*I *1702:A2 I *D sky130_fd_sc_hd__a21oi_1
*I *1703:A2 I *D sky130_fd_sc_hd__a21o_1
*I *1700:B I *D sky130_fd_sc_hd__nand2_1
*I *1701:B I *D sky130_fd_sc_hd__and3_1
*I *1699:X O *D sky130_fd_sc_hd__or3_4
*CAP
1 *1702:A2 0
2 *1703:A2 0.000112817
3 *1700:B 9.27769e-05
4 *1701:B 7.99827e-05
5 *1699:X 0.00025172
6 *74:14 0.000407687
7 *74:8 0.000599465
8 *1700:B *1701:A 0
9 *1700:B *1711:B 0.000167759
10 *1700:B *77:12 6.2589e-06
11 *1701:B *1714:A1 5.80706e-06
12 *1701:B *1740:B1 0
13 *1701:B *76:12 5.80706e-06
14 *1701:B *77:12 0
15 *1701:B *84:18 0
16 *1703:A2 *1709:A1 4.04221e-05
17 *1703:A2 *1709:B1 2.38651e-06
18 *1703:A2 *84:44 1.46717e-05
19 *1703:A2 *283:26 5.49489e-05
20 *74:8 *1709:B1 9.83388e-05
21 *74:8 *84:8 0.000105751
22 *74:8 *283:26 0.000181957
23 *74:14 *77:12 0
24 *74:14 *84:8 4.03934e-05
25 *74:14 *84:18 0.000271345
26 *74:14 *283:26 0.000141131
27 *1700:A *1700:B 0.000155512
28 *1702:A1 *1703:A2 3.63281e-05
29 *73:18 *1703:A2 2.71557e-05
30 *73:31 *1700:B 6.2337e-05
*RES
1 *1699:X *74:8 15.6036 
2 *74:8 *74:14 10.0089 
3 *74:14 *1701:B 14.9875 
4 *74:14 *1700:B 16.8089 
5 *74:8 *1703:A2 21.0857 
6 *74:8 *1702:A2 9.3 
*END

*D_NET *75 0.00310915
*CONN
*I *1742:A0 I *D sky130_fd_sc_hd__mux2_4
*I *1700:Y O *D sky130_fd_sc_hd__nand2_1
*CAP
1 *1742:A0 0.000767265
2 *1700:Y 0.000767265
3 *1742:A0 *1691:A 0
4 *1742:A0 *1714:B1 0
5 *1742:A0 *1715:C_N 0
6 *1742:A0 *1717:A2 0
7 *1742:A0 *1720:A1 4.7741e-05
8 *1742:A0 *1742:A1 0.000159512
9 *1742:A0 *1742:S 0.000177948
10 *1742:A0 *76:12 8.06427e-05
11 *1742:A0 *89:10 8.15939e-05
12 *1742:A0 *539:37 0
13 *1715:A *1742:A0 0
14 *1720:A0 *1742:A0 0.000343203
15 *1740:A1 *1742:A0 0.000126439
16 *61:62 *1742:A0 0.000557544
*RES
1 *1700:Y *1742:A0 47.4929 
*END

*D_NET *76 0.00151583
*CONN
*I *2130:A I *D sky130_fd_sc_hd__dlygate4sd3_1
*I *1712:D I *D sky130_fd_sc_hd__or4_4
*I *1704:A I *D sky130_fd_sc_hd__nor2_1
*I *1701:X O *D sky130_fd_sc_hd__and3_1
*CAP
1 *2130:A 0.000252833
2 *1712:D 0
3 *1704:A 0
4 *1701:X 9.56916e-05
5 *76:21 0.000421193
6 *76:12 0.000264051
7 *2130:A *1712:A 2.84109e-05
8 *2130:A *1712:B 8.43535e-06
9 *2130:A *1713:B 4.69852e-05
10 *2130:A *1714:A2 8.57023e-05
11 *2130:A *1714:B1 0
12 *76:12 *1704:B 5.52238e-05
13 *76:12 *1714:A1 0
14 *76:12 *1714:B1 4.46186e-06
15 *76:21 *1704:B 0.000109249
16 *76:21 *1714:A2 5.71472e-05
17 *76:21 *1740:A2 0
18 *1701:B *76:12 5.80706e-06
19 *1742:A0 *76:12 8.06427e-05
*RES
1 *1701:X *76:12 20.7821 
2 *76:12 *1704:A 9.3 
3 *76:12 *76:21 3.42857 
4 *76:21 *1712:D 9.3 
5 *76:21 *2130:A 22.8357 
*END

*D_NET *77 0.00185916
*CONN
*I *1712:B I *D sky130_fd_sc_hd__or4_4
*I *1704:B I *D sky130_fd_sc_hd__nor2_1
*I *1702:Y O *D sky130_fd_sc_hd__a21oi_1
*CAP
1 *1712:B 9.1379e-05
2 *1704:B 0.000240509
3 *1702:Y 0.000258619
4 *77:12 0.000590507
5 *1704:B *1714:A2 2.89016e-05
6 *1704:B *1740:A2 5.7661e-06
7 *1704:B *79:6 1.33343e-05
8 *1712:B *1712:A 1.24368e-05
9 *1712:B *1712:C 2.0876e-05
10 *1712:B *1714:A2 5.03772e-05
11 *77:12 *1714:A1 5.10822e-05
12 *77:12 *1714:A2 1.17968e-05
13 *77:12 *84:18 5.52302e-05
14 *77:12 *84:44 9.32502e-05
15 *77:12 *283:32 0.000150618
16 *1700:B *77:12 6.2589e-06
17 *1701:B *77:12 0
18 *1740:A1 *1704:B 5.30637e-06
19 *2130:A *1712:B 8.43535e-06
20 *74:14 *77:12 0
21 *76:12 *1704:B 5.52238e-05
22 *76:21 *1704:B 0.000109249
*RES
1 *1702:Y *77:12 23.8179 
2 *77:12 *1704:B 14.1036 
3 *77:12 *1712:B 11.0857 
*END

*D_NET *78 0.000524866
*CONN
*I *1714:A1 I *D sky130_fd_sc_hd__a21o_1
*I *1703:X O *D sky130_fd_sc_hd__a21o_1
*CAP
1 *1714:A1 0.000181567
2 *1703:X 0.000181567
3 *1714:A1 *1711:B 9.90367e-05
4 *1714:A1 *1714:A2 0
5 *1714:A1 *1714:B1 5.80706e-06
6 *1701:B *1714:A1 5.80706e-06
7 *76:12 *1714:A1 0
8 *77:12 *1714:A1 5.10822e-05
*RES
1 *1703:X *1714:A1 30.4929 
*END

*D_NET *79 0.00157579
*CONN
*I *1718:A2 I *D sky130_fd_sc_hd__a31o_1
*I *1741:A I *D sky130_fd_sc_hd__xnor2_1
*I *1704:Y O *D sky130_fd_sc_hd__nor2_1
*CAP
1 *1718:A2 0.000113847
2 *1741:A 0.000163737
3 *1704:Y 6.32755e-05
4 *79:6 0.000340859
5 *1718:A2 *1740:B1 5.66157e-05
6 *1718:A2 *1742:A1 0.000222878
7 *1718:A2 *86:10 0
8 *1718:A2 *86:23 0
9 *1741:A *1740:A2 3.98547e-05
10 *1741:A *1740:B1 2.89016e-05
11 *1741:A *1741:B 0.000186662
12 *1741:A *1742:A1 0.000268396
13 *79:6 *1740:A2 1.58163e-05
14 *79:6 *1742:A1 4.08637e-05
15 *1704:B *79:6 1.33343e-05
16 *1740:A1 *79:6 2.07491e-05
*RES
1 *1704:Y *79:6 10.6571 
2 *79:6 *1741:A 13.8536 
3 *79:6 *1718:A2 21.1571 
*END

*D_NET *80 0.00149698
*CONN
*I *1707:C I *D sky130_fd_sc_hd__or3_4
*I *1705:Y O *D sky130_fd_sc_hd__xnor2_1
*CAP
1 *1707:C 0.000482863
2 *1705:Y 0.000482863
3 *1707:C *1698:B1 0
4 *1687:B *1707:C 0
5 *1699:C *1707:C 0.000356894
6 *1705:B *1707:C 0.000174361
7 *35:10 *1707:C 0
*RES
1 *1705:Y *1707:C 36.3321 
*END

*D_NET *81 0.00176686
*CONN
*I *1710:B I *D sky130_fd_sc_hd__and3_1
*I *1709:A1 I *D sky130_fd_sc_hd__a21oi_1
*I *1708:A I *D sky130_fd_sc_hd__and2_1
*I *1706:X O *D sky130_fd_sc_hd__a21o_1
*CAP
1 *1710:B 2.23854e-05
2 *1709:A1 0.000126783
3 *1708:A 0
4 *1706:X 0.00013558
5 *81:17 0.000279627
6 *81:8 0.000266039
7 *1709:A1 *1709:A2 0.00010288
8 *1709:A1 *1709:B1 6.52971e-06
9 *1709:A1 *84:44 0
10 *81:8 *82:20 6.48691e-05
11 *81:17 *1746:A0 5.49489e-05
12 *81:17 *82:20 9.83442e-05
13 *1698:A1 *81:8 0.00010096
14 *1698:A2 *81:8 3.18676e-05
15 *1703:A2 *1709:A1 4.04221e-05
16 *73:12 *1709:A1 5.52302e-05
17 *73:12 *81:8 9.18888e-05
18 *73:12 *81:17 0.000288508
*RES
1 *1706:X *81:8 12.7286 
2 *81:8 *1708:A 9.3 
3 *81:8 *81:17 3.73214 
4 *81:17 *1709:A1 21.0857 
5 *81:17 *1710:B 9.72857 
*END

*D_NET *82 0.00333173
*CONN
*I *1708:B I *D sky130_fd_sc_hd__and2_1
*I *1709:A2 I *D sky130_fd_sc_hd__a21oi_1
*I *1710:C I *D sky130_fd_sc_hd__and3_1
*I *1707:X O *D sky130_fd_sc_hd__or3_4
*CAP
1 *1708:B 0
2 *1709:A2 8.47967e-05
3 *1710:C 1.17268e-05
4 *1707:X 0.000776857
5 *82:24 0.0002126
6 *82:20 0.000892933
7 *1709:A2 *1709:B1 0.000157299
8 *82:20 *546:81 3.42301e-05
9 *82:24 *1710:A 5.49489e-05
10 *1698:A2 *82:20 0.000151061
11 *1699:A *82:20 7.57127e-05
12 *1706:B1 *82:20 0
13 *1709:A1 *1709:A2 0.00010288
14 *45:12 *82:20 8.46829e-05
15 *46:10 *82:20 2.32517e-05
16 *48:12 *82:20 4.25523e-05
17 *49:14 *82:20 0.000235781
18 *73:12 *1710:C 3.45806e-06
19 *73:12 *82:24 0.000223746
20 *81:8 *82:20 6.48691e-05
21 *81:17 *82:20 9.83442e-05
*RES
1 *1707:X *82:20 39.8536 
2 *82:20 *82:24 2.60714 
3 *82:24 *1710:C 9.49643 
4 *82:24 *1709:A2 20.2464 
5 *82:20 *1708:B 9.3 
*END

*D_NET *83 0.00254078
*CONN
*I *1746:A0 I *D sky130_fd_sc_hd__mux2_4
*I *1708:X O *D sky130_fd_sc_hd__and2_1
*CAP
1 *1746:A0 0.000682169
2 *1708:X 0.000682169
3 *1746:A0 *1713:B 0.000223443
4 *1746:A0 *1714:A2 0
5 *1746:A0 *1717:A1 0.000335208
6 *1746:A0 *1717:A3 0.000121248
7 *1746:A0 *1746:S 9.60939e-05
8 *1746:A0 *534:66 7.2754e-05
9 *1746:A0 *546:81 7.70035e-05
10 *1746:A0 *561:6 4.18895e-05
11 *61:26 *1746:A0 0.000137983
12 *70:24 *1746:A0 1.58716e-05
13 *81:17 *1746:A0 5.49489e-05
*RES
1 *1708:X *1746:A0 43.2786 
*END

*D_NET *84 0.00355728
*CONN
*I *1714:A2 I *D sky130_fd_sc_hd__a21o_1
*I *1712:C I *D sky130_fd_sc_hd__or4_4
*I *1740:B1 I *D sky130_fd_sc_hd__a21o_1
*I *1711:A I *D sky130_fd_sc_hd__nor2_1
*I *1709:Y O *D sky130_fd_sc_hd__a21oi_1
*CAP
1 *1714:A2 7.7987e-05
2 *1712:C 1.7078e-05
3 *1740:B1 0.000224795
4 *1711:A 0
5 *1709:Y 0.000103343
6 *84:44 0.000257602
7 *84:18 0.000693593
8 *84:8 0.000734677
9 *1714:A2 *1712:A 5.59013e-05
10 *1740:B1 *1740:A2 5.52238e-05
11 *1740:B1 *1742:A1 1.08359e-05
12 *1740:B1 *86:10 2.91017e-05
13 *84:44 *1712:A 0.000101545
14 *84:44 *283:32 0.000148911
15 *1701:B *1740:B1 0
16 *1701:B *84:18 0
17 *1702:A1 *84:44 7.83587e-05
18 *1703:A2 *84:44 1.46717e-05
19 *1704:B *1714:A2 2.89016e-05
20 *1709:A1 *84:44 0
21 *1712:B *1712:C 2.0876e-05
22 *1712:B *1714:A2 5.03772e-05
23 *1714:A1 *1714:A2 0
24 *1718:A2 *1740:B1 5.66157e-05
25 *1741:A *1740:B1 2.89016e-05
26 *1746:A0 *1714:A2 0
27 *2130:A *1714:A2 8.57023e-05
28 *73:18 *84:44 4.73656e-05
29 *74:8 *84:8 0.000105751
30 *74:14 *84:8 4.03934e-05
31 *74:14 *84:18 0.000271345
32 *76:21 *1714:A2 5.71472e-05
33 *77:12 *1714:A2 1.17968e-05
34 *77:12 *84:18 5.52302e-05
35 *77:12 *84:44 9.32502e-05
*RES
1 *1709:Y *84:8 11.4964 
2 *84:8 *84:18 13.1786 
3 *84:18 *1711:A 13.8 
4 *84:18 *1740:B1 17.8536 
5 *84:8 *84:44 8.875 
6 *84:44 *1712:C 14.0098 
7 *84:44 *1714:A2 16.1929 
*END

*D_NET *85 0.00190526
*CONN
*I *1712:A I *D sky130_fd_sc_hd__or4_4
*I *1711:B I *D sky130_fd_sc_hd__nor2_1
*I *1710:X O *D sky130_fd_sc_hd__and3_1
*CAP
1 *1712:A 0.000134625
2 *1711:B 0.000331281
3 *1710:X 8.45563e-05
4 *85:6 0.000550463
5 *1711:B *1701:A 8.34951e-05
6 *1711:B *1703:B1 2.59355e-05
7 *1711:B *86:10 1.33343e-05
8 *1700:A *1711:B 3.69336e-05
9 *1700:B *1711:B 0.000167759
10 *1712:B *1712:A 1.24368e-05
11 *1714:A1 *1711:B 9.90367e-05
12 *1714:A2 *1712:A 5.59013e-05
13 *2130:A *1712:A 2.84109e-05
14 *73:12 *1711:B 0
15 *73:12 *85:6 0.000143375
16 *73:18 *1711:B 6.05161e-06
17 *73:18 *85:6 1.51571e-05
18 *73:31 *1711:B 1.4966e-05
19 *84:44 *1712:A 0.000101545
*RES
1 *1710:X *85:6 11.0679 
2 *85:6 *1711:B 17.2107 
3 *85:6 *1712:A 20.7821 
*END

*D_NET *86 0.00258862
*CONN
*I *1745:B I *D sky130_fd_sc_hd__xnor2_1
*I *1718:A3 I *D sky130_fd_sc_hd__a31o_1
*I *1740:A2 I *D sky130_fd_sc_hd__a21o_1
*I *1711:Y O *D sky130_fd_sc_hd__nor2_1
*CAP
1 *1745:B 0.000346964
2 *1718:A3 7.49806e-05
3 *1740:A2 0.000137794
4 *1711:Y 0.000365734
5 *86:23 0.000553982
6 *86:10 0.000635566
7 *1718:A3 *1719:B 2.89114e-05
8 *1740:A2 *1741:B 6.05161e-06
9 *1745:B *1719:B 0.000184635
10 *1745:B *1742:A1 0
11 *86:23 *1742:A1 0
12 *1704:B *1740:A2 5.7661e-06
13 *1711:B *86:10 1.33343e-05
14 *1718:A2 *86:10 0
15 *1718:A2 *86:23 0
16 *1740:A1 *1740:A2 5.33005e-05
17 *1740:B1 *1740:A2 5.52238e-05
18 *1740:B1 *86:10 2.91017e-05
19 *1741:A *1740:A2 3.98547e-05
20 *66:12 *1745:B 4.16021e-05
21 *76:21 *1740:A2 0
22 *79:6 *1740:A2 1.58163e-05
*RES
1 *1711:Y *86:10 18.6393 
2 *86:10 *1740:A2 16.4071 
3 *86:10 *86:23 2.25 
4 *86:23 *1718:A3 15.1571 
5 *86:23 *1745:B 20.9071 
*END

*D_NET *87 0.00152387
*CONN
*I *1713:B I *D sky130_fd_sc_hd__or4b_4
*I *1712:X O *D sky130_fd_sc_hd__or4_4
*CAP
1 *1713:B 0.000393816
2 *1712:X 0.000393816
3 *1713:B *1715:C_N 0
4 *1713:B *1717:A1 0.000196262
5 *1713:D_N *1713:B 2.83545e-05
6 *1715:B *1713:B 0.0001445
7 *1746:A0 *1713:B 0.000223443
8 *2130:A *1713:B 4.69852e-05
9 *70:24 *1713:B 9.66977e-05
*RES
1 *1712:X *1713:B 37.2071 
*END

*D_NET *88 0.000660114
*CONN
*I *1717:A2 I *D sky130_fd_sc_hd__a311oi_4
*I *1713:X O *D sky130_fd_sc_hd__or4b_4
*CAP
1 *1717:A2 0.000151597
2 *1713:X 0.000151597
3 *1717:A2 *1691:A 0
4 *1717:A2 *1717:A3 0.000139208
5 *1717:A2 *1746:A1 7.1959e-05
6 *1713:D_N *1717:A2 7.83587e-05
7 *1742:A0 *1717:A2 0
8 *61:26 *1717:A2 6.73939e-05
*RES
1 *1713:X *1717:A2 30.9036 
*END

*D_NET *89 0.00110444
*CONN
*I *1715:C_N I *D sky130_fd_sc_hd__or3b_1
*I *1718:B1 I *D sky130_fd_sc_hd__a31o_1
*I *1714:X O *D sky130_fd_sc_hd__a21o_1
*CAP
1 *1715:C_N 0.000252808
2 *1718:B1 0.000115116
3 *1714:X 6.59435e-05
4 *89:10 0.000433867
5 *1715:C_N *1714:B1 5.41609e-05
6 *89:10 *1714:B1 4.15914e-05
7 *1713:B *1715:C_N 0
8 *1715:A *1715:C_N 4.1331e-06
9 *1715:B *1715:C_N 0
10 *1718:A1 *1718:B1 5.52238e-05
11 *1742:A0 *1715:C_N 0
12 *1742:A0 *89:10 8.15939e-05
*RES
1 *1714:X *89:10 20.2464 
2 *89:10 *1718:B1 11.0679 
3 *89:10 *1715:C_N 23.0321 
*END

*D_NET *90 0.00126193
*CONN
*I *1717:A1 I *D sky130_fd_sc_hd__a311oi_4
*I *1715:X O *D sky130_fd_sc_hd__or3b_1
*CAP
1 *1717:A1 0.000343473
2 *1715:X 0.000343473
3 *1713:B *1717:A1 0.000196262
4 *1715:B *1717:A1 8.28065e-06
5 *1746:A0 *1717:A1 0.000335208
6 *70:24 *1717:A1 3.52311e-05
*RES
1 *1715:X *1717:A1 34.1536 
*END

*D_NET *91 0.00139218
*CONN
*I *1717:A3 I *D sky130_fd_sc_hd__a311oi_4
*I *1716:X O *D sky130_fd_sc_hd__a21o_1
*CAP
1 *1717:A3 0.000212965
2 *1716:X 0.000212965
3 *1717:A3 *1746:A1 4.74632e-05
4 *1717:A3 *534:66 6.86693e-05
5 *1717:A2 *1717:A3 0.000139208
6 *1746:A0 *1717:A3 0.000121248
7 *64:24 *1717:A3 0.000512665
8 *70:24 *1717:A3 7.6997e-05
*RES
1 *1716:X *1717:A3 34.3143 
*END

*D_NET *92 0.00107601
*CONN
*I *2111:A I *D sky130_fd_sc_hd__buf_6
*I *2128:A I *D sky130_fd_sc_hd__buf_6
*I *1717:Y O *D sky130_fd_sc_hd__a311oi_4
*CAP
1 *2111:A 0.000159027
2 *2128:A 0
3 *1717:Y 5.06806e-05
4 *92:8 0.000209708
5 *2111:A *512:12 6.05161e-06
6 *1695:A_N *2111:A 0.000296322
7 *1695:A_N *92:8 0.000114759
8 *1716:A2 *2111:A 4.6355e-05
9 *1716:A2 *92:8 0.000147131
10 *1716:B1 *92:8 3.51442e-05
11 *67:32 *2111:A 1.08359e-05
*RES
1 *1717:Y *92:8 15.7464 
2 *92:8 *2128:A 13.8 
3 *92:8 *2111:A 17.6036 
*END

*D_NET *93 0.000831978
*CONN
*I *1719:B I *D sky130_fd_sc_hd__xor2_1
*I *1718:X O *D sky130_fd_sc_hd__a31o_1
*CAP
1 *1719:B 0.000292498
2 *1718:X 0.000292498
3 *1718:A3 *1719:B 2.89114e-05
4 *1745:B *1719:B 0.000184635
5 *66:12 *1719:B 3.34366e-05
*RES
1 *1718:X *1719:B 33.3321 
*END

*D_NET *94 0.00174449
*CONN
*I *1720:A1 I *D sky130_fd_sc_hd__mux2_4
*I *1719:X O *D sky130_fd_sc_hd__xor2_1
*CAP
1 *1720:A1 0.000318875
2 *1719:X 0.000318875
3 *1720:A1 *1742:A1 0.000529507
4 *1720:A0 *1720:A1 0.000343203
5 *1742:A0 *1720:A1 4.7741e-05
6 *61:62 *1720:A1 9.91086e-05
7 *66:19 *1720:A1 8.71847e-05
*RES
1 *1719:X *1720:A1 36.5821 
*END

*D_NET *95 0.00256744
*CONN
*I *1737:B I *D sky130_fd_sc_hd__xor2_1
*I *1756:A I *D sky130_fd_sc_hd__nor2_1
*I *1752:B1_N I *D sky130_fd_sc_hd__o21bai_1
*I *1720:X O *D sky130_fd_sc_hd__mux2_4
*CAP
1 *1737:B 0.000176952
2 *1756:A 0
3 *1752:B1_N 0
4 *1720:X 0.000287827
5 *95:23 0.000430647
6 *95:10 0.000541522
7 *1737:B *1737:A 0.000250043
8 *1737:B *1756:B 5.52238e-05
9 *1737:B *1760:B1 3.18676e-05
10 *1737:B *112:10 2.89114e-05
11 *95:10 *121:14 0.000187902
12 *95:10 *534:50 0
13 *95:10 *534:66 0
14 *95:10 *561:23 0.000227539
15 *95:10 *565:33 0
16 *95:23 *1737:A 0.000137427
17 *95:23 *1754:B1 0
18 *95:23 *121:14 6.47912e-05
19 *95:23 *534:48 6.42338e-05
20 *95:23 *565:12 5.66157e-05
21 *95:23 *565:33 2.59355e-05
*RES
1 *1720:X *95:10 20.3536 
2 *95:10 *1752:B1_N 13.8 
3 *95:10 *95:23 10.0536 
4 *95:23 *1756:A 9.3 
5 *95:23 *1737:B 13.9607 
*END

*D_NET *96 0.000617921
*CONN
*I *1722:A1 I *D sky130_fd_sc_hd__mux2_1
*I *1721:Y O *D sky130_fd_sc_hd__xnor2_1
*CAP
1 *1722:A1 0.000199575
2 *1721:Y 0.000199575
3 *1722:A1 *512:36 3.05446e-05
4 *1722:A1 *512:51 3.15101e-05
5 *1722:A1 *515:33 7.83587e-05
6 *1722:A1 *546:121 7.83587e-05
*RES
1 *1721:Y *1722:A1 30.8143 
*END

*D_NET *97 0.00621477
*CONN
*I *1785:A I *D sky130_fd_sc_hd__nor2_1
*I *1723:A I *D sky130_fd_sc_hd__inv_2
*I *1725:B I *D sky130_fd_sc_hd__and2_1
*I *1724:B I *D sky130_fd_sc_hd__nor2_1
*I *1722:X O *D sky130_fd_sc_hd__mux2_1
*CAP
1 *1785:A 0.000148416
2 *1723:A 0.000139749
3 *1725:B 0.000180374
4 *1724:B 3.85885e-05
5 *1722:X 0.000509925
6 *97:25 0.000483108
7 *97:21 0.000353626
8 *97:10 0.000590738
9 *1723:A *1784:B1 0.000105696
10 *1723:A *1786:A2 0.000153047
11 *1723:A *1788:B 0.000248493
12 *1723:A *497:29 0.000135028
13 *1724:B *1782:A 1.33343e-05
14 *1725:B *1725:A 4.00679e-05
15 *1785:A *1785:B 2.84494e-05
16 *1785:A *155:14 0.000105479
17 *1785:A *283:85 0.000412326
18 *1785:A *542:109 4.49293e-05
19 *97:10 *1596:C 4.15183e-05
20 *97:10 *1735:B1 0.000125731
21 *97:10 *283:85 0.000895987
22 *97:10 *512:36 0.000270326
23 *97:10 *542:63 0.000647016
24 *97:10 *542:109 9.25014e-06
25 *97:21 *283:85 0.00015134
26 *97:21 *542:109 0.00014209
27 *97:25 *1725:A 2.42516e-05
28 *97:25 *1783:A 0.000175892
*RES
1 *1722:X *97:10 28.05 
2 *97:10 *1724:B 14.3357 
3 *97:10 *97:21 1.94643 
4 *97:21 *97:25 7.08929 
5 *97:25 *1725:B 11.9071 
6 *97:25 *1723:A 22.8179 
7 *97:21 *1785:A 19.0857 
*END

*D_NET *98 0.000759799
*CONN
*I *1787:A1 I *D sky130_fd_sc_hd__o211a_1
*I *1723:Y O *D sky130_fd_sc_hd__inv_2
*CAP
1 *1787:A1 0.000189525
2 *1723:Y 0.000189525
3 *1787:A1 *2051:A 1.94879e-05
4 *1787:A1 *136:14 0.000122074
5 *1787:A1 *283:93 0.000182592
6 *1787:A1 *497:29 5.65955e-05
*RES
1 *1723:Y *1787:A1 31.5464 
*END

*D_NET *99 0.00145331
*CONN
*I *1782:A I *D sky130_fd_sc_hd__or2_1
*I *1735:B1 I *D sky130_fd_sc_hd__a211oi_4
*I *1724:Y O *D sky130_fd_sc_hd__nor2_1
*CAP
1 *1782:A 0.000138254
2 *1735:B1 0.000153041
3 *1724:Y 0
4 *99:4 0.000291294
5 *1735:B1 *1596:C 6.52525e-05
6 *1735:B1 *1777:B 0.000110029
7 *1735:B1 *110:14 0.000353079
8 *1735:B1 *542:63 0.000127446
9 *1782:A *542:55 7.58495e-05
10 *1724:B *1782:A 1.33343e-05
11 *97:10 *1735:B1 0.000125731
*RES
1 *1724:Y *99:4 9.3 
2 *99:4 *1735:B1 14.4018 
3 *99:4 *1782:A 11.8179 
*END

*D_NET *100 0.00504176
*CONN
*I *1782:B I *D sky130_fd_sc_hd__or2_1
*I *1766:A1 I *D sky130_fd_sc_hd__o32a_1
*I *1757:A1 I *D sky130_fd_sc_hd__o31a_1
*I *1754:A1 I *D sky130_fd_sc_hd__o31a_1
*I *1736:A I *D sky130_fd_sc_hd__nor2_1
*I *1725:X O *D sky130_fd_sc_hd__and2_1
*CAP
1 *1782:B 0.000182797
2 *1766:A1 3.89225e-05
3 *1757:A1 3.41335e-05
4 *1754:A1 0.000193957
5 *1736:A 0
6 *1725:X 3.46943e-05
7 *100:36 0.000662796
8 *100:8 0.000982946
9 *100:6 0.000416741
10 *1754:A1 *1754:A2 1.98839e-05
11 *1754:A1 *129:8 9.83442e-05
12 *1754:A1 *531:25 0.000337644
13 *1754:A1 *565:12 0.000150618
14 *1754:A1 *565:73 0.000247771
15 *1757:A1 *135:18 0.000128146
16 *1757:A1 *534:27 0.000129868
17 *1766:A1 *1748:B 2.59355e-05
18 *1766:A1 *123:8 5.33005e-05
19 *1766:A1 *135:18 5.41794e-05
20 *1766:A1 *534:27 4.73656e-05
21 *1782:B *1784:B1 6.94952e-05
22 *1782:B *1787:B1 0.000179021
23 *1782:B *110:14 5.42974e-05
24 *1782:B *542:55 0.000351388
25 *100:8 *531:25 0.000144268
26 *100:36 *1736:B 0.000205823
27 *100:36 *1766:A2 3.45337e-05
28 *100:36 *1766:A3 4.27935e-05
29 *100:36 *1766:B1 2.59355e-05
30 *100:36 *123:8 9.41642e-05
*RES
1 *1725:X *100:6 9.83571 
2 *100:6 *100:8 3.82143 
3 *100:8 *1736:A 9.3 
4 *100:8 *1754:A1 24.6393 
5 *100:8 *100:36 13.1964 
6 *100:36 *1757:A1 15.4429 
7 *100:36 *1766:A1 15.0679 
8 *100:6 *1782:B 23.6571 
*END

*D_NET *101 0.000460303
*CONN
*I *1727:B I *D sky130_fd_sc_hd__nand2_1
*I *1726:Y O *D sky130_fd_sc_hd__nand2_1
*CAP
1 *1727:B 9.22586e-05
2 *1726:Y 9.22586e-05
3 *1727:B *1728:A1 8.43535e-06
4 *1727:B *516:23 0.000128154
5 *1727:B *548:10 6.05161e-06
6 *1727:B *548:18 7.79212e-05
7 *60:8 *1727:B 5.52238e-05
*RES
1 *1726:Y *1727:B 30.1893 
*END

*D_NET *102 0.000816857
*CONN
*I *1728:A1 I *D sky130_fd_sc_hd__mux2_4
*I *1727:Y O *D sky130_fd_sc_hd__nand2_1
*CAP
1 *1728:A1 0.000190062
2 *1727:Y 0.000190062
3 *1728:A1 *512:51 5.52238e-05
4 *1728:A1 *516:112 0.000148189
5 *1728:A1 *548:10 5.52302e-05
6 *1728:A1 *548:38 0.000148189
7 *1727:B *1728:A1 8.43535e-06
8 *60:8 *1728:A1 2.14658e-05
*RES
1 *1727:Y *1728:A1 31.3143 
*END

*D_NET *103 0.00227418
*CONN
*I *1731:B I *D sky130_fd_sc_hd__xnor2_2
*I *1730:B I *D sky130_fd_sc_hd__and2_1
*I *1781:A1 I *D sky130_fd_sc_hd__o211a_1
*I *1729:A I *D sky130_fd_sc_hd__inv_2
*I *1728:X O *D sky130_fd_sc_hd__mux2_4
*CAP
1 *1731:B 0.000202149
2 *1730:B 0
3 *1781:A1 0.000174044
4 *1729:A 4.20973e-05
5 *1728:X 0
6 *103:10 0.00029119
7 *103:8 0.000269178
8 *103:4 0.000396279
9 *1729:A *534:118 4.01768e-05
10 *1731:B *1776:B 0.000197127
11 *1731:B *1867:A2 0
12 *1731:B *546:121 4.75521e-05
13 *1731:B *548:38 0
14 *1781:A1 *1777:B 0
15 *1781:A1 *1778:B1 1.24368e-05
16 *1781:A1 *1780:C1 2.95641e-05
17 *1781:A1 *1781:B1 5.83917e-05
18 *1781:A1 *1781:C1 5.52238e-05
19 *1781:A1 *105:10 5.01117e-05
20 *1781:A1 *151:6 0.000228558
21 *1781:A1 *273:27 0
22 *1781:A1 *536:20 0
23 *103:8 *273:25 0.000109616
24 *103:10 *273:25 6.05161e-06
25 *103:10 *534:118 6.44345e-05
*RES
1 *1728:X *103:4 9.3 
2 *103:4 *103:8 3.42857 
3 *103:8 *103:10 1.76786 
4 *103:10 *1729:A 10.2464 
5 *103:10 *1781:A1 22.8536 
6 *103:8 *1730:B 9.3 
7 *103:4 *1731:B 22.675 
*END

*D_NET *104 0.00193104
*CONN
*I *1780:A1 I *D sky130_fd_sc_hd__o211a_1
*I *1729:Y O *D sky130_fd_sc_hd__inv_2
*CAP
1 *1780:A1 0.000500857
2 *1729:Y 0.000500857
3 *1780:A1 *1761:C 0.000112935
4 *1780:A1 *2053:A 1.21258e-05
5 *1780:A1 *108:8 9.0145e-05
6 *1780:A1 *130:14 1.08359e-05
7 *1780:A1 *510:39 0.000338541
8 *1780:A1 *534:118 3.46602e-05
9 *1780:A1 *542:63 0.000330079
*RES
1 *1729:Y *1780:A1 37.1536 
*END

*D_NET *105 0.00209002
*CONN
*I *1734:B1 I *D sky130_fd_sc_hd__a21o_1
*I *1735:C1 I *D sky130_fd_sc_hd__a211oi_4
*I *1730:X O *D sky130_fd_sc_hd__and2_1
*CAP
1 *1734:B1 0.000236892
2 *1735:C1 0
3 *1730:X 0.000293272
4 *105:10 0.000530164
5 *1734:B1 *1596:C 0.000532312
6 *1734:B1 *1734:A1 8.81983e-05
7 *1734:B1 *1734:A2 6.25963e-05
8 *105:10 *1777:B 0
9 *105:10 *2080:A 4.28249e-05
10 *105:10 *273:27 0.000253649
11 *105:10 *510:12 0
12 *105:10 *536:20 0
13 *1781:A1 *105:10 5.01117e-05
*RES
1 *1730:X *105:10 24.8 
2 *105:10 *1735:C1 9.3 
3 *105:10 *1734:B1 16.1571 
*END

*D_NET *106 0.0031332
*CONN
*I *1734:A1 I *D sky130_fd_sc_hd__a21o_1
*I *1735:A2 I *D sky130_fd_sc_hd__a211oi_4
*I *1776:A I *D sky130_fd_sc_hd__or2_1
*I *1733:A I *D sky130_fd_sc_hd__nand2_1
*I *1731:Y O *D sky130_fd_sc_hd__xnor2_2
*CAP
1 *1734:A1 6.40448e-05
2 *1735:A2 0
3 *1776:A 0.000100943
4 *1733:A 0.000405862
5 *1731:Y 0
6 *106:36 0.000329466
7 *106:17 0.000603871
8 *106:4 0.000643369
9 *1733:A *1733:B 5.33005e-05
10 *1733:A *2053:A 6.35663e-05
11 *1733:A *108:8 1.24368e-05
12 *1733:A *510:12 3.18676e-05
13 *1733:A *510:39 0
14 *1733:A *510:50 0
15 *1734:A1 *1596:C 3.91935e-05
16 *1734:A1 *1734:A2 0.00023793
17 *1776:A *1776:B 0.000234118
18 *1776:A *107:23 3.42764e-05
19 *1776:A *515:42 7.79757e-05
20 *1776:A *546:121 4.15183e-05
21 *106:36 *1731:A 3.18676e-05
22 *106:36 *107:12 0
23 *106:36 *107:23 3.93986e-05
24 *106:36 *548:53 0
25 *1734:B1 *1734:A1 8.81983e-05
*RES
1 *1731:Y *106:4 9.3 
2 *106:4 *1733:A 15.6214 
3 *106:4 *106:17 2.58929 
4 *106:17 *1776:A 21.7643 
5 *106:17 *106:36 12.7143 
6 *106:36 *1735:A2 9.3 
7 *106:36 *1734:A1 12.0321 
*END

*D_NET *107 0.00564699
*CONN
*I *1791:A I *D sky130_fd_sc_hd__nand2_1
*I *1734:A2 I *D sky130_fd_sc_hd__a21o_1
*I *1733:B I *D sky130_fd_sc_hd__nand2_1
*I *1776:B I *D sky130_fd_sc_hd__or2_1
*I *1735:A1 I *D sky130_fd_sc_hd__a211oi_4
*I *1732:X O *D sky130_fd_sc_hd__or2_1
*CAP
1 *1791:A 0.000402469
2 *1734:A2 0.000254544
3 *1733:B 0.00061685
4 *1776:B 9.19271e-05
5 *1735:A1 0
6 *1732:X 4.16687e-05
7 *107:23 0.000853432
8 *107:12 0.000172935
9 *107:10 0.000528382
10 *107:6 0.000689696
11 *1733:B *2053:A 1.92905e-05
12 *1733:B *2080:A 8.47538e-05
13 *1733:B *2081:A 2.59123e-05
14 *1733:B *283:85 2.04825e-05
15 *1733:B *510:20 2.66513e-05
16 *1733:B *536:20 1.90936e-05
17 *1734:A2 *1596:C 1.39726e-05
18 *1776:B *1781:C1 5.52238e-05
19 *1776:B *543:23 5.33005e-05
20 *1776:B *548:38 0
21 *1791:A *1795:B1 3.34366e-05
22 *1791:A *1803:A 4.1331e-06
23 *1791:A *219:40 0.000290993
24 *1791:A *516:112 4.60833e-05
25 *1791:A *542:109 0.000211125
26 *1791:A *544:34 0
27 *107:6 *542:109 2.89016e-05
28 *107:10 *1732:B 3.5707e-05
29 *107:10 *1783:A 0
30 *107:10 *515:42 0.000145301
31 *107:10 *548:53 0
32 *107:12 *515:42 2.19778e-05
33 *107:12 *548:53 0
34 *107:23 *548:53 0
35 *1731:B *1776:B 0.000197127
36 *1733:A *1733:B 5.33005e-05
37 *1734:A1 *1734:A2 0.00023793
38 *1734:B1 *1734:A2 6.25963e-05
39 *1776:A *1776:B 0.000234118
40 *1776:A *107:23 3.42764e-05
41 *106:36 *107:12 0
42 *106:36 *107:23 3.93986e-05
*RES
1 *1732:X *107:6 9.83571 
2 *107:6 *107:10 9.78571 
3 *107:10 *107:12 0.732143 
4 *107:12 *1735:A1 13.8 
5 *107:12 *107:23 2.63393 
6 *107:23 *1776:B 17.3446 
7 *107:23 *1733:B 22.7046 
8 *107:10 *1734:A2 19.0143 
9 *107:6 *1791:A 25.7821 
*END

*D_NET *108 0.00154525
*CONN
*I *1777:A I *D sky130_fd_sc_hd__nand2_1
*I *1778:B2 I *D sky130_fd_sc_hd__a221o_1
*I *1733:Y O *D sky130_fd_sc_hd__nand2_1
*CAP
1 *1777:A 5.21229e-05
2 *1778:B2 0.000101667
3 *1733:Y 0.000185817
4 *108:8 0.000339607
5 *1777:A *1788:B 0.000122935
6 *1777:A *136:14 0.000109732
7 *1778:B2 *1778:B1 7.70134e-06
8 *1778:B2 *1781:B1 1.28809e-05
9 *1778:B2 *1788:B 0.000195555
10 *1778:B2 *136:14 0.000264772
11 *1778:B2 *510:39 6.62299e-06
12 *1778:B2 *531:70 3.18672e-05
13 *1778:B2 *531:72 9.25014e-06
14 *108:8 *2053:A 2.13481e-06
15 *1733:A *108:8 1.24368e-05
16 *1780:A1 *108:8 9.0145e-05
*RES
1 *1733:Y *108:8 15.9786 
2 *108:8 *1778:B2 17.3937 
3 *108:8 *1777:A 15.4429 
*END

*D_NET *109 0.00278104
*CONN
*I *1783:A I *D sky130_fd_sc_hd__xnor2_1
*I *1734:X O *D sky130_fd_sc_hd__a21o_1
*CAP
1 *1783:A 0.000631451
2 *1734:X 0.000631451
3 *1783:A *1725:A 3.37161e-05
4 *1783:A *1732:A 0.000102197
5 *1783:A *1732:B 1.76039e-05
6 *1783:A *1783:B 5.33005e-05
7 *1783:A *219:40 2.94103e-05
8 *1783:A *516:112 0
9 *1783:A *542:109 0.00103743
10 *1783:A *543:125 4.06782e-05
11 *1783:A *548:53 2.79092e-05
12 *97:25 *1783:A 0.000175892
13 *107:10 *1783:A 0
*RES
1 *1734:X *1783:A 42.8857 
*END

*D_NET *110 0.00278841
*CONN
*I *2125:A I *D sky130_fd_sc_hd__buf_1
*I *1754:A3 I *D sky130_fd_sc_hd__o31a_1
*I *1735:Y O *D sky130_fd_sc_hd__a211oi_4
*CAP
1 *2125:A 3.82418e-05
2 *1754:A3 0.000142437
3 *1735:Y 0.000493045
4 *110:14 0.000673724
5 *1754:A3 *1787:B1 4.03318e-05
6 *1754:A3 *129:8 9.99853e-05
7 *110:14 *1777:B 6.06291e-05
8 *110:14 *1784:B1 0.000139491
9 *110:14 *1787:B1 9.83388e-05
10 *110:14 *1788:B 0.000126446
11 *110:14 *136:14 6.42145e-05
12 *110:14 *542:55 9.35794e-06
13 *110:14 *565:8 0.000394793
14 *1735:B1 *110:14 0.000353079
15 *1782:B *110:14 5.42974e-05
*RES
1 *1735:Y *110:14 29.6393 
2 *110:14 *1754:A3 20.8893 
3 *110:14 *2125:A 10.0321 
*END

*D_NET *111 0.00183194
*CONN
*I *1771:A I *D sky130_fd_sc_hd__xnor2_1
*I *1736:Y O *D sky130_fd_sc_hd__nor2_1
*CAP
1 *1771:A 0.00039612
2 *1736:Y 0.00039612
3 *1771:A *1772:A0 0.000178847
4 *1771:A *1772:A1 2.28499e-05
5 *1771:A *1772:S 9.60875e-05
6 *1771:A *497:27 0.000161947
7 *1771:A *510:76 0
8 *1771:A *510:85 0.000259934
9 *1771:A *565:73 0.000320031
*RES
1 *1736:Y *1771:A 37.9571 
*END

*D_NET *112 0.00276941
*CONN
*I *1749:A I *D sky130_fd_sc_hd__nand4_1
*I *1751:D_N I *D sky130_fd_sc_hd__or4bb_4
*I *1759:B1_N I *D sky130_fd_sc_hd__o21bai_1
*I *1758:C_N I *D sky130_fd_sc_hd__or3b_1
*I *1737:X O *D sky130_fd_sc_hd__xor2_1
*CAP
1 *1749:A 7.97747e-05
2 *1751:D_N 4.26984e-05
3 *1759:B1_N 0.000189643
4 *1758:C_N 0
5 *1737:X 0.000303496
6 *112:30 0.000164716
7 *112:19 0.000312763
8 *112:10 0.000384374
9 *1749:A *1754:A2 2.59355e-05
10 *1749:A *135:18 0.000176234
11 *1749:A *534:27 0.000166983
12 *1759:B1_N *1760:A3 9.41642e-05
13 *112:10 *1737:A 1.55885e-05
14 *112:10 *1758:A 4.1331e-06
15 *112:10 *1760:B1 0
16 *112:10 *534:27 0.000150618
17 *112:19 *1758:A 5.80217e-05
18 *112:19 *118:12 2.87473e-05
19 *112:19 *135:18 9.25014e-06
20 *112:19 *534:27 0.000239943
21 *112:30 *135:18 0.000151333
22 *112:30 *534:27 0.000142082
23 *1737:B *112:10 2.89114e-05
*RES
1 *1737:X *112:10 18.3357 
2 *112:10 *1758:C_N 13.8 
3 *112:10 *112:19 3.16071 
4 *112:19 *1759:B1_N 15.9786 
5 *112:19 *112:30 1.94643 
6 *112:30 *1751:D_N 14.3357 
7 *112:30 *1749:A 16.5857 
*END

*D_NET *113 0.00301458
*CONN
*I *1753:A2_N I *D sky130_fd_sc_hd__o2bb2a_1
*I *1752:A2 I *D sky130_fd_sc_hd__o21bai_1
*I *1739:B I *D sky130_fd_sc_hd__xnor2_1
*I *1738:Y O *D sky130_fd_sc_hd__o21ai_1
*CAP
1 *1753:A2_N 2.12388e-05
2 *1752:A2 0
3 *1739:B 0.000444818
4 *1738:Y 0.000138155
5 *113:10 0.000557776
6 *113:6 0.000272351
7 *1739:B *1739:A 0.000330447
8 *1739:B *1753:B1 1.32056e-05
9 *1739:B *534:48 0.000819968
10 *113:6 *1753:B1 6.96878e-05
11 *113:6 *304:12 8.2607e-05
12 *113:6 *471:49 6.05161e-06
13 *113:6 *565:54 7.92229e-06
14 *113:10 *1752:A1 0.000120039
15 *113:10 *1753:B1 3.88131e-05
16 *113:10 *1754:B1 5.65955e-05
17 *113:10 *304:12 3.49005e-05
*RES
1 *1738:Y *113:6 11.8893 
2 *113:6 *113:10 2.60714 
3 *113:10 *1739:B 20.9429 
4 *113:10 *1752:A2 9.3 
5 *113:6 *1753:A2_N 9.72857 
*END

*D_NET *114 0.0016451
*CONN
*I *1749:B I *D sky130_fd_sc_hd__nand4_1
*I *1751:C_N I *D sky130_fd_sc_hd__or4bb_4
*I *1739:Y O *D sky130_fd_sc_hd__xnor2_1
*CAP
1 *1749:B 0.000162609
2 *1751:C_N 9.15606e-05
3 *1739:Y 0.000431576
4 *114:8 0.000685745
5 *1749:B *1749:D 5.33433e-05
6 *1749:B *132:10 5.35423e-05
7 *114:8 *1758:B 9.81719e-05
8 *114:8 *132:10 6.8551e-05
9 *114:8 *534:27 0
*RES
1 *1739:Y *114:8 22.7286 
2 *114:8 *1751:C_N 15.1571 
3 *114:8 *1749:B 16.6929 
*END

*D_NET *115 0.000319437
*CONN
*I *1741:B I *D sky130_fd_sc_hd__xnor2_1
*I *1740:X O *D sky130_fd_sc_hd__a21o_1
*CAP
1 *1741:B 6.33616e-05
2 *1740:X 6.33616e-05
3 *1740:A2 *1741:B 6.05161e-06
4 *1741:A *1741:B 0.000186662
*RES
1 *1740:X *1741:B 20.3679 
*END

*D_NET *116 0.00349077
*CONN
*I *1742:A1 I *D sky130_fd_sc_hd__mux2_4
*I *1741:Y O *D sky130_fd_sc_hd__xnor2_1
*CAP
1 *1742:A1 0.000974829
2 *1741:Y 0.000974829
3 *1718:A2 *1742:A1 0.000222878
4 *1720:A1 *1742:A1 0.000529507
5 *1740:A1 *1742:A1 6.5185e-05
6 *1740:B1 *1742:A1 1.08359e-05
7 *1741:A *1742:A1 0.000268396
8 *1742:A0 *1742:A1 0.000159512
9 *1745:B *1742:A1 0
10 *61:62 *1742:A1 0.000243929
11 *79:6 *1742:A1 4.08637e-05
12 *86:23 *1742:A1 0
*RES
1 *1741:Y *1742:A1 49.2786 
*END

*D_NET *117 0.00734301
*CONN
*I *1750:A2 I *D sky130_fd_sc_hd__o22a_1
*I *1768:A0 I *D sky130_fd_sc_hd__mux2_1
*I *1744:B I *D sky130_fd_sc_hd__xor2_1
*I *1743:B I *D sky130_fd_sc_hd__and2_1
*I *1742:X O *D sky130_fd_sc_hd__mux2_4
*CAP
1 *1750:A2 0
2 *1768:A0 0.00014074
3 *1744:B 0.000240771
4 *1743:B 0
5 *1742:X 0.00037739
6 *117:27 0.000875687
7 *117:23 0.000703348
8 *117:10 0.000586561
9 *1744:B *1744:A 0.000576675
10 *1744:B *119:8 5.33005e-05
11 *1768:A0 *1768:A1 3.18676e-05
12 *1768:A0 *1769:B 5.71472e-05
13 *1768:A0 *2072:A 0.000248493
14 *1768:A0 *135:18 0
15 *1768:A0 *536:14 4.28149e-05
16 *117:10 *1756:B 0.000212841
17 *117:10 *539:37 0.000751144
18 *117:23 *1750:A1 5.52238e-05
19 *117:23 *1754:A2 0.000222666
20 *117:23 *1756:B 1.17968e-05
21 *117:23 *510:52 0.000129185
22 *117:23 *510:76 7.6021e-05
23 *117:23 *539:35 0.000520016
24 *117:23 *539:37 1.02504e-05
25 *117:27 *1750:B2 5.41794e-05
26 *117:27 *1772:A0 0.000171368
27 *117:27 *2072:A 2.04825e-05
28 *117:27 *121:29 0.000311028
29 *117:27 *121:40 5.41794e-05
30 *117:27 *121:53 0.00015134
31 *117:27 *135:18 0
32 *117:27 *539:18 9.56112e-07
33 *117:27 *539:22 0.000482454
34 *117:27 *559:12 0.000173083
*RES
1 *1742:X *117:10 24.2821 
2 *117:10 *1743:B 13.8 
3 *117:10 *117:23 11.9643 
4 *117:23 *117:27 18.8929 
5 *117:27 *1744:B 19.6929 
6 *117:27 *1768:A0 17.9071 
7 *117:23 *1750:A2 9.3 
*END

*D_NET *118 0.00140293
*CONN
*I *1751:A I *D sky130_fd_sc_hd__or4bb_4
*I *1759:A1 I *D sky130_fd_sc_hd__o21bai_1
*I *1758:A I *D sky130_fd_sc_hd__or3b_1
*I *1743:X O *D sky130_fd_sc_hd__and2_1
*CAP
1 *1751:A 7.12222e-05
2 *1759:A1 9.31559e-05
3 *1758:A 5.69117e-05
4 *1743:X 0.000137158
5 *118:12 0.000260446
6 *118:8 0.000318758
7 *1751:A *1751:B 3.51442e-05
8 *1751:A *135:18 2.96805e-05
9 *1751:A *510:52 0
10 *1758:A *1760:A2 0.00010326
11 *1758:A *1760:B1 2.00751e-05
12 *1759:A1 *1760:A3 7.093e-05
13 *118:8 *1760:A1 7.77652e-05
14 *118:12 *1756:B 0
15 *118:12 *1760:A2 3.17148e-05
16 *118:12 *135:18 5.80706e-06
17 *118:12 *510:52 0
18 *112:10 *1758:A 4.1331e-06
19 *112:19 *1758:A 5.80217e-05
20 *112:19 *118:12 2.87473e-05
*RES
1 *1743:X *118:8 15.5679 
2 *118:8 *118:12 1.875 
3 *118:12 *1758:A 15.7464 
4 *118:12 *1759:A1 15.7107 
5 *118:8 *1751:A 15.4429 
*END

*D_NET *119 0.00322993
*CONN
*I *1767:A I *D sky130_fd_sc_hd__xor2_1
*I *1749:C I *D sky130_fd_sc_hd__nand4_1
*I *1744:X O *D sky130_fd_sc_hd__xor2_1
*CAP
1 *1767:A 0.000174092
2 *1749:C 0.000414186
3 *1744:X 3.04135e-05
4 *119:8 0.000618692
5 *1749:C *1748:A 8.59039e-05
6 *1749:C *1749:D 0.000559266
7 *1749:C *1767:B 0.000182086
8 *1749:C *1771:B 0.000244087
9 *1749:C *2076:A 0.000389854
10 *1749:C *2079:A 0
11 *1749:C *132:10 1.3142e-05
12 *1749:C *534:27 0.0002005
13 *1767:A *2076:A 0.000168698
14 *1767:A *534:27 9.57064e-05
15 *1744:B *119:8 5.33005e-05
*RES
1 *1744:X *119:8 14.3357 
2 *119:8 *1749:C 29.1036 
3 *119:8 *1767:A 17.8357 
*END

*D_NET *120 0.00221715
*CONN
*I *1746:A1 I *D sky130_fd_sc_hd__mux2_4
*I *1745:Y O *D sky130_fd_sc_hd__xnor2_1
*CAP
1 *1746:A1 0.000693321
2 *1745:Y 0.000693321
3 *1746:A1 *539:37 0
4 *1691:B *1746:A1 0.000180764
5 *1717:A2 *1746:A1 7.1959e-05
6 *1717:A3 *1746:A1 4.74632e-05
7 *64:24 *1746:A1 0.000409062
8 *70:24 *1746:A1 0.000121254
*RES
1 *1745:Y *1746:A1 37.5821 
*END

*D_NET *121 0.00752989
*CONN
*I *1772:A0 I *D sky130_fd_sc_hd__mux2_1
*I *1747:B I *D sky130_fd_sc_hd__xnor2_1
*I *1748:B I *D sky130_fd_sc_hd__xnor2_1
*I *1766:B1 I *D sky130_fd_sc_hd__o32a_1
*I *1750:B2 I *D sky130_fd_sc_hd__o22a_1
*I *1746:X O *D sky130_fd_sc_hd__mux2_4
*CAP
1 *1772:A0 0.000148868
2 *1747:B 4.05809e-05
3 *1748:B 0.000235339
4 *1766:B1 2.04426e-05
5 *1750:B2 7.43027e-05
6 *1746:X 0.000934417
7 *121:53 0.0002635
8 *121:40 0.000339237
9 *121:29 0.000172861
10 *121:14 0.00113129
11 *1747:B *1747:A 9.90367e-05
12 *1748:B *1766:A2 0.00014285
13 *1748:B *1767:B 0.000180764
14 *1748:B *123:8 3.2687e-05
15 *1750:B2 *1751:B 5.41794e-05
16 *1750:B2 *1754:A2 5.33005e-05
17 *1750:B2 *1757:B1 9.25014e-06
18 *1766:B1 *1766:A2 5.33005e-05
19 *1772:A0 *1772:A1 0.000137983
20 *1772:A0 *135:18 0
21 *121:14 *1754:A2 0.000438781
22 *121:14 *539:35 0.000143484
23 *121:14 *539:37 0.000415705
24 *121:14 *561:23 0
25 *121:14 *565:12 0.000896363
26 *121:29 *1757:B1 0.000139653
27 *121:29 *1766:B2 0.000125724
28 *121:29 *542:36 2.04866e-05
29 *121:40 *135:18 0
30 *121:53 *135:18 0
31 *1766:A1 *1748:B 2.59355e-05
32 *1771:A *1772:A0 0.000178847
33 *70:24 *121:14 0
34 *95:10 *121:14 0.000187902
35 *95:23 *121:14 6.47912e-05
36 *100:36 *1766:B1 2.59355e-05
37 *117:27 *1750:B2 5.41794e-05
38 *117:27 *1772:A0 0.000171368
39 *117:27 *121:29 0.000311028
40 *117:27 *121:40 5.41794e-05
41 *117:27 *121:53 0.00015134
*RES
1 *1746:X *121:14 47.1929 
2 *121:14 *1750:B2 15.4964 
3 *121:14 *121:29 4.07143 
4 *121:29 *1766:B1 14.3357 
5 *121:29 *121:40 0.732143 
6 *121:40 *1748:B 18.4607 
7 *121:40 *121:53 1.94643 
8 *121:53 *1747:B 14.7464 
9 *121:53 *1772:A0 17.8179 
*END

*D_NET *122 0.00229957
*CONN
*I *1771:B I *D sky130_fd_sc_hd__xnor2_1
*I *1749:D I *D sky130_fd_sc_hd__nand4_1
*I *1747:Y O *D sky130_fd_sc_hd__xnor2_1
*CAP
1 *1771:B 8.0847e-05
2 *1749:D 0.000216754
3 *1747:Y 0
4 *122:6 0.000297601
5 *1749:D *132:10 0.000151333
6 *1749:D *534:27 0.000390421
7 *1771:B *497:27 5.33005e-05
8 *1771:B *534:27 0.000252623
9 *1749:B *1749:D 5.33433e-05
10 *1749:C *1749:D 0.000559266
11 *1749:C *1771:B 0.000244087
*RES
1 *1747:Y *122:6 13.8 
2 *122:6 *1749:D 21.8536 
3 *122:6 *1771:B 17.4964 
*END

*D_NET *123 0.00091179
*CONN
*I *1766:A3 I *D sky130_fd_sc_hd__o32a_1
*I *1757:A3 I *D sky130_fd_sc_hd__o31a_1
*I *1748:Y O *D sky130_fd_sc_hd__xnor2_1
*CAP
1 *1766:A3 3.11785e-05
2 *1757:A3 5.24318e-05
3 *1748:Y 0.000115854
4 *123:8 0.000199464
5 *1757:A3 *1766:B2 4.43046e-05
6 *1757:A3 *135:18 0.000150611
7 *1757:A3 *542:36 6.0038e-05
8 *1766:A3 *1766:A2 2.89114e-05
9 *123:8 *1766:A2 6.05161e-06
10 *1748:B *123:8 3.2687e-05
11 *1766:A1 *123:8 5.33005e-05
12 *100:36 *1766:A3 4.27935e-05
13 *100:36 *123:8 9.41642e-05
*RES
1 *1748:Y *123:8 11.4964 
2 *123:8 *1757:A3 20.2464 
3 *123:8 *1766:A3 10.2643 
*END

*D_NET *124 0.00189476
*CONN
*I *1754:A2 I *D sky130_fd_sc_hd__o31a_1
*I *1749:Y O *D sky130_fd_sc_hd__nand4_1
*CAP
1 *1754:A2 0.00041781
2 *1749:Y 0.00041781
3 *1754:A2 *125:8 0.000136951
4 *1754:A2 *129:8 0.000141734
5 *1754:A2 *539:35 1.98839e-05
6 *1749:A *1754:A2 2.59355e-05
7 *1750:B2 *1754:A2 5.33005e-05
8 *1754:A1 *1754:A2 1.98839e-05
9 *117:23 *1754:A2 0.000222666
10 *121:14 *1754:A2 0.000438781
*RES
1 *1749:Y *1754:A2 27.7607 
*END

*D_NET *125 0.00143573
*CONN
*I *1757:B1 I *D sky130_fd_sc_hd__o31a_1
*I *1751:B I *D sky130_fd_sc_hd__or4bb_4
*I *1750:X O *D sky130_fd_sc_hd__o22a_1
*CAP
1 *1757:B1 7.388e-05
2 *1751:B 0.000136853
3 *1750:X 0.000106094
4 *125:8 0.000316828
5 *1751:B *1750:B1 8.07879e-05
6 *1751:B *135:18 0.000120402
7 *1751:B *510:52 0
8 *1751:B *510:76 0
9 *1751:B *539:22 0
10 *1757:B1 *1750:B1 9.22948e-05
11 *1757:B1 *1757:A2 5.33005e-05
12 *1757:B1 *542:36 8.01149e-05
13 *1750:B2 *1751:B 5.41794e-05
14 *1750:B2 *1757:B1 9.25014e-06
15 *1751:A *1751:B 3.51442e-05
16 *1754:A2 *125:8 0.000136951
17 *121:29 *1757:B1 0.000139653
*RES
1 *1750:X *125:8 15.1571 
2 *125:8 *1751:B 17.5679 
3 *125:8 *1757:B1 16.2821 
*END

*D_NET *126 0.00337399
*CONN
*I *1784:A1 I *D sky130_fd_sc_hd__a211o_1
*I *1778:A2 I *D sky130_fd_sc_hd__a221o_1
*I *1779:A1 I *D sky130_fd_sc_hd__a211o_1
*I *1755:A1 I *D sky130_fd_sc_hd__a21oi_4
*I *1751:X O *D sky130_fd_sc_hd__or4bb_4
*CAP
1 *1784:A1 0.000236903
2 *1778:A2 0.000149441
3 *1779:A1 2.32604e-05
4 *1755:A1 0
5 *1751:X 9.40196e-05
6 *126:26 0.000443312
7 *126:15 0.000218018
8 *126:6 0.000231809
9 *1778:A2 *1778:A1 1.55638e-05
10 *1778:A2 *1780:C1 0.000169714
11 *1778:A2 *1781:B1 1.55638e-05
12 *1778:A2 *136:14 1.71474e-05
13 *1778:A2 *531:70 0.000203489
14 *1779:A1 *1755:A2 9.35228e-06
15 *1779:A1 *510:50 0
16 *1784:A1 *1784:B1 4.6025e-06
17 *1784:A1 *1784:C1 3.43988e-06
18 *1784:A1 *129:18 1.49841e-05
19 *1784:A1 *531:70 0.000106753
20 *126:6 *1755:A2 5.71472e-05
21 *126:6 *510:50 0.000110117
22 *126:15 *1755:A2 0.000121065
23 *126:15 *1779:B1 5.49489e-05
24 *126:15 *1779:C1 5.49544e-05
25 *126:15 *510:50 0.000520326
26 *126:15 *531:31 0.000183477
27 *126:26 *1755:A2 2.12005e-05
28 *126:26 *1780:B1 4.82865e-05
29 *126:26 *130:8 1.82328e-05
30 *126:26 *510:50 0.000226867
*RES
1 *1751:X *126:6 11.4786 
2 *126:6 *1755:A1 9.3 
3 *126:6 *126:15 5.48214 
4 *126:15 *1779:A1 9.72857 
5 *126:15 *126:26 6.67857 
6 *126:26 *1778:A2 17.6437 
7 *126:26 *1784:A1 17.2286 
*END

*D_NET *127 0.000841491
*CONN
*I *1753:B1 I *D sky130_fd_sc_hd__o2bb2a_1
*I *1752:Y O *D sky130_fd_sc_hd__o21bai_1
*CAP
1 *1753:B1 0.000149912
2 *1752:Y 0.000149912
3 *1753:B1 *1752:A1 0.000120527
4 *1753:B1 *304:12 0.00010466
5 *1753:B1 *565:33 0.000163906
6 *1753:B1 *565:54 3.08664e-05
7 *1739:B *1753:B1 1.32056e-05
8 *113:6 *1753:B1 6.96878e-05
9 *113:10 *1753:B1 3.88131e-05
*RES
1 *1752:Y *1753:B1 23.2607 
*END

*D_NET *128 0.00191373
*CONN
*I *1754:B1 I *D sky130_fd_sc_hd__o31a_1
*I *1753:X O *D sky130_fd_sc_hd__o2bb2a_1
*CAP
1 *1754:B1 0.00076224
2 *1753:X 0.00076224
3 *1754:B1 *1778:A1 6.58102e-05
4 *1754:B1 *1779:B1 3.3231e-05
5 *1754:B1 *129:8 5.49544e-05
6 *1754:B1 *129:18 0
7 *1754:B1 *136:14 0
8 *1754:B1 *531:31 0
9 *1754:B1 *534:50 5.10822e-05
10 *1754:B1 *534:118 9.12446e-05
11 *1754:B1 *565:12 0
12 *1754:B1 *565:33 3.63281e-05
13 *95:23 *1754:B1 0
14 *113:10 *1754:B1 5.65955e-05
*RES
1 *1753:X *1754:B1 41.1 
*END

*D_NET *129 0.00325315
*CONN
*I *1784:A2 I *D sky130_fd_sc_hd__a211o_1
*I *1779:A2 I *D sky130_fd_sc_hd__a211o_1
*I *1755:A2 I *D sky130_fd_sc_hd__a21oi_4
*I *1778:A1 I *D sky130_fd_sc_hd__a221o_1
*I *1754:X O *D sky130_fd_sc_hd__o31a_1
*CAP
1 *1784:A2 2.33894e-06
2 *1779:A2 0
3 *1755:A2 0.000241989
4 *1778:A1 0.000262836
5 *1754:X 0.000148856
6 *129:31 0.000241989
7 *129:18 0.000483294
8 *129:8 0.000371652
9 *1755:A2 *1779:B1 5.65955e-05
10 *1755:A2 *1779:C1 4.25176e-05
11 *1755:A2 *1780:B1 0
12 *1755:A2 *130:8 0.000138159
13 *1755:A2 *531:31 0.000185118
14 *1778:A1 *1780:C1 5.19718e-05
15 *1778:A1 *1781:B1 6.97067e-05
16 *1784:A2 *1779:B1 9.23113e-06
17 *129:8 *1779:B1 2.51923e-05
18 *129:8 *1787:B1 9.99853e-05
19 *129:18 *1777:B 0
20 *129:18 *1779:B1 0.000121573
21 *1754:A1 *129:8 9.83442e-05
22 *1754:A2 *129:8 0.000141734
23 *1754:A3 *129:8 9.99853e-05
24 *1754:B1 *1778:A1 6.58102e-05
25 *1754:B1 *129:8 5.49544e-05
26 *1754:B1 *129:18 0
27 *1778:A2 *1778:A1 1.55638e-05
28 *1779:A1 *1755:A2 9.35228e-06
29 *1784:A1 *129:18 1.49841e-05
30 *126:6 *1755:A2 5.71472e-05
31 *126:15 *1755:A2 0.000121065
32 *126:26 *1755:A2 2.12005e-05
*RES
1 *1754:X *129:8 13.6482 
2 *129:8 *129:18 7.84821 
3 *129:18 *1778:A1 18.7286 
4 *129:18 *129:31 4.5 
5 *129:31 *1755:A2 15.6036 
6 *129:31 *1779:A2 9.3 
7 *129:8 *1784:A2 9.43839 
*END

*D_NET *130 0.00540672
*CONN
*I *2053:A I *D sky130_fd_sc_hd__buf_6
*I *1785:B I *D sky130_fd_sc_hd__nor2_1
*I *1786:A1 I *D sky130_fd_sc_hd__a211o_1
*I *1755:Y O *D sky130_fd_sc_hd__a21oi_4
*CAP
1 *2053:A 0.000392959
2 *1785:B 8.966e-05
3 *1786:A1 0.000112638
4 *1755:Y 0.000537251
5 *130:14 0.000509688
6 *130:8 0.0012376
7 *1785:B *1786:B1 9.41642e-05
8 *1785:B *155:14 5.59013e-05
9 *1786:A1 *1786:B1 3.22063e-05
10 *1786:A1 *283:93 1.97756e-05
11 *2053:A *510:39 2.59355e-05
12 *130:8 *1780:B1 6.81704e-05
13 *130:8 *510:39 6.57032e-05
14 *130:8 *510:50 2.13481e-06
15 *130:14 *1788:B 0.000953205
16 *130:14 *155:14 0.000855337
17 *130:14 *510:39 5.66157e-05
18 *130:14 *542:63 4.98055e-06
19 *1733:A *2053:A 6.35663e-05
20 *1733:B *2053:A 1.92905e-05
21 *1755:A2 *130:8 0.000138159
22 *1780:A1 *2053:A 1.21258e-05
23 *1780:A1 *130:14 1.08359e-05
24 *1785:A *1785:B 2.84494e-05
25 *108:8 *2053:A 2.13481e-06
26 *126:26 *130:8 1.82328e-05
*RES
1 *1755:Y *130:8 16.0143 
2 *130:8 *130:14 21.2679 
3 *130:14 *1786:A1 10.9786 
4 *130:14 *1785:B 19.9786 
5 *130:8 *2053:A 14.3446 
*END

*D_NET *131 0.000652975
*CONN
*I *1760:B1 I *D sky130_fd_sc_hd__a31o_1
*I *1756:Y O *D sky130_fd_sc_hd__nor2_1
*CAP
1 *1760:B1 0.000181509
2 *1756:Y 0.000181509
3 *1760:B1 *1756:B 0.000170523
4 *1760:B1 *1760:A2 6.74911e-05
5 *1737:B *1760:B1 3.18676e-05
6 *1758:A *1760:B1 2.00751e-05
7 *112:10 *1760:B1 0
*RES
1 *1756:Y *1760:B1 32.2071 
*END

*D_NET *132 0.00221091
*CONN
*I *1759:A2 I *D sky130_fd_sc_hd__o21bai_1
*I *1758:B I *D sky130_fd_sc_hd__or3b_1
*I *1757:X O *D sky130_fd_sc_hd__o31a_1
*CAP
1 *1759:A2 0
2 *1758:B 0.000271531
3 *1757:X 0.000222623
4 *132:10 0.000494154
5 *1758:B *534:27 0.00025263
6 *132:10 *534:27 0.000531936
7 *132:10 *542:21 5.33005e-05
8 *1749:B *132:10 5.35423e-05
9 *1749:C *132:10 1.3142e-05
10 *1749:D *132:10 0.000151333
11 *114:8 *1758:B 9.81719e-05
12 *114:8 *132:10 6.8551e-05
*RES
1 *1757:X *132:10 21.1393 
2 *132:10 *1758:B 19.1393 
3 *132:10 *1759:A2 13.8 
*END

*D_NET *133 0.000472512
*CONN
*I *1760:A2 I *D sky130_fd_sc_hd__a31o_1
*I *1758:X O *D sky130_fd_sc_hd__or3b_1
*CAP
1 *1760:A2 0.000135023
2 *1758:X 0.000135023
3 *1758:A *1760:A2 0.00010326
4 *1760:B1 *1760:A2 6.74911e-05
5 *118:12 *1760:A2 3.17148e-05
*RES
1 *1758:X *1760:A2 30.1893 
*END

*D_NET *134 0.000442832
*CONN
*I *1760:A3 I *D sky130_fd_sc_hd__a31o_1
*I *1759:Y O *D sky130_fd_sc_hd__o21bai_1
*CAP
1 *1760:A3 0.000138869
2 *1759:Y 0.000138869
3 *1759:A1 *1760:A3 7.093e-05
4 *1759:B1_N *1760:A3 9.41642e-05
*RES
1 *1759:Y *1760:A3 21.2071 
*END

*D_NET *135 0.00594429
*CONN
*I *1800:A I *D sky130_fd_sc_hd__nor2_1
*I *1764:B I *D sky130_fd_sc_hd__xor2_1
*I *1760:X O *D sky130_fd_sc_hd__a31o_1
*CAP
1 *1800:A 9.67901e-05
2 *1764:B 0.000102178
3 *1760:X 0.00103272
4 *135:18 0.00123169
5 *1764:B *1764:A 0.000286635
6 *1764:B *1765:C 0.000188586
7 *1764:B *534:15 1.04232e-05
8 *1764:B *534:133 1.54142e-05
9 *1800:A *1765:C 0.000181909
10 *1800:A *2071:A 5.52238e-05
11 *1800:A *534:133 0.000400867
12 *135:18 *1750:B1 0.000173083
13 *135:18 *1766:B2 6.8646e-06
14 *135:18 *1770:B 0.000123295
15 *135:18 *2071:A 3.0285e-05
16 *135:18 *2072:A 0
17 *135:18 *144:12 0
18 *135:18 *534:27 0.000774904
19 *135:18 *536:14 0.000383791
20 *135:18 *542:36 2.39948e-05
21 *1749:A *135:18 0.000176234
22 *1751:A *135:18 2.96805e-05
23 *1751:B *135:18 0.000120402
24 *1757:A1 *135:18 0.000128146
25 *1757:A3 *135:18 0.000150611
26 *1766:A1 *135:18 5.41794e-05
27 *1768:A0 *135:18 0
28 *1772:A0 *135:18 0
29 *112:19 *135:18 9.25014e-06
30 *112:30 *135:18 0.000151333
31 *117:27 *135:18 0
32 *118:12 *135:18 5.80706e-06
33 *121:40 *135:18 0
34 *121:53 *135:18 0
*RES
1 *1760:X *135:18 47.675 
2 *135:18 *1764:B 13.1571 
3 *135:18 *1800:A 13.55 
*END

*D_NET *136 0.00796208
*CONN
*I *1762:A2 I *D sky130_fd_sc_hd__a21oi_1
*I *1763:C I *D sky130_fd_sc_hd__and3_1
*I *1761:X O *D sky130_fd_sc_hd__or3_1
*CAP
1 *1762:A2 0.000110587
2 *1763:C 0.000266029
3 *1761:X 0.00141185
4 *136:18 0.000536566
5 *136:14 0.0015718
6 *1762:A2 *1762:A1 0.000150103
7 *1762:A2 *1802:B1 8.53028e-05
8 *1762:A2 *140:12 5.8489e-05
9 *1763:C *1762:A1 6.61827e-06
10 *1763:C *1763:A 5.49489e-05
11 *1763:C *1763:B 8.47289e-06
12 *1763:C *531:6 4.08637e-05
13 *136:14 *1784:B1 0.000353383
14 *136:14 *1784:C1 1.9725e-06
15 *136:14 *1786:A2 0.000303114
16 *136:14 *1787:B1 0
17 *136:14 *1788:B 7.79177e-05
18 *136:14 *1789:A_N 0.000184807
19 *136:14 *1789:B 0.000190322
20 *136:14 *1802:B1 0.000119738
21 *136:14 *1805:C 0.000144623
22 *136:14 *1805:D 0
23 *136:14 *1806:A2 7.6644e-05
24 *136:14 *2051:A 0.000416144
25 *136:14 *161:8 0.000355599
26 *136:14 *162:12 0
27 *136:14 *163:10 0.000122935
28 *136:14 *471:71 0
29 *136:14 *498:23 2.50556e-05
30 *136:14 *512:25 3.17148e-05
31 *136:14 *512:36 5.33005e-05
32 *136:14 *531:70 0.000339401
33 *136:14 *531:72 0.000172285
34 *136:18 *2069:A 1.58163e-05
35 *1754:B1 *136:14 0
36 *1761:A *136:14 9.77423e-05
37 *1777:A *136:14 0.000109732
38 *1778:A2 *136:14 1.71474e-05
39 *1778:B2 *136:14 0.000264772
40 *1787:A1 *136:14 0.000122074
41 *110:14 *136:14 6.42145e-05
*RES
1 *1761:X *136:14 49.55 
2 *136:14 *136:18 6.26786 
3 *136:18 *1763:C 12.3714 
4 *136:18 *1762:A2 21.7643 
*END

*D_NET *137 0.00135108
*CONN
*I *1765:A I *D sky130_fd_sc_hd__or3_1
*I *1800:B I *D sky130_fd_sc_hd__nor2_1
*I *1762:Y O *D sky130_fd_sc_hd__a21oi_1
*CAP
1 *1765:A 2.99282e-05
2 *1800:B 0.000221144
3 *1762:Y 0.000231761
4 *137:6 0.000482833
5 *1765:A *1801:B1 3.57366e-05
6 *1800:B *1762:B1 0
7 *1800:B *1765:C 5.71472e-05
8 *1800:B *1801:A1 0
9 *1800:B *138:12 9.76448e-05
10 *137:6 *1802:B1 1.12124e-05
11 *137:6 *140:12 0.000183675
*RES
1 *1762:Y *137:6 12.3 
2 *137:6 *1800:B 22.425 
3 *137:6 *1765:A 10.0321 
*END

*D_NET *138 0.000780243
*CONN
*I *1801:B1 I *D sky130_fd_sc_hd__a21oi_1
*I *1765:B I *D sky130_fd_sc_hd__or3_1
*I *1763:X O *D sky130_fd_sc_hd__and3_1
*CAP
1 *1801:B1 0.00014475
2 *1765:B 0
3 *1763:X 0.00012008
4 *138:12 0.00026483
5 *1801:B1 *1765:C 7.77751e-05
6 *1801:B1 *1802:B1 1.15172e-05
7 *138:12 *1765:C 2.79092e-05
8 *1765:A *1801:B1 3.57366e-05
9 *1800:B *138:12 9.76448e-05
*RES
1 *1763:X *138:12 20.2821 
2 *138:12 *1765:B 9.3 
3 *138:12 *1801:B1 12.2286 
*END

*D_NET *139 0.00163161
*CONN
*I *1765:C I *D sky130_fd_sc_hd__or3_1
*I *1764:X O *D sky130_fd_sc_hd__xor2_1
*CAP
1 *1765:C 0.0004082
2 *1764:X 0.0004082
3 *1765:C *1762:B1 0
4 *1765:C *1801:A1 7.26935e-05
5 *1765:C *1801:A2 7.61932e-05
6 *1765:C *1802:B1 7.77751e-05
7 *1765:C *2071:A 5.52238e-05
8 *1764:B *1765:C 0.000188586
9 *1800:A *1765:C 0.000181909
10 *1800:B *1765:C 5.71472e-05
11 *1801:B1 *1765:C 7.77751e-05
12 *138:12 *1765:C 2.79092e-05
*RES
1 *1764:X *1765:C 38.2071 
*END

*D_NET *140 0.0017073
*CONN
*I *1805:A I *D sky130_fd_sc_hd__nor4_1
*I *1802:A1 I *D sky130_fd_sc_hd__o21a_1
*I *1765:X O *D sky130_fd_sc_hd__or3_1
*CAP
1 *1805:A 0.000137049
2 *1802:A1 0
3 *1765:X 0.000237986
4 *140:12 0.000375035
5 *1805:A *1799:A1 1.17091e-05
6 *1805:A *1802:B1 9.83388e-05
7 *1805:A *1805:B 9.21933e-05
8 *1805:A *1806:A2 5.33005e-05
9 *140:12 *1762:A1 9.97164e-05
10 *140:12 *1762:B1 7.22552e-05
11 *140:12 *1802:B1 4.30767e-05
12 *140:12 *471:71 0.000244478
13 *1762:A2 *140:12 5.8489e-05
14 *137:6 *140:12 0.000183675
*RES
1 *1765:X *140:12 24.8536 
2 *140:12 *1802:A1 9.3 
3 *140:12 *1805:A 12.3179 
*END

*D_NET *141 0.00209023
*CONN
*I *1767:B I *D sky130_fd_sc_hd__xor2_1
*I *1766:X O *D sky130_fd_sc_hd__o32a_1
*CAP
1 *1767:B 0.000581989
2 *1766:X 0.000581989
3 *1767:B *2076:A 0.000563403
4 *1748:B *1767:B 0.000180764
5 *1749:C *1767:B 0.000182086
*RES
1 *1766:X *1767:B 40.725 
*END

*D_NET *142 0.000475125
*CONN
*I *1768:A1 I *D sky130_fd_sc_hd__mux2_1
*I *1767:X O *D sky130_fd_sc_hd__xor2_1
*CAP
1 *1768:A1 0.000142534
2 *1767:X 0.000142534
3 *1768:A1 *1769:B 3.98662e-05
4 *1768:A1 *143:6 1.92789e-05
5 *1768:A1 *536:14 9.90431e-05
6 *1768:A0 *1768:A1 3.18676e-05
*RES
1 *1767:X *1768:A1 21.6 
*END

*D_NET *143 0.00118402
*CONN
*I *1769:B I *D sky130_fd_sc_hd__nor2_1
*I *1770:B I *D sky130_fd_sc_hd__nand2_1
*I *1768:X O *D sky130_fd_sc_hd__mux2_1
*CAP
1 *1769:B 0.000267429
2 *1770:B 5.39707e-05
3 *1768:X 4.31953e-05
4 *143:6 0.000364595
5 *1769:B *1770:A 1.61917e-05
6 *1769:B *2072:A 6.09572e-05
7 *1769:B *536:14 5.86416e-05
8 *1769:B *539:12 1.61917e-05
9 *1770:B *534:27 6.32633e-05
10 *1768:A0 *1769:B 5.71472e-05
11 *1768:A1 *1769:B 3.98662e-05
12 *1768:A1 *143:6 1.92789e-05
13 *135:18 *1770:B 0.000123295
*RES
1 *1768:X *143:6 9.83571 
2 *143:6 *1770:B 19.9429 
3 *143:6 *1769:B 22.3982 
*END

*D_NET *144 0.00249289
*CONN
*I *1799:A1 I *D sky130_fd_sc_hd__o221a_1
*I *1775:A_N I *D sky130_fd_sc_hd__nand4b_1
*I *1769:Y O *D sky130_fd_sc_hd__nor2_1
*CAP
1 *1799:A1 0.00055705
2 *1775:A_N 0
3 *1769:Y 8.89458e-05
4 *144:12 0.000645996
5 *1799:A1 *1775:D 0.000220482
6 *1799:A1 *1799:A2 0.000466462
7 *1799:A1 *1805:B 2.09479e-05
8 *1799:A1 *145:16 1.21258e-05
9 *144:12 *1770:A 0.00010096
10 *144:12 *2072:A 0.000175526
11 *144:12 *145:16 0.000183586
12 *144:12 *536:14 9.10431e-06
13 *1805:A *1799:A1 1.17091e-05
14 *135:18 *144:12 0
*RES
1 *1769:Y *144:12 21.4964 
2 *144:12 *1775:A_N 9.3 
3 *144:12 *1799:A1 17.8714 
*END

*D_NET *145 0.00167675
*CONN
*I *1799:C1 I *D sky130_fd_sc_hd__o221a_1
*I *1775:B I *D sky130_fd_sc_hd__nand4b_1
*I *1770:Y O *D sky130_fd_sc_hd__nand2_1
*CAP
1 *1799:C1 6.30135e-05
2 *1775:B 0
3 *1770:Y 0.000285364
4 *145:16 0.000348377
5 *1799:C1 *1775:D 9.90367e-05
6 *1799:C1 *1799:A2 0.000261858
7 *1799:C1 *150:6 0.000274294
8 *145:16 *1770:A 2.47707e-05
9 *145:16 *1775:D 4.71256e-05
10 *145:16 *499:8 3.69047e-06
11 *145:16 *536:14 6.74911e-05
12 *145:16 *539:12 6.01429e-06
13 *1799:A1 *145:16 1.21258e-05
14 *144:12 *145:16 0.000183586
*RES
1 *1770:Y *145:16 23.4964 
2 *145:16 *1775:B 9.3 
3 *145:16 *1799:C1 12.7107 
*END

*D_NET *146 0.000429695
*CONN
*I *1772:A1 I *D sky130_fd_sc_hd__mux2_1
*I *1771:Y O *D sky130_fd_sc_hd__xnor2_1
*CAP
1 *1772:A1 0.000134431
2 *1771:Y 0.000134431
3 *1771:A *1772:A1 2.28499e-05
4 *1772:A0 *1772:A1 0.000137983
*RES
1 *1771:Y *1772:A1 20.3679 
*END

*D_NET *147 0.00122644
*CONN
*I *1773:B I *D sky130_fd_sc_hd__or2_1
*I *1774:B I *D sky130_fd_sc_hd__nand2_1
*I *1772:X O *D sky130_fd_sc_hd__mux2_1
*CAP
1 *1773:B 8.72281e-05
2 *1774:B 0
3 *1772:X 0.000446147
4 *147:10 0.000533375
5 *1773:B *149:10 0.000102545
6 *1773:B *539:16 0
7 *1773:B *565:73 0
8 *147:10 *497:27 5.71472e-05
9 *147:10 *539:18 0
10 *147:10 *539:22 0
11 *147:10 *565:73 0
*RES
1 *1772:X *147:10 21.1393 
2 *147:10 *1774:B 13.8 
3 *147:10 *1773:B 15.7464 
*END

*D_NET *148 0.000314325
*CONN
*I *1775:C I *D sky130_fd_sc_hd__nand4b_1
*I *1773:X O *D sky130_fd_sc_hd__or2_1
*CAP
1 *1775:C 5.35634e-05
2 *1773:X 5.35634e-05
3 *1775:C *2072:A 0.00015234
4 *1775:C *149:10 5.48581e-05
*RES
1 *1773:X *1775:C 29.5464 
*END

*D_NET *149 0.00206608
*CONN
*I *1799:A2 I *D sky130_fd_sc_hd__o221a_1
*I *1775:D I *D sky130_fd_sc_hd__nand4b_1
*I *1774:Y O *D sky130_fd_sc_hd__nand2_1
*CAP
1 *1799:A2 8.10204e-05
2 *1775:D 5.23992e-05
3 *1774:Y 0.000220391
4 *149:10 0.000353811
5 *1799:A2 *1799:B1 5.38444e-06
6 *1799:A2 *1805:B 2.05823e-05
7 *1799:A2 *150:6 4.75955e-05
8 *149:10 *1799:B2 0
9 *149:10 *2072:A 0
10 *149:10 *539:16 3.25247e-05
11 *149:10 *565:73 0
12 *1773:B *149:10 0.000102545
13 *1775:C *149:10 5.48581e-05
14 *1799:A1 *1775:D 0.000220482
15 *1799:A1 *1799:A2 0.000466462
16 *1799:C1 *1775:D 9.90367e-05
17 *1799:C1 *1799:A2 0.000261858
18 *145:16 *1775:D 4.71256e-05
*RES
1 *1774:Y *149:10 22.9786 
2 *149:10 *1775:D 11.4964 
3 *149:10 *1799:A2 13.9607 
*END

*D_NET *150 0.00177686
*CONN
*I *1799:B1 I *D sky130_fd_sc_hd__o221a_1
*I *1805:B I *D sky130_fd_sc_hd__nor4_1
*I *1775:Y O *D sky130_fd_sc_hd__nand4b_1
*CAP
1 *1799:B1 1.81263e-05
2 *1805:B 0.000369412
3 *1775:Y 0.000133906
4 *150:6 0.000521444
5 *1805:B *1799:B2 0.000135028
6 *1805:B *1802:A2 2.23592e-05
7 *1805:B *1802:B1 9.99853e-05
8 *1805:B *1806:A2 1.56e-05
9 *1799:A1 *1805:B 2.09479e-05
10 *1799:A2 *1799:B1 5.38444e-06
11 *1799:A2 *1805:B 2.05823e-05
12 *1799:A2 *150:6 4.75955e-05
13 *1799:C1 *150:6 0.000274294
14 *1805:A *1805:B 9.21933e-05
*RES
1 *1775:Y *150:6 12.7107 
2 *150:6 *1805:B 16.7643 
3 *150:6 *1799:B1 9.72857 
*END

*D_NET *151 0.00430092
*CONN
*I *1777:B I *D sky130_fd_sc_hd__nand2_1
*I *1778:B1 I *D sky130_fd_sc_hd__a221o_1
*I *1776:X O *D sky130_fd_sc_hd__or2_1
*CAP
1 *1777:B 0.000547145
2 *1778:B1 0.000449406
3 *1776:X 0.000366856
4 *151:6 0.00136341
5 *1777:B *1596:C 0.000219711
6 *1777:B *1779:B1 3.10239e-05
7 *1777:B *510:12 0.000186522
8 *1777:B *510:20 2.06178e-05
9 *1777:B *536:20 0.000401482
10 *1778:B1 *1781:B1 0.000159439
11 *151:6 *1781:C1 0.000135953
12 *1735:B1 *1777:B 0.000110029
13 *1778:B2 *1778:B1 7.70134e-06
14 *1781:A1 *1777:B 0
15 *1781:A1 *1778:B1 1.24368e-05
16 *1781:A1 *151:6 0.000228558
17 *105:10 *1777:B 0
18 *110:14 *1777:B 6.06291e-05
19 *129:18 *1777:B 0
*RES
1 *1776:X *151:6 14.3536 
2 *151:6 *1778:B1 14.7821 
3 *151:6 *1777:B 29.1661 
*END

*D_NET *152 0.00113087
*CONN
*I *1779:B1 I *D sky130_fd_sc_hd__a211o_1
*I *1777:Y O *D sky130_fd_sc_hd__nand2_1
*CAP
1 *1779:B1 0.000394207
2 *1777:Y 0.000394207
3 *1779:B1 *1784:B1 1.0664e-05
4 *1754:B1 *1779:B1 3.3231e-05
5 *1755:A2 *1779:B1 5.65955e-05
6 *1777:B *1779:B1 3.10239e-05
7 *1784:A2 *1779:B1 9.23113e-06
8 *126:15 *1779:B1 5.49489e-05
9 *129:8 *1779:B1 2.51923e-05
10 *129:18 *1779:B1 0.000121573
*RES
1 *1777:Y *1779:B1 33.1893 
*END

*D_NET *153 0.00158981
*CONN
*I *1781:B1 I *D sky130_fd_sc_hd__o211a_1
*I *1778:X O *D sky130_fd_sc_hd__a221o_1
*CAP
1 *1781:B1 0.000291491
2 *1778:X 0.000291491
3 *1781:B1 *1780:C1 0.000678701
4 *1781:B1 *1781:C1 1.21436e-05
5 *1778:A1 *1781:B1 6.97067e-05
6 *1778:A2 *1781:B1 1.55638e-05
7 *1778:B1 *1781:B1 0.000159439
8 *1778:B2 *1781:B1 1.28809e-05
9 *1781:A1 *1781:B1 5.83917e-05
*RES
1 *1778:X *1781:B1 26.975 
*END

*D_NET *154 0.000309227
*CONN
*I *1780:B1 I *D sky130_fd_sc_hd__o211a_1
*I *1779:X O *D sky130_fd_sc_hd__a211o_1
*CAP
1 *1780:B1 7.24536e-05
2 *1779:X 7.24536e-05
3 *1780:B1 *510:39 3.57366e-05
4 *1780:B1 *510:50 1.21258e-05
5 *1755:A2 *1780:B1 0
6 *126:26 *1780:B1 4.82865e-05
7 *130:8 *1780:B1 6.81704e-05
*RES
1 *1779:X *1780:B1 20.3857 
*END

*D_NET *155 0.0032532
*CONN
*I *1797:B I *D sky130_fd_sc_hd__nand2b_1
*I *1788:A I *D sky130_fd_sc_hd__or3_4
*I *1780:X O *D sky130_fd_sc_hd__o211a_1
*CAP
1 *1797:B 4.7121e-06
2 *1788:A 0.000116303
3 *1780:X 0.000518297
4 *155:14 0.000639312
5 *1788:A *1797:A_N 5.52302e-05
6 *1788:A *1798:B1 0.000185643
7 *1788:A *163:10 1.33343e-05
8 *1797:B *1798:B1 2.16129e-07
9 *155:14 *1783:B 0.000146474
10 *155:14 *1788:B 5.95282e-05
11 *155:14 *162:12 0.000134555
12 *155:14 *283:85 0
13 *155:14 *536:16 0
14 *155:14 *542:63 0.000342393
15 *155:14 *542:109 2.04866e-05
16 *1785:A *155:14 0.000105479
17 *1785:B *155:14 5.59013e-05
18 *130:14 *155:14 0.000855337
*RES
1 *1780:X *155:14 33.3536 
2 *155:14 *1788:A 12.3357 
3 *155:14 *1797:B 9.42946 
*END

*D_NET *156 0.00366488
*CONN
*I *1788:B I *D sky130_fd_sc_hd__or3_4
*I *1781:X O *D sky130_fd_sc_hd__o211a_1
*CAP
1 *1788:B 0.000657041
2 *1781:X 0.000657041
3 *1788:B *1780:C1 0.000260574
4 *1788:B *1784:B1 8.24047e-05
5 *1788:B *1786:A2 8.79776e-05
6 *1788:B *162:12 0.00010326
7 *1788:B *510:39 3.25078e-05
8 *1723:A *1788:B 0.000248493
9 *1777:A *1788:B 0.000122935
10 *1778:B2 *1788:B 0.000195555
11 *110:14 *1788:B 0.000126446
12 *130:14 *1788:B 0.000953205
13 *136:14 *1788:B 7.79177e-05
14 *155:14 *1788:B 5.95282e-05
*RES
1 *1781:X *1788:B 46.1 
*END

*D_NET *157 0.000543846
*CONN
*I *1783:B I *D sky130_fd_sc_hd__xnor2_1
*I *1782:X O *D sky130_fd_sc_hd__or2_1
*CAP
1 *1783:B 7.12909e-05
2 *1782:X 7.12909e-05
3 *1783:B *1725:A 5.33005e-05
4 *1783:B *542:109 0.000148189
5 *1783:A *1783:B 5.33005e-05
6 *155:14 *1783:B 0.000146474
*RES
1 *1782:X *1783:B 30.0821 
*END

*D_NET *158 0.00206738
*CONN
*I *1786:A2 I *D sky130_fd_sc_hd__a211o_1
*I *1784:B1 I *D sky130_fd_sc_hd__a211o_1
*I *1783:Y O *D sky130_fd_sc_hd__xnor2_1
*CAP
1 *1786:A2 0.000100002
2 *1784:B1 0.000257932
3 *1783:Y 0
4 *158:6 0.000357934
5 *1784:B1 *1784:C1 1.84777e-06
6 *1784:B1 *1787:B1 3.97863e-05
7 *1723:A *1784:B1 0.000105696
8 *1723:A *1786:A2 0.000153047
9 *1779:B1 *1784:B1 1.0664e-05
10 *1782:B *1784:B1 6.94952e-05
11 *1784:A1 *1784:B1 4.6025e-06
12 *1788:B *1784:B1 8.24047e-05
13 *1788:B *1786:A2 8.79776e-05
14 *110:14 *1784:B1 0.000139491
15 *136:14 *1784:B1 0.000353383
16 *136:14 *1786:A2 0.000303114
*RES
1 *1783:Y *158:6 13.8 
2 *158:6 *1784:B1 30.367 
3 *158:6 *1786:A2 17.8714 
*END

*D_NET *159 0.00191608
*CONN
*I *1787:B1 I *D sky130_fd_sc_hd__o211a_1
*I *1784:X O *D sky130_fd_sc_hd__a211o_1
*CAP
1 *1787:B1 0.000425365
2 *1784:X 0.000425365
3 *1787:B1 *2051:A 0
4 *1787:B1 *497:27 0.00015234
5 *1787:B1 *531:25 0.000442085
6 *1787:B1 *542:55 1.34631e-05
7 *1754:A3 *1787:B1 4.03318e-05
8 *1782:B *1787:B1 0.000179021
9 *1784:B1 *1787:B1 3.97863e-05
10 *110:14 *1787:B1 9.83388e-05
11 *129:8 *1787:B1 9.99853e-05
12 *136:14 *1787:B1 0
*RES
1 *1784:X *1787:B1 47.85 
*END

*D_NET *160 0.000329067
*CONN
*I *1786:B1 I *D sky130_fd_sc_hd__a211o_1
*I *1785:Y O *D sky130_fd_sc_hd__nor2_1
*CAP
1 *1786:B1 7.26345e-05
2 *1785:Y 7.26345e-05
3 *1786:B1 *1786:C1 1.04232e-05
4 *1786:B1 *283:85 2.77258e-05
5 *1786:B1 *283:93 1.92789e-05
6 *1785:B *1786:B1 9.41642e-05
7 *1786:A1 *1786:B1 3.22063e-05
*RES
1 *1785:Y *1786:B1 20.3857 
*END

*D_NET *161 0.0018449
*CONN
*I *1789:B I *D sky130_fd_sc_hd__nand2b_1
*I *1798:C1 I *D sky130_fd_sc_hd__o211a_1
*I *1786:X O *D sky130_fd_sc_hd__a211o_1
*CAP
1 *1789:B 0.000129143
2 *1798:C1 0.00010316
3 *1786:X 0.00015695
4 *161:8 0.000389254
5 *1789:B *1789:A_N 2.57619e-05
6 *1789:B *471:71 0
7 *1798:C1 *1798:A1 8.85631e-05
8 *1798:C1 *510:95 0.000221641
9 *161:8 *2051:A 0.000184502
10 *161:8 *471:71 0
11 *136:14 *1789:B 0.000190322
12 *136:14 *161:8 0.000355599
*RES
1 *1786:X *161:8 18.4786 
2 *161:8 *1798:C1 16.4071 
3 *161:8 *1789:B 16.6125 
*END

*D_NET *162 0.00107617
*CONN
*I *1797:A_N I *D sky130_fd_sc_hd__nand2b_1
*I *1788:C I *D sky130_fd_sc_hd__or3_4
*I *1787:X O *D sky130_fd_sc_hd__o211a_1
*CAP
1 *1797:A_N 2.65646e-05
2 *1788:C 0
3 *1787:X 0.000251357
4 *162:12 0.000277922
5 *162:12 *283:93 0.000227286
6 *1788:A *1797:A_N 5.52302e-05
7 *1788:B *162:12 0.00010326
8 *136:14 *162:12 0
9 *155:14 *162:12 0.000134555
*RES
1 *1787:X *162:12 22.8357 
2 *162:12 *1788:C 9.3 
3 *162:12 *1797:A_N 9.83571 
*END

*D_NET *163 0.00139101
*CONN
*I *1789:A_N I *D sky130_fd_sc_hd__nand2b_1
*I *1798:A2 I *D sky130_fd_sc_hd__o211a_1
*I *1788:X O *D sky130_fd_sc_hd__or3_4
*CAP
1 *1789:A_N 0.000176029
2 *1798:A2 0
3 *1788:X 0.000141261
4 *163:10 0.000317289
5 *1789:A_N *1798:B1 9.54798e-06
6 *1789:A_N *1805:C 3.69047e-06
7 *1789:A_N *2051:A 1.6363e-05
8 *1789:A_N *498:23 7.69867e-05
9 *1789:A_N *536:14 0.000180066
10 *163:10 *1798:B1 0.000122935
11 *1788:A *163:10 1.33343e-05
12 *1789:B *1789:A_N 2.57619e-05
13 *136:14 *1789:A_N 0.000184807
14 *136:14 *163:10 0.000122935
*RES
1 *1788:X *163:10 16.3893 
2 *163:10 *1798:A2 13.8 
3 *163:10 *1789:A_N 18.55 
*END

*D_NET *164 0.000619088
*CONN
*I *1805:C I *D sky130_fd_sc_hd__nor4_1
*I *1789:Y O *D sky130_fd_sc_hd__nand2b_1
*CAP
1 *1805:C 0.000138627
2 *1789:Y 0.000138627
3 *1805:C *1805:D 0.000105347
4 *1805:C *498:23 7.6644e-05
5 *1805:C *536:14 1.15281e-05
6 *1789:A_N *1805:C 3.69047e-06
7 *136:14 *1805:C 0.000144623
*RES
1 *1789:Y *1805:C 31.6 
*END

*D_NET *165 0.000192959
*CONN
*I *1791:B I *D sky130_fd_sc_hd__nand2_1
*I *1790:Y O *D sky130_fd_sc_hd__nand2_1
*CAP
1 *1791:B 6.6881e-05
2 *1790:Y 6.6881e-05
3 *1791:B *1792:A1 7.43578e-06
4 *1791:B *1793:A 5.17614e-05
*RES
1 *1790:Y *1791:B 19.975 
*END

*D_NET *166 0.00107931
*CONN
*I *1792:A1 I *D sky130_fd_sc_hd__mux2_2
*I *1791:Y O *D sky130_fd_sc_hd__nand2_1
*CAP
1 *1792:A1 0.000188781
2 *1791:Y 0.000188781
3 *1792:A1 *1792:A0 9.60875e-05
4 *1792:A1 *1793:A 9.99644e-06
5 *1792:A1 *1795:A2 0.000221634
6 *1792:A1 *1795:B1 5.60557e-05
7 *1792:A1 *1803:A 0.000175512
8 *1792:A1 *526:100 0.000135028
9 *1791:B *1792:A1 7.43578e-06
*RES
1 *1791:Y *1792:A1 32.5643 
*END

*D_NET *167 0.0016152
*CONN
*I *1804:A2 I *D sky130_fd_sc_hd__a2111o_1
*I *1796:A2 I *D sky130_fd_sc_hd__a21o_1
*I *1794:B I *D sky130_fd_sc_hd__nor2_1
*I *1792:X O *D sky130_fd_sc_hd__mux2_2
*CAP
1 *1804:A2 3.85166e-05
2 *1796:A2 0.000107027
3 *1794:B 0.000166773
4 *1792:X 0
5 *167:25 0.000212941
6 *167:4 0.000234171
7 *1794:B *1794:A 5.25248e-05
8 *1794:B *1795:A2 1.3701e-05
9 *1796:A2 *1796:A1 0.000353066
10 *1796:A2 *1796:B1 0.000189364
11 *1804:A2 *1796:A1 4.08637e-05
12 *1804:A2 *1796:B1 2.89114e-05
13 *167:25 *1793:B 0
14 *167:25 *1794:A 2.65563e-06
15 *167:25 *1796:A1 7.6644e-05
16 *167:25 *273:27 9.80405e-05
*RES
1 *1792:X *167:4 9.3 
2 *167:4 *1794:B 12.0054 
3 *167:4 *167:25 10.5089 
4 *167:25 *1796:A2 13.1393 
5 *167:25 *1804:A2 10.2643 
*END

*D_NET *168 0.00109385
*CONN
*I *1804:B1 I *D sky130_fd_sc_hd__a2111o_1
*I *1793:X O *D sky130_fd_sc_hd__and2_1
*CAP
1 *1804:B1 0.000332057
2 *1793:X 0.000332057
3 *1804:B1 *1804:C1 0.000122221
4 *1804:B1 *273:27 0.000307518
5 *1804:B1 *536:16 0
*RES
1 *1793:X *1804:B1 33.4393 
*END

*D_NET *169 0.000273185
*CONN
*I *1804:C1 I *D sky130_fd_sc_hd__a2111o_1
*I *1794:Y O *D sky130_fd_sc_hd__nor2_1
*CAP
1 *1804:C1 7.5482e-05
2 *1794:Y 7.5482e-05
3 *1804:C1 *536:16 0
4 *1804:B1 *1804:C1 0.000122221
*RES
1 *1794:Y *1804:C1 29.2429 
*END

*D_NET *170 0.00220012
*CONN
*I *1796:B1 I *D sky130_fd_sc_hd__a21o_1
*I *1795:X O *D sky130_fd_sc_hd__o211a_1
*CAP
1 *1796:B1 0.000351271
2 *1795:X 0.000351271
3 *1796:B1 *1792:S 8.34882e-05
4 *1796:B1 *1793:B 1.51018e-05
5 *1796:B1 *1796:A1 1.74352e-05
6 *1796:B1 *1803:A 0.000287639
7 *1796:B1 *178:17 2.28598e-05
8 *1796:B1 *510:95 0.00075137
9 *1796:B1 *526:111 3.34295e-05
10 *1796:B1 *529:80 6.79794e-05
11 *1796:A2 *1796:B1 0.000189364
12 *1804:A2 *1796:B1 2.89114e-05
*RES
1 *1795:X *1796:B1 38.8143 
*END

*D_NET *171 0.000654005
*CONN
*I *1798:A1 I *D sky130_fd_sc_hd__o211a_1
*I *1796:X O *D sky130_fd_sc_hd__a21o_1
*CAP
1 *1798:A1 0.000239133
2 *1796:X 0.000239133
3 *1798:A1 *510:95 8.71761e-05
4 *1798:C1 *1798:A1 8.85631e-05
*RES
1 *1796:X *1798:A1 22.85 
*END

*D_NET *172 0.000999501
*CONN
*I *1798:B1 I *D sky130_fd_sc_hd__o211a_1
*I *1797:Y O *D sky130_fd_sc_hd__nand2b_1
*CAP
1 *1798:B1 0.000279112
2 *1797:Y 0.000279112
3 *1798:B1 *2051:A 0.000122935
4 *1788:A *1798:B1 0.000185643
5 *1789:A_N *1798:B1 9.54798e-06
6 *1797:B *1798:B1 2.16129e-07
7 *163:10 *1798:B1 0.000122935
*RES
1 *1797:Y *1798:B1 32.2429 
*END

*D_NET *173 0.00195874
*CONN
*I *1799:B2 I *D sky130_fd_sc_hd__o221a_1
*I *1798:X O *D sky130_fd_sc_hd__o211a_1
*CAP
1 *1799:B2 0.000561148
2 *1798:X 0.000561148
3 *1799:B2 *1802:A2 5.33005e-05
4 *1799:B2 *471:71 0.000484571
5 *1799:B2 *510:95 0.000143375
6 *1799:B2 *531:25 2.01732e-05
7 *1805:B *1799:B2 0.000135028
8 *149:10 *1799:B2 0
*RES
1 *1798:X *1799:B2 47.4214 
*END

*D_NET *174 0.000225271
*CONN
*I *1802:A2 I *D sky130_fd_sc_hd__o21a_1
*I *1799:X O *D sky130_fd_sc_hd__o221a_1
*CAP
1 *1802:A2 7.48055e-05
2 *1799:X 7.48055e-05
3 *1799:B2 *1802:A2 5.33005e-05
4 *1805:B *1802:A2 2.23592e-05
*RES
1 *1799:X *1802:A2 19.5464 
*END

*D_NET *175 0.000585471
*CONN
*I *1801:A2 I *D sky130_fd_sc_hd__a21oi_1
*I *1800:Y O *D sky130_fd_sc_hd__nor2_1
*CAP
1 *1801:A2 0.000178115
2 *1800:Y 0.000178115
3 *1801:A2 *1801:A1 0.000153047
4 *1765:C *1801:A2 7.61932e-05
*RES
1 *1800:Y *1801:A2 30.9036 
*END

*D_NET *176 0.00251005
*CONN
*I *1802:B1 I *D sky130_fd_sc_hd__o21a_1
*I *1801:Y O *D sky130_fd_sc_hd__a21oi_1
*CAP
1 *1802:B1 0.000961672
2 *1801:Y 0.000961672
3 *1802:B1 *1762:B1 2.89114e-05
4 *1802:B1 *1806:A2 1.08528e-05
5 *1762:A2 *1802:B1 8.53028e-05
6 *1765:C *1802:B1 7.77751e-05
7 *1801:B1 *1802:B1 1.15172e-05
8 *1805:A *1802:B1 9.83388e-05
9 *1805:B *1802:B1 9.99853e-05
10 *136:14 *1802:B1 0.000119738
11 *137:6 *1802:B1 1.12124e-05
12 *140:12 *1802:B1 4.30767e-05
*RES
1 *1801:Y *1802:B1 42.0955 
*END

*D_NET *177 0.000754654
*CONN
*I *1806:A2 I *D sky130_fd_sc_hd__o21a_1
*I *1802:X O *D sky130_fd_sc_hd__o21a_1
*CAP
1 *1806:A2 0.000220545
2 *1802:X 0.000220545
3 *1806:A2 *1806:A1 4.93928e-05
4 *1806:A2 *2069:A 0.000107774
5 *1802:B1 *1806:A2 1.08528e-05
6 *1805:A *1806:A2 5.33005e-05
7 *1805:B *1806:A2 1.56e-05
8 *136:14 *1806:A2 7.6644e-05
*RES
1 *1802:X *1806:A2 31.6714 
*END

*D_NET *178 0.00309565
*CONN
*I *1842:A I *D sky130_fd_sc_hd__or2_1
*I *1843:A1 I *D sky130_fd_sc_hd__a21oi_1
*I *1804:D1 I *D sky130_fd_sc_hd__a2111o_1
*I *1803:Y O *D sky130_fd_sc_hd__nor2_1
*CAP
1 *1842:A 0.000195062
2 *1843:A1 0.000159833
3 *1804:D1 0.000228678
4 *1803:Y 0
5 *178:17 0.000592046
6 *178:4 0.000465829
7 *1804:D1 *510:95 0.000360894
8 *1842:A *1839:B 0
9 *1842:A *1842:B 9.90431e-05
10 *1842:A *1844:A2 0.000258564
11 *1842:A *1844:B1 0.000186669
12 *1843:A1 *1840:B 2.44318e-05
13 *1843:A1 *1843:B1 0.0001399
14 *1843:A1 *1844:B2 5.19842e-06
15 *178:17 *1839:B 0
16 *178:17 *1844:A2 0.000270943
17 *178:17 *510:95 8.57023e-05
18 *1796:B1 *178:17 2.28598e-05
*RES
1 *1803:Y *178:4 9.3 
2 *178:4 *1804:D1 12.7107 
3 *178:4 *178:17 9.32143 
4 *178:17 *1843:A1 15.9786 
5 *178:17 *1842:A 19.0321 
*END

*D_NET *179 0.00205756
*CONN
*I *1805:D I *D sky130_fd_sc_hd__nor4_1
*I *1804:X O *D sky130_fd_sc_hd__a2111o_1
*CAP
1 *1805:D 0.000594823
2 *1804:X 0.000594823
3 *1805:D *498:23 0.000270236
4 *1805:D *510:95 0.000492333
5 *1805:D *536:16 0
6 *1805:C *1805:D 0.000105347
7 *136:14 *1805:D 0
*RES
1 *1804:X *1805:D 39.0464 
*END

*D_NET *180 0.000227846
*CONN
*I *1806:A1 I *D sky130_fd_sc_hd__o21a_1
*I *1805:Y O *D sky130_fd_sc_hd__nor4_1
*CAP
1 *1806:A1 8.92266e-05
2 *1805:Y 8.92266e-05
3 *1806:A2 *1806:A1 4.93928e-05
*RES
1 *1805:Y *1806:A1 29.2429 
*END

*D_NET *181 0.00554113
*CONN
*I *1827:B I *D sky130_fd_sc_hd__or3_4
*I *1806:X O *D sky130_fd_sc_hd__o21a_1
*CAP
1 *1827:B 0.00116988
2 *1806:X 0.00116988
3 *1827:B *1806:B1 0.000843855
4 *1827:B *1841:A 0.000157225
5 *1827:B *2069:A 0.000212642
6 *1827:B *2113:A 0.000105163
7 *1827:B *2115:A 0.00010096
8 *1827:B *2116:A 0.000186662
9 *1827:B *326:18 0.00148054
10 *1827:B *534:139 0.000114324
*RES
1 *1806:X *1827:B 46.4036 
*END

*D_NET *182 0.00742067
*CONN
*I *1956:A2 I *D sky130_fd_sc_hd__o21a_1
*I *1808:B I *D sky130_fd_sc_hd__or2_1
*I *1898:A I *D sky130_fd_sc_hd__nand2_1
*I *1807:X O *D sky130_fd_sc_hd__or3_1
*CAP
1 *1956:A2 0.00143711
2 *1808:B 0
3 *1898:A 0.000389441
4 *1807:X 0
5 *182:16 0.000822495
6 *182:4 0.00187017
7 *1898:A *1845:A 0.000197984
8 *1898:A *524:64 0
9 *1898:A *524:78 1.76135e-05
10 *1898:A *538:12 0
11 *1956:A2 *1589:A 2.59355e-05
12 *1956:A2 *1598:A2 8.57023e-05
13 *1956:A2 *2047:A1 6.42145e-05
14 *1956:A2 *197:28 3.40907e-05
15 *1956:A2 *199:95 8.85631e-05
16 *1956:A2 *326:78 3.15101e-05
17 *1956:A2 *336:18 0.000437762
18 *1956:A2 *351:22 2.2285e-05
19 *1956:A2 *492:20 0.000142317
20 *1956:A2 *492:56 0.000310987
21 *1956:A2 *535:22 0.00063885
22 *1956:A2 *550:67 8.43535e-06
23 *1956:A2 *554:88 0.000149684
24 *1956:A2 *563:69 0.00019744
25 *182:16 *1598:A1 2.41233e-05
26 *182:16 *1598:A2 0.00027032
27 *182:16 *1807:B 4.45768e-06
28 *182:16 *1808:A 7.83587e-05
29 *182:16 *2131:A 4.58194e-05
30 *182:16 *547:45 1.58213e-06
31 *182:16 *554:75 2.34204e-05
*RES
1 *1807:X *182:4 9.3 
2 *182:4 *182:16 15.2321 
3 *182:16 *1898:A 25.3536 
4 *182:16 *1808:B 9.3 
5 *182:4 *1956:A2 44.2107 
*END

*D_NET *183 0.00370284
*CONN
*I *1826:A1 I *D sky130_fd_sc_hd__a311o_1
*I *1812:A1 I *D sky130_fd_sc_hd__o2111a_1
*I *1808:X O *D sky130_fd_sc_hd__or2_1
*CAP
1 *1826:A1 0
2 *1812:A1 0.000252647
3 *1808:X 0.000502703
4 *183:12 0.00075535
5 *1812:A1 *1812:A2 7.69266e-05
6 *1812:A1 *1826:A3 4.87854e-05
7 *1812:A1 *2088:A 0.000477097
8 *1812:A1 *186:8 1.38247e-05
9 *1812:A1 *199:18 0.0001399
10 *1812:A1 *205:14 0.000407584
11 *1812:A1 *336:12 1.39841e-05
12 *1812:A1 *491:26 0.000120708
13 *183:12 *1809:D 0.000213627
14 *183:12 *1811:A 2.6949e-05
15 *183:12 *1825:A3 0
16 *183:12 *1826:B1 4.84319e-05
17 *183:12 *1966:B2 7.40571e-05
18 *183:12 *2088:A 0
19 *183:12 *2131:A 6.444e-05
20 *183:12 *186:8 9.97552e-05
21 *183:12 *199:51 0
22 *183:12 *526:92 0
23 *183:12 *529:51 0.000262791
24 *183:12 *554:75 2.49484e-05
25 *183:12 *554:88 7.8327e-05
*RES
1 *1808:X *183:12 28.6929 
2 *183:12 *1812:A1 27.3714 
3 *183:12 *1826:A1 9.3 
*END

*D_NET *184 0.000473575
*CONN
*I *1811:A I *D sky130_fd_sc_hd__or2_1
*I *1809:X O *D sky130_fd_sc_hd__or4_1
*CAP
1 *1811:A 9.43619e-05
2 *1809:X 9.43619e-05
3 *1811:A *2088:A 0.000150625
4 *1811:A *518:82 2.89114e-05
5 *1811:A *554:88 7.83659e-05
6 *183:12 *1811:A 2.6949e-05
*RES
1 *1809:X *1811:A 30.0821 
*END

*D_NET *185 0.000330993
*CONN
*I *1811:B I *D sky130_fd_sc_hd__or2_1
*I *1810:X O *D sky130_fd_sc_hd__or4_1
*CAP
1 *1811:B 4.90052e-05
2 *1810:X 4.90052e-05
3 *1811:B *2088:A 0.00015234
4 *1811:B *529:63 8.06427e-05
*RES
1 *1810:X *1811:B 29.5464 
*END

*D_NET *186 0.00172625
*CONN
*I *1812:A2 I *D sky130_fd_sc_hd__o2111a_1
*I *1826:A2 I *D sky130_fd_sc_hd__a311o_1
*I *1811:X O *D sky130_fd_sc_hd__or2_1
*CAP
1 *1812:A2 0.00033159
2 *1826:A2 0
3 *1811:X 7.04588e-05
4 *186:8 0.000402048
5 *1812:A2 *1586:A 0.000187305
6 *1812:A2 *1826:A3 0
7 *1812:A2 *1826:B1 2.83284e-06
8 *1812:A2 *1831:B_N 5.33005e-05
9 *1812:A2 *205:14 0.000399668
10 *1812:A2 *500:35 5.33005e-05
11 *186:8 *1826:B1 6.19639e-06
12 *186:8 *2088:A 2.90421e-05
13 *1812:A1 *1812:A2 7.69266e-05
14 *1812:A1 *186:8 1.38247e-05
15 *183:12 *186:8 9.97552e-05
*RES
1 *1811:X *186:8 15.4429 
2 *186:8 *1826:A2 13.8 
3 *186:8 *1812:A2 21.7464 
*END

*D_NET *187 0.00247321
*CONN
*I *1827:A I *D sky130_fd_sc_hd__or3_4
*I *1812:X O *D sky130_fd_sc_hd__o2111a_1
*CAP
1 *1827:A 0.000726031
2 *1812:X 0.000726031
3 *1827:A *1812:B1 0.000225609
4 *1827:A *1827:C 0.000361971
5 *1827:A *1831:B_N 3.8274e-05
6 *1827:A *2113:A 7.17136e-05
7 *1827:A *2114:A 0.000135028
8 *1827:A *205:14 0.000139907
9 *1827:A *491:26 4.00229e-05
10 op_out[1] *1827:A 8.6229e-06
*RES
1 *1812:X *1827:A 39.3143 
*END

*D_NET *188 0.0165127
*CONN
*I *2008:B1 I *D sky130_fd_sc_hd__o22a_1
*I *1819:B1 I *D sky130_fd_sc_hd__o22a_1
*I *2047:B1 I *D sky130_fd_sc_hd__o22a_1
*I *1965:B1 I *D sky130_fd_sc_hd__o22a_1
*I *1920:B1 I *D sky130_fd_sc_hd__o22a_1
*I *1830:B1 I *D sky130_fd_sc_hd__o22a_1
*I *1893:B1 I *D sky130_fd_sc_hd__o22a_1
*I *1864:B1 I *D sky130_fd_sc_hd__o22a_1
*I *1813:X O *D sky130_fd_sc_hd__and4b_2
*CAP
1 *2008:B1 0.00089349
2 *1819:B1 0
3 *2047:B1 0.000145398
4 *1965:B1 1.89309e-05
5 *1920:B1 0.00040259
6 *1830:B1 1.1624e-05
7 *1893:B1 0.000275717
8 *1864:B1 2.30826e-05
9 *1813:X 0.000164639
10 *188:71 0.000944794
11 *188:63 0.000795576
12 *188:28 0.000671057
13 *188:22 0.000965685
14 *188:16 0.000774968
15 *188:12 0.000232586
16 *188:10 0.00122445
17 *1830:B1 *1830:B2 5.52238e-05
18 *1830:B1 *526:77 5.52238e-05
19 *1893:B1 *1864:A1 5.33005e-05
20 *1893:B1 *1864:A2 0.000140933
21 *1893:B1 *1891:B1 1.65558e-05
22 *1893:B1 *1893:A1 0.000482601
23 *1893:B1 *1893:B2 1.02504e-05
24 *1893:B1 *526:62 0.000577064
25 *1893:B1 *566:35 2.26327e-05
26 *1920:B1 *1920:B2 0.000418995
27 *1920:B1 *1921:A 4.43698e-05
28 *1920:B1 *1964:B1 4.46186e-06
29 *1920:B1 *1965:B2 1.18064e-05
30 *1920:B1 *1967:B2 9.99644e-06
31 *1920:B1 *537:42 5.58941e-05
32 *1965:B1 *1964:A1 5.33005e-05
33 *1965:B1 *1964:A2 5.33005e-05
34 *1965:B1 *537:46 1.24368e-05
35 *2008:B1 *1957:A 2.51343e-06
36 *2008:B1 *2009:A3 8.43535e-06
37 *2008:B1 *2009:B1 0
38 *2008:B1 *2010:A1 2.89016e-05
39 *2008:B1 *2010:A2 0.000146533
40 *2008:B1 *2010:B1 0.000489384
41 *2008:B1 *197:16 4.85063e-05
42 *2008:B1 *205:14 1.82657e-05
43 *2008:B1 *535:69 5.94433e-06
44 *2047:B1 *2049:A1 0.000138881
45 *2047:B1 *2049:B1 5.33005e-05
46 *2047:B1 *196:12 0.000188967
47 *2047:B1 *205:26 9.6732e-05
48 *2047:B1 *205:28 5.80706e-06
49 *2047:B1 *438:16 4.27437e-05
50 *188:10 *1815:A 1.39726e-05
51 *188:10 *1815:C_N 0.00014183
52 *188:10 *1818:B2 3.34687e-05
53 *188:10 *190:8 7.6644e-05
54 *188:12 *1818:B2 0.000214332
55 *188:12 *190:8 0.00030095
56 *188:12 *190:10 0.000124534
57 *188:16 *1818:B2 2.49484e-05
58 *188:16 *1819:B2 0.000148189
59 *188:16 *190:10 0.00019678
60 *188:22 *1818:B1 0.000139631
61 *188:22 *1818:B2 5.58941e-05
62 *188:22 *1819:A1 9.25014e-06
63 *188:22 *1819:B2 2.89114e-05
64 *188:22 *1835:B1 4.22135e-06
65 *188:22 *1837:A 0.000125724
66 *188:22 *1837:B 8.79208e-05
67 *188:22 *1837:C 6.62299e-06
68 *188:22 *2049:C1 5.03626e-05
69 *188:22 *190:14 0
70 *188:22 *202:43 3.47641e-06
71 *188:22 *528:34 7.51431e-05
72 *188:22 *550:95 0.000588624
73 *188:28 *1830:A2 0.000118057
74 *188:28 *1836:A1 5.7836e-06
75 *188:28 *1836:A3 0.000181995
76 *188:28 *1836:B1 0
77 *188:28 *1864:A2 0.000505136
78 *188:28 *1866:A2 0.000120501
79 *188:28 *1866:B1 7.1843e-05
80 *188:28 *1866:B2 2.84269e-05
81 *188:28 *1866:C1 5.52238e-05
82 *188:28 *1867:C1 6.54469e-05
83 *188:28 *202:43 2.60416e-05
84 *188:28 *528:34 3.79304e-05
85 *188:28 *545:29 0.000350311
86 *188:63 *1818:B1 4.17433e-05
87 *188:63 *2046:A2 0.000139913
88 *188:63 *190:54 5.36881e-05
89 *188:63 *205:26 5.03772e-05
90 *188:71 *1921:A 6.8646e-06
91 *188:71 *1964:B1 0.00025455
92 *188:71 *2047:B2 5.03772e-05
93 *188:71 *190:54 9.41642e-05
94 *188:71 *190:61 0.000724834
95 *188:71 *205:26 2.05612e-05
96 *188:71 *537:42 0.000159689
*RES
1 *1813:X *188:10 16.6036 
2 *188:10 *188:12 5.58929 
3 *188:12 *188:16 7.05357 
4 *188:16 *188:22 18.125 
5 *188:22 *188:28 15.3929 
6 *188:28 *1864:B1 9.72857 
7 *188:28 *1893:B1 27.1036 
8 *188:22 *1830:B1 14.3357 
9 *188:16 *188:63 3 
10 *188:63 *188:71 16.75 
11 *188:71 *1920:B1 20.6036 
12 *188:71 *1965:B1 14.3357 
13 *188:63 *2047:B1 22.2107 
14 *188:12 *1819:B1 13.8 
15 *188:10 *2008:B1 25.7464 
*END

*D_NET *189 0.0043209
*CONN
*I *1817:D_N I *D sky130_fd_sc_hd__or4b_4
*I *1821:C I *D sky130_fd_sc_hd__nor3_4
*I *1815:A I *D sky130_fd_sc_hd__or3b_4
*I *1820:C I *D sky130_fd_sc_hd__nor3_1
*I *1814:Y O *D sky130_fd_sc_hd__nand2_2
*CAP
1 *1817:D_N 6.93977e-05
2 *1821:C 0.000434351
3 *1815:A 0.000210462
4 *1820:C 1.96666e-05
5 *1814:Y 0
6 *189:14 0.000371189
7 *189:10 0.000670134
8 *189:4 0.00016412
9 *1815:A *1813:B 5.52302e-05
10 *1815:A *1813:C 4.18895e-05
11 *1815:A *1815:C_N 0.000191922
12 *1815:A *2089:A 0.000388883
13 *1815:A *230:13 9.60939e-05
14 *1815:A *489:35 3.39921e-05
15 *1815:A *530:23 5.52302e-05
16 *1817:D_N *1814:A 6.33738e-05
17 *1817:D_N *2068:A 0.00010096
18 *1817:D_N *192:24 5.97398e-05
19 *1817:D_N *315:23 9.61553e-05
20 *1820:C *230:13 0.00014285
21 *1820:C *489:35 2.44318e-05
22 *1820:C *489:41 0.00010096
23 *1821:C *1812:B1 9.90431e-05
24 *1821:C *191:72 5.78608e-05
25 *1821:C *197:16 0.000100625
26 *189:10 *1814:A 2.28499e-05
27 *189:10 *192:24 0.000140933
28 *189:10 *315:23 3.14193e-05
29 *189:10 *500:46 8.79825e-05
30 *189:10 *530:17 2.41729e-05
31 *189:14 *1813:B 0.000192776
32 *189:14 *2089:A 6.2589e-06
33 *189:14 *192:24 4.73931e-05
34 *189:14 *500:46 8.08022e-05
35 *189:14 *530:17 6.8646e-06
36 *189:14 *530:19 1.69115e-05
37 *189:14 *530:66 0
38 *188:10 *1815:A 1.39726e-05
*RES
1 *1814:Y *189:4 9.3 
2 *189:4 *189:10 7.19643 
3 *189:10 *189:14 7.96429 
4 *189:14 *1820:C 10.6571 
5 *189:14 *1815:A 15.7286 
6 *189:10 *1821:C 19.5857 
7 *189:4 *1817:D_N 11.9071 
*END

*D_NET *190 0.0137836
*CONN
*I *2007:B1 I *D sky130_fd_sc_hd__a21oi_1
*I *1964:B1 I *D sky130_fd_sc_hd__a21oi_1
*I *1919:B1 I *D sky130_fd_sc_hd__a21oi_1
*I *2046:B1 I *D sky130_fd_sc_hd__a21oi_1
*I *1818:B1 I *D sky130_fd_sc_hd__a22oi_1
*I *1892:B1 I *D sky130_fd_sc_hd__a21oi_1
*I *1863:A_N I *D sky130_fd_sc_hd__and2b_1
*I *1829:A I *D sky130_fd_sc_hd__nor2_1
*I *1815:X O *D sky130_fd_sc_hd__or3b_4
*CAP
1 *2007:B1 0.000731716
2 *1964:B1 0.000217473
3 *1919:B1 0.000222073
4 *2046:B1 0
5 *1818:B1 8.50488e-05
6 *1892:B1 0.000289042
7 *1863:A_N 0
8 *1829:A 0
9 *1815:X 0.000146889
10 *190:61 0.000768076
11 *190:54 0.000434362
12 *190:41 0.00019088
13 *190:27 0.000606711
14 *190:14 0.000835649
15 *190:10 0.000646059
16 *190:8 0.00100668
17 *1818:B1 *1809:C 0.000112307
18 *1818:B1 *1818:A1 2.17891e-05
19 *1892:B1 *1861:B 0.000222666
20 *1892:B1 *1864:B2 1.98839e-05
21 *1892:B1 *1866:B1 9.60875e-05
22 *1892:B1 *1892:A1 5.52302e-05
23 *1892:B1 *2052:A 8.19957e-05
24 *1892:B1 *234:16 4.13595e-05
25 *1892:B1 *540:97 0.000137983
26 *1892:B1 *540:110 0.000142856
27 *1892:B1 *563:8 0.000269428
28 *1919:B1 *1921:A 0
29 *1919:B1 *1956:A1 0.00019384
30 *1919:B1 *1965:B2 4.25619e-05
31 *1919:B1 *497:56 0.000170654
32 *1919:B1 *537:42 4.53031e-05
33 *1964:B1 *1921:A 0.000148189
34 *2007:B1 *2007:A2 8.27532e-05
35 *2007:B1 *2011:A1 1.98839e-05
36 *2007:B1 *199:41 0.000109588
37 *2007:B1 *326:56 0.000221634
38 *2007:B1 *359:14 2.40107e-05
39 *2007:B1 *397:20 0.000147217
40 *2007:B1 *535:22 3.481e-05
41 *2007:B1 *535:61 4.38128e-05
42 *2007:B1 *553:16 9.41642e-05
43 *190:8 *1826:C1 5.1588e-05
44 *190:8 *197:16 0.000152333
45 *190:8 *532:14 8.6943e-05
46 *190:10 *1818:B2 4.038e-06
47 *190:10 *1826:C1 0.000147204
48 *190:10 *532:14 8.97396e-05
49 *190:10 *532:16 4.46186e-06
50 *190:14 *1818:B2 1.19309e-05
51 *190:14 *1837:B 1.26512e-05
52 *190:14 *1837:C 0.000174812
53 *190:14 *2049:C1 0.000147841
54 *190:14 *197:40 2.09826e-05
55 *190:14 *440:28 0.00012384
56 *190:14 *532:16 0.00011914
57 *190:14 *532:18 6.44409e-05
58 *190:14 *532:24 0.000264827
59 *190:27 *1866:A1 7.57662e-05
60 *190:27 *1866:A2 2.02469e-05
61 *190:27 *205:47 3.92494e-05
62 *190:27 *490:27 0
63 *190:27 *520:18 0.000190349
64 *190:27 *526:77 0.000491193
65 *190:27 *545:33 0
66 *190:54 *1809:C 0.000137983
67 *190:54 *2046:A2 0.000139913
68 *190:54 *492:33 9.41642e-05
69 *190:54 *492:35 0.000137983
70 *190:61 *492:33 0.000207274
71 *1920:B1 *1964:B1 4.46186e-06
72 *188:10 *190:8 7.6644e-05
73 *188:12 *190:8 0.00030095
74 *188:12 *190:10 0.000124534
75 *188:16 *190:10 0.00019678
76 *188:22 *1818:B1 0.000139631
77 *188:22 *190:14 0
78 *188:63 *1818:B1 4.17433e-05
79 *188:63 *190:54 5.36881e-05
80 *188:71 *1964:B1 0.00025455
81 *188:71 *190:54 9.41642e-05
82 *188:71 *190:61 0.000724834
*RES
1 *1815:X *190:8 18.7821 
2 *190:8 *190:10 4.375 
3 *190:10 *190:14 16.4643 
4 *190:14 *1829:A 9.3 
5 *190:14 *190:27 17.0893 
6 *190:27 *1863:A_N 9.3 
7 *190:27 *1892:B1 16.8179 
8 *190:10 *190:41 4.5 
9 *190:41 *1818:B1 11.9071 
10 *190:41 *190:54 3.83929 
11 *190:54 *2046:B1 9.3 
12 *190:54 *190:61 7.10714 
13 *190:61 *1919:B1 22.9786 
14 *190:61 *1964:B1 22.8357 
15 *190:8 *2007:B1 24.3357 
*END

*D_NET *191 0.0136067
*CONN
*I *2015:A2 I *D sky130_fd_sc_hd__a21o_1
*I *1970:A2 I *D sky130_fd_sc_hd__a21o_1
*I *1956:B1 I *D sky130_fd_sc_hd__o21a_1
*I *1898:B I *D sky130_fd_sc_hd__nand2_1
*I *1838:B I *D sky130_fd_sc_hd__nand2_1
*I *1869:B1 I *D sky130_fd_sc_hd__o31a_1
*I *1846:B1 I *D sky130_fd_sc_hd__o21a_1
*I *1816:X O *D sky130_fd_sc_hd__or4b_4
*CAP
1 *2015:A2 0.000159216
2 *1970:A2 0
3 *1956:B1 0.000372651
4 *1898:B 2.68562e-05
5 *1838:B 5.44514e-05
6 *1869:B1 3.55893e-05
7 *1846:B1 8.87138e-05
8 *1816:X 0.000114038
9 *191:76 0.000473292
10 *191:72 0.00185939
11 *191:24 0.000256888
12 *191:22 0.00121914
13 *191:14 0.00149541
14 *191:8 0.00215002
15 *1838:B *493:34 0.000175526
16 *1838:B *544:34 8.89385e-05
17 *1846:B1 *493:34 0.000171368
18 *1846:B1 *536:70 3.18676e-05
19 *1846:B1 *544:34 9.1469e-05
20 *1869:B1 *542:109 7.32272e-05
21 *1869:B1 *543:108 0.000139907
22 *1898:B *1845:A 8.07951e-05
23 *1898:B *538:12 4.25523e-05
24 *1956:B1 *1970:A1 0.000166976
25 *1956:B1 *2008:A1 7.79781e-06
26 *1956:B1 *2009:B2 0.000158268
27 *1956:B1 *2118:A 0
28 *1956:B1 *336:18 9.90367e-05
29 *1956:B1 *537:12 0.000216692
30 *1956:B1 *537:42 7.46038e-05
31 *1956:B1 *553:68 1.28012e-05
32 *2015:A2 *2016:B 3.69047e-06
33 *2015:A2 *553:68 4.87953e-05
34 *191:8 *1816:A 6.28483e-05
35 *191:8 *1845:A 4.75715e-05
36 *191:8 *489:45 2.94103e-05
37 *191:8 *500:10 0
38 *191:14 *1810:B 4.35048e-05
39 *191:14 *1845:A 5.97719e-05
40 *191:14 *1899:B 1.98839e-05
41 *191:14 *199:18 0.000361362
42 *191:14 *489:45 9.97648e-05
43 *191:14 *518:82 2.31881e-05
44 *191:14 *524:78 0.000713269
45 *191:14 *529:63 0
46 *191:22 *1871:A 3.87759e-05
47 *191:22 *1872:A 5.67351e-05
48 *191:22 *1872:B 2.89016e-05
49 *191:22 *1873:A 5.71472e-05
50 *191:22 *1899:B 7.32272e-05
51 *191:22 *1900:B 2.89016e-05
52 *191:22 *247:14 5.52302e-05
53 *191:22 *518:67 3.67257e-05
54 *191:22 *518:74 6.62783e-05
55 *191:22 *518:82 3.90148e-05
56 *191:24 *493:34 0.000437934
57 *191:24 *544:34 0.000231012
58 *191:72 *1812:B1 1.22546e-05
59 *191:72 *1813:B 4.13496e-05
60 *191:72 *1831:A_N 5.03772e-05
61 *191:72 *2016:B 1.92789e-05
62 *191:72 *197:16 0.000185643
63 *191:72 *500:25 3.80079e-05
64 *191:72 *500:35 0.00049612
65 *191:76 *2118:A 0
66 *191:76 *352:10 6.74911e-05
67 *191:76 *553:68 3.78846e-05
68 *1821:C *191:72 5.78608e-05
*RES
1 *1816:X *191:8 16.3536 
2 *191:8 *191:14 16.6071 
3 *191:14 *191:22 19.5536 
4 *191:22 *191:24 5.58929 
5 *191:24 *1846:B1 16.5857 
6 *191:24 *1869:B1 15.1571 
7 *191:22 *1838:B 16.05 
8 *191:14 *1898:B 19.3357 
9 *191:8 *191:72 28.0714 
10 *191:72 *191:76 7.05357 
11 *191:76 *1956:B1 31.6393 
12 *191:76 *1970:A2 13.8 
13 *191:72 *2015:A2 11.9071 
*END

*D_NET *192 0.0190764
*CONN
*I *2018:A I *D sky130_fd_sc_hd__nor2_1
*I *1975:B1 I *D sky130_fd_sc_hd__a31o_1
*I *1963:A_N I *D sky130_fd_sc_hd__and3b_1
*I *1818:B2 I *D sky130_fd_sc_hd__a22oi_1
*I *1876:A I *D sky130_fd_sc_hd__or3b_1
*I *1925:A1 I *D sky130_fd_sc_hd__o31ai_1
*I *1852:B1 I *D sky130_fd_sc_hd__a31oi_1
*I *1843:B1 I *D sky130_fd_sc_hd__a21oi_1
*I *1817:X O *D sky130_fd_sc_hd__or4b_4
*CAP
1 *2018:A 0.000203446
2 *1975:B1 9.17507e-05
3 *1963:A_N 0.000254541
4 *1818:B2 0.000746942
5 *1876:A 6.90387e-05
6 *1925:A1 0.000375694
7 *1852:B1 9.66729e-05
8 *1843:B1 0.000252751
9 *1817:X 0
10 *192:99 0.000575739
11 *192:97 0.00186506
12 *192:30 0.000585848
13 *192:28 0.000862573
14 *192:24 0.00189163
15 *192:6 0.00258564
16 *192:4 0.00169872
17 *1818:B2 *1819:A1 9.88136e-05
18 *1818:B2 *1819:B2 0.000148189
19 *1818:B2 *197:16 0
20 *1818:B2 *489:23 0
21 *1818:B2 *489:35 1.31235e-05
22 *1818:B2 *528:49 6.8646e-06
23 *1818:B2 *532:14 0
24 *1843:B1 *1840:A 5.71472e-05
25 *1843:B1 *1840:B 0.000356022
26 *1843:B1 *1848:B 0
27 *1843:B1 *214:12 9.22103e-06
28 *1852:B1 *1841:A 8.49352e-05
29 *1852:B1 *1851:A2 0
30 *1852:B1 *1852:A3 0
31 *1852:B1 *214:12 6.09572e-05
32 *1876:A *1876:B 3.92757e-05
33 *1876:A *250:10 4.25809e-05
34 *1876:A *274:20 1.96658e-05
35 *1925:A1 *1825:A1 0.000135028
36 *1925:A1 *1873:A 1.02504e-05
37 *1925:A1 *2117:A 0
38 *1925:A1 *221:12 0.000151748
39 *1925:A1 *243:14 0.000495353
40 *1925:A1 *248:12 7.83587e-05
41 *1925:A1 *274:20 0
42 *1963:A_N *1961:A 0.000168224
43 *1963:A_N *1962:A 4.38128e-05
44 *1963:A_N *1962:B 0.000144038
45 *1963:A_N *1963:B 2.39779e-05
46 *1963:A_N *1974:A2 2.94103e-05
47 *1963:A_N *2050:C1 0
48 *1963:A_N *336:18 5.52302e-05
49 *1963:A_N *341:19 0
50 *1963:A_N *343:23 8.24047e-05
51 *1975:B1 *1975:A2 5.33433e-05
52 *1975:B1 *343:23 5.03772e-05
53 *2018:A *2013:A1 4.88637e-05
54 *2018:A *2013:B1 0.000225616
55 *2018:A *2017:A 0.000140933
56 *2018:A *2050:C1 4.87953e-05
57 *2018:A *553:68 2.89114e-05
58 *192:6 *2068:A 0.000354105
59 *192:6 *532:14 2.28598e-05
60 *192:24 *1812:D1 0.000120506
61 *192:24 *1824:B_N 0.000216581
62 *192:24 *1824:C 4.35306e-05
63 *192:24 *1827:C 2.04825e-05
64 *192:24 *2068:A 9.90367e-05
65 *192:24 *2070:A 7.64611e-05
66 *192:24 *2088:A 8.6229e-06
67 *192:24 *199:18 5.20359e-06
68 *192:24 *315:23 5.74499e-06
69 *192:24 *489:41 8.27184e-06
70 *192:24 *491:26 1.04707e-05
71 *192:24 *500:46 0.00014559
72 *192:24 *500:48 2.59355e-05
73 *192:24 *524:78 0.000447615
74 *192:24 *530:43 7.21996e-05
75 *192:24 *530:66 0
76 *192:28 *1849:A 3.53079e-05
77 *192:28 *1874:B 5.52238e-05
78 *192:28 *524:78 0.000395873
79 *192:30 *1848:B 3.14193e-05
80 *192:30 *1849:A 2.89016e-05
81 *192:30 *214:12 9.90431e-05
82 *192:97 *1971:A 2.89016e-05
83 *192:97 *1971:B 0.000141337
84 *192:97 *1973:A 0.000101545
85 *192:97 *2013:A2 9.10431e-06
86 *192:97 *2016:A 0.000104339
87 *192:97 *2017:B 4.32253e-05
88 *192:97 *353:6 0.000158761
89 *192:97 *355:8 0
90 *192:97 *532:6 9.93135e-05
91 *192:97 *532:14 0.000125057
92 *192:99 *1974:A2 9.57064e-05
93 *192:99 *355:8 0
94 *1817:D_N *192:24 5.97398e-05
95 *1843:A1 *1843:B1 0.0001399
96 *188:10 *1818:B2 3.34687e-05
97 *188:12 *1818:B2 0.000214332
98 *188:16 *1818:B2 2.49484e-05
99 *188:22 *1818:B2 5.58941e-05
100 *189:10 *192:24 0.000140933
101 *189:14 *192:24 4.73931e-05
102 *190:10 *1818:B2 4.038e-06
103 *190:14 *1818:B2 1.19309e-05
*RES
1 *1817:X *192:4 9.3 
2 *192:4 *192:6 3.82143 
3 *192:6 *192:24 35.2127 
4 *192:24 *192:28 5.07143 
5 *192:28 *192:30 4.23214 
6 *192:30 *1843:B1 14.9786 
7 *192:30 *1852:B1 20.55 
8 *192:28 *1925:A1 36.4964 
9 *192:24 *1876:A 19.9429 
10 *192:6 *1818:B2 32.6929 
11 *192:4 *192:97 24.6429 
12 *192:97 *192:99 4.67857 
13 *192:99 *1963:A_N 20.0321 
14 *192:99 *1975:B1 15.5679 
15 *192:97 *2018:A 18.8714 
*END

*D_NET *193 0.000516362
*CONN
*I *1819:B2 I *D sky130_fd_sc_hd__o22a_1
*I *1818:Y O *D sky130_fd_sc_hd__a22oi_1
*CAP
1 *1819:B2 9.55362e-05
2 *1818:Y 9.55362e-05
3 *1818:B2 *1819:B2 0.000148189
4 *188:16 *1819:B2 0.000148189
5 *188:22 *1819:B2 2.89114e-05
*RES
1 *1818:Y *1819:B2 30.0821 
*END

*D_NET *194 0.00180499
*CONN
*I *1826:C1 I *D sky130_fd_sc_hd__a311o_1
*I *1819:X O *D sky130_fd_sc_hd__o22a_1
*CAP
1 *1826:C1 0.00022165
2 *1819:X 0.00022165
3 *1826:C1 *1826:A3 5.71472e-05
4 *1826:C1 *199:18 0.000169441
5 *1826:C1 *199:41 0.000396886
6 *1826:C1 *336:12 0.000349878
7 *1826:C1 *532:14 0.000189542
8 *190:8 *1826:C1 5.1588e-05
9 *190:10 *1826:C1 0.000147204
*RES
1 *1819:X *1826:C1 36.85 
*END

*D_NET *195 0.00109373
*CONN
*I *1826:A3 I *D sky130_fd_sc_hd__a311o_1
*I *1820:Y O *D sky130_fd_sc_hd__nor3_1
*CAP
1 *1826:A3 0.000338294
2 *1820:Y 0.000338294
3 *1826:A3 *199:18 3.98662e-05
4 *1826:A3 *336:12 0.000271345
5 *1826:A3 *489:35 0
6 *1812:A1 *1826:A3 4.87854e-05
7 *1812:A2 *1826:A3 0
8 *1826:C1 *1826:A3 5.71472e-05
*RES
1 *1820:Y *1826:A3 34.6893 
*END

*D_NET *196 0.0149114
*CONN
*I *1823:A I *D sky130_fd_sc_hd__or2_1
*I *2050:A1 I *D sky130_fd_sc_hd__a311o_1
*I *2012:A1 I *D sky130_fd_sc_hd__a31o_1
*I *1954:B1 I *D sky130_fd_sc_hd__o21a_1
*I *1923:A1 I *D sky130_fd_sc_hd__a311o_1
*I *1891:B1 I *D sky130_fd_sc_hd__o21a_1
*I *1836:A1 I *D sky130_fd_sc_hd__a32o_1
*I *1866:B2 I *D sky130_fd_sc_hd__a221o_1
*I *1821:Y O *D sky130_fd_sc_hd__nor3_4
*CAP
1 *1823:A 0.000133288
2 *2050:A1 0.000175205
3 *2012:A1 2.88188e-05
4 *1954:B1 4.26984e-05
5 *1923:A1 0
6 *1891:B1 0.000362929
7 *1836:A1 0.000264056
8 *1866:B2 3.41557e-05
9 *1821:Y 0.000467378
10 *196:93 0.000750924
11 *196:74 0.00105946
12 *196:63 0.000564357
13 *196:46 0.00111347
14 *196:14 0.000403701
15 *196:12 0.00148602
16 *196:8 0.00132516
17 *1823:A *199:51 2.51343e-06
18 *1823:A *199:89 1.00073e-05
19 *1823:A *336:18 9.71197e-05
20 *1836:A1 *1836:B1 4.43126e-05
21 *1836:A1 *1896:C1 0.000846629
22 *1836:A1 *205:62 0.000562943
23 *1836:A1 *540:97 9.62737e-05
24 *1866:B2 *1866:A1 1.8038e-05
25 *1866:B2 *1866:B1 3.03503e-05
26 *1866:B2 *490:27 4.00349e-05
27 *1891:B1 *1893:B2 0
28 *1891:B1 *1895:A1 0
29 *1891:B1 *1895:B2 0.00012401
30 *1891:B1 *1923:A2 7.83587e-05
31 *1891:B1 *234:16 5.71472e-05
32 *1891:B1 *534:147 0
33 *1891:B1 *537:69 0
34 *1891:B1 *540:110 5.52238e-05
35 *1891:B1 *566:35 0
36 *2012:A1 *2045:A 0.00010946
37 *2012:A1 *2045:B 5.80489e-05
38 *2050:A1 *2050:A3 0.000154736
39 *2050:A1 *397:20 0.000150625
40 *2050:A1 *438:16 5.33005e-05
41 *196:8 *1815:B 6.95299e-05
42 *196:8 *1821:B 3.40128e-05
43 *196:8 *2010:A2 2.1527e-05
44 *196:8 *2011:C1 0.000148429
45 *196:8 *205:26 7.71511e-05
46 *196:8 *326:56 0
47 *196:8 *326:68 0.000120506
48 *196:8 *336:12 4.74098e-05
49 *196:8 *492:14 0
50 *196:8 *511:12 2.00751e-05
51 *196:12 *199:45 2.37957e-05
52 *196:12 *199:95 0
53 *196:12 *205:26 1.69115e-05
54 *196:12 *205:28 3.70415e-05
55 *196:12 *205:47 0.000135116
56 *196:12 *326:68 0.000623046
57 *196:12 *326:78 0.000222397
58 *196:12 *336:12 1.36251e-05
59 *196:12 *490:27 0
60 *196:12 *532:14 0
61 *196:14 *1866:A1 1.437e-05
62 *196:14 *205:47 0
63 *196:14 *490:27 0.000240938
64 *196:14 *526:77 8.4789e-05
65 *196:46 *1968:B1 0.000153138
66 *196:46 *490:27 6.59118e-05
67 *196:46 *524:52 0.000435845
68 *196:63 *1968:B1 2.61099e-05
69 *196:74 *1968:B1 0.000293114
70 *196:74 *297:8 0
71 *196:74 *345:10 0.000365682
72 *196:74 *534:147 0
73 *196:93 *2045:A 6.01685e-05
74 *196:93 *2045:B 0.000152209
75 *196:93 *345:10 0.000368104
76 *196:93 *534:147 0
77 *1893:B1 *1891:B1 1.65558e-05
78 *2047:B1 *196:12 0.000188967
79 *188:28 *1836:A1 5.7836e-06
80 *188:28 *1866:B2 2.84269e-05
*RES
1 *1821:Y *196:8 23.6393 
2 *196:8 *196:12 16.3125 
3 *196:12 *196:14 3.16071 
4 *196:14 *1866:B2 14.6661 
5 *196:14 *1836:A1 22.5446 
6 *196:12 *196:46 13.7232 
7 *196:46 *1891:B1 25.3357 
8 *196:46 *196:63 1.375 
9 *196:63 *1923:A1 9.3 
10 *196:63 *196:74 14.8393 
11 *196:74 *1954:B1 14.3357 
12 *196:74 *196:93 15.9107 
13 *196:93 *2012:A1 10.675 
14 *196:93 *2050:A1 22.4607 
15 *196:8 *1823:A 15.5857 
*END

*D_NET *197 0.0135234
*CONN
*I *2009:A3 I *D sky130_fd_sc_hd__a32o_1
*I *1823:B I *D sky130_fd_sc_hd__or2_1
*I *1966:A3 I *D sky130_fd_sc_hd__a32o_1
*I *2048:A3 I *D sky130_fd_sc_hd__a32o_1
*I *1922:A3 I *D sky130_fd_sc_hd__a32o_1
*I *1894:A3 I *D sky130_fd_sc_hd__a32o_1
*I *1865:A3 I *D sky130_fd_sc_hd__a32o_1
*I *1835:B2 I *D sky130_fd_sc_hd__a22o_1
*I *1822:X O *D sky130_fd_sc_hd__and4b_2
*CAP
1 *2009:A3 7.76266e-05
2 *1823:B 6.69345e-05
3 *1966:A3 0
4 *2048:A3 0
5 *1922:A3 0
6 *1894:A3 1.06454e-05
7 *1865:A3 0.000145496
8 *1835:B2 1.89143e-05
9 *1822:X 0.000374633
10 *197:67 0.000248831
11 *197:63 0.000980499
12 *197:46 0.00119022
13 *197:40 0.000576285
14 *197:28 0.000559251
15 *197:22 0.000517921
16 *197:16 0.000636783
17 *1823:B *199:89 0.000112995
18 *1823:B *336:18 0.000221634
19 *1835:B2 *199:51 4.28249e-05
20 *1835:B2 *492:67 4.28249e-05
21 *1865:A3 *1865:A2 5.9122e-05
22 *1865:A3 *1865:B1 0.000119475
23 *1865:A3 *1865:B2 5.52302e-05
24 *1865:A3 *1894:A2 5.52302e-05
25 *1865:A3 *524:113 8.41288e-05
26 *1894:A3 *1865:A2 2.89114e-05
27 *1894:A3 *1894:A2 4.38128e-05
28 *2009:A3 *2009:B1 0.000184512
29 *2009:A3 *2010:A1 5.52238e-05
30 *2009:A3 *2010:B1 7.03393e-05
31 *2009:A3 *2010:C1 0.00010096
32 *197:16 *2009:B1 7.6696e-05
33 *197:16 *2010:A1 1.33343e-05
34 *197:16 *2010:A2 0.000271352
35 *197:16 *205:14 0.00035013
36 *197:16 *326:56 0
37 *197:16 *532:14 0.000412333
38 *197:22 *2009:B1 1.04232e-05
39 *197:22 *205:26 8.03434e-05
40 *197:22 *440:28 0.000157115
41 *197:22 *492:20 0.000163649
42 *197:28 *2047:A1 0.000125717
43 *197:28 *199:89 0.000513633
44 *197:28 *199:95 2.24656e-05
45 *197:28 *205:26 1.83841e-05
46 *197:28 *351:22 9.54798e-06
47 *197:28 *492:20 0.000255611
48 *197:28 *563:69 3.57328e-05
49 *197:40 *199:95 1.90936e-05
50 *197:40 *351:22 2.06178e-05
51 *197:40 *518:105 0.000523897
52 *197:40 *532:18 1.94879e-05
53 *197:46 *1966:B2 0.000560963
54 *197:46 *2048:B1 0.000294079
55 *197:46 *199:51 0.000333556
56 *197:46 *211:16 8.24047e-05
57 *197:46 *492:67 0.000178339
58 *197:63 *1807:C 0.000136758
59 *197:63 *1865:B1 0.000146474
60 *197:63 *1899:A 0
61 *197:63 *1922:A2 4.19535e-05
62 *197:63 *326:86 0.00120147
63 *197:63 *519:105 1.70452e-05
64 *197:63 *540:97 9.71378e-06
65 *197:67 *1865:B1 4.11173e-05
66 *197:67 *1922:A2 3.27359e-05
67 *197:67 *518:54 6.68993e-05
68 *197:67 *519:105 4.84049e-05
69 *1818:B2 *197:16 0
70 *1821:C *197:16 0.000100625
71 *1956:A2 *197:28 3.40907e-05
72 *2008:B1 *2009:A3 8.43535e-06
73 *2008:B1 *197:16 4.85063e-05
74 *190:8 *197:16 0.000152333
75 *190:14 *197:40 2.09826e-05
76 *191:72 *197:16 0.000185643
*RES
1 *1822:X *197:16 30.1214 
2 *197:16 *197:22 9.30357 
3 *197:22 *197:28 8.375 
4 *197:28 *197:40 12.7133 
5 *197:40 *197:46 14.4911 
6 *197:46 *1835:B2 14.3804 
7 *197:46 *197:63 10.0418 
8 *197:63 *197:67 6.75 
9 *197:67 *1865:A3 13.2821 
10 *197:67 *1894:A3 9.83571 
11 *197:63 *1922:A3 13.8 
12 *197:40 *2048:A3 9.3 
13 *197:28 *1966:A3 13.8 
14 *197:22 *1823:B 15.9786 
15 *197:16 *2009:A3 12.7286 
*END

*D_NET *198 0.00128267
*CONN
*I *1825:A3 I *D sky130_fd_sc_hd__a32o_1
*I *1823:X O *D sky130_fd_sc_hd__or2_1
*CAP
1 *1825:A3 0.000472335
2 *1823:X 0.000472335
3 *1825:A3 *1819:A2 9.90431e-05
4 *1825:A3 *1825:A1 9.90431e-05
5 *1825:A3 *1825:A2 4.99374e-05
6 *1825:A3 *1825:B1 3.36764e-05
7 *1825:A3 *199:51 5.62962e-05
8 *1825:A3 *528:49 0
9 *183:12 *1825:A3 0
*RES
1 *1823:X *1825:A3 33.7964 
*END

*D_NET *199 0.018881
*CONN
*I *2010:A2 I *D sky130_fd_sc_hd__a211o_1
*I *1966:B1 I *D sky130_fd_sc_hd__a32o_1
*I *1921:B I *D sky130_fd_sc_hd__and2_1
*I *1895:A2 I *D sky130_fd_sc_hd__a221o_1
*I *1835:A2 I *D sky130_fd_sc_hd__a22o_1
*I *1865:B1 I *D sky130_fd_sc_hd__a32o_1
*I *1825:B1 I *D sky130_fd_sc_hd__a32o_1
*I *1824:X O *D sky130_fd_sc_hd__and4bb_2
*CAP
1 *2010:A2 0.000144749
2 *1966:B1 6.05126e-05
3 *1921:B 8.69801e-05
4 *1895:A2 0.000310111
5 *1835:A2 8.7244e-05
6 *1865:B1 0.00074138
7 *1825:B1 9.84775e-05
8 *1824:X 0.000890275
9 *199:95 0.000852743
10 *199:89 0.0008374
11 *199:51 0.00168078
12 *199:45 0.00129855
13 *199:41 0.000543504
14 *199:18 0.00126235
15 *1825:B1 *1825:A2 2.57162e-05
16 *1825:B1 *528:49 4.46186e-06
17 *1835:A2 *1968:B1 0.000182309
18 *1835:A2 *524:52 5.33005e-05
19 *1835:A2 *524:56 0.000136602
20 *1865:B1 *1865:A2 0.000117552
21 *1865:B1 *1894:A2 0.000558889
22 *1865:B1 *326:86 0.000683358
23 *1865:B1 *492:67 4.00485e-05
24 *1865:B1 *519:105 2.07158e-05
25 *1865:B1 *538:24 8.64454e-05
26 *1865:B1 *540:97 0.000366548
27 *1895:A2 *1892:A1 9.71118e-06
28 *1895:A2 *1893:A1 1.46576e-05
29 *1895:A2 *1895:A1 0.000597623
30 *1895:A2 *520:53 4.71964e-05
31 *1895:A2 *537:69 0
32 *1921:B *1920:A2 0.000269422
33 *1921:B *1921:A 2.28499e-05
34 *1921:B *1923:A3 5.33005e-05
35 *1966:B1 *1966:A1 2.28499e-05
36 *1966:B1 *1966:A2 1.24368e-05
37 *1966:B1 *1967:A2 6.0238e-05
38 *2010:A2 *2011:C1 4.82391e-05
39 *2010:A2 *326:56 0.000207403
40 *2010:A2 *336:12 5.26224e-05
41 *199:18 *1824:C 6.05161e-06
42 *199:18 *1825:A1 0.000183713
43 *199:18 *1827:C 0
44 *199:18 *2088:A 0
45 *199:18 *336:12 5.45017e-05
46 *199:18 *489:45 9.25014e-06
47 *199:18 *524:78 3.14048e-05
48 *199:18 *529:63 8.81524e-05
49 *199:41 *326:56 5.33005e-05
50 *199:41 *336:12 5.42547e-05
51 *199:45 *326:56 2.95642e-05
52 *199:45 *336:12 0.000141962
53 *199:45 *532:14 8.99615e-05
54 *199:51 *1807:C 0
55 *199:51 *1809:D 0
56 *199:51 *1819:A2 2.77258e-05
57 *199:51 *1825:B2 8.46829e-05
58 *199:51 *1966:B2 0
59 *199:51 *211:16 5.99631e-05
60 *199:51 *351:22 7.6644e-05
61 *199:51 *492:67 1.18064e-05
62 *199:51 *518:105 0
63 *199:51 *526:92 0
64 *199:51 *526:94 0.000228558
65 *199:51 *529:51 0
66 *199:51 *554:88 0.000732668
67 *199:89 *2047:B2 0.000218012
68 *199:89 *205:26 4.78056e-05
69 *199:89 *326:68 4.13824e-05
70 *199:89 *336:18 1.74352e-05
71 *199:89 *554:88 0.000295925
72 *199:95 *1920:A2 8.57023e-05
73 *199:95 *2052:A 0.000227539
74 *199:95 *351:22 4.13059e-05
75 *199:95 *490:27 0.00012401
76 *1812:A1 *199:18 0.0001399
77 *1823:A *199:51 2.51343e-06
78 *1823:A *199:89 1.00073e-05
79 *1823:B *199:89 0.000112995
80 *1825:A3 *1825:B1 3.36764e-05
81 *1825:A3 *199:51 5.62962e-05
82 *1826:A3 *199:18 3.98662e-05
83 *1826:C1 *199:18 0.000169441
84 *1826:C1 *199:41 0.000396886
85 *1835:B2 *199:51 4.28249e-05
86 *1865:A3 *1865:B1 0.000119475
87 *1956:A2 *199:95 8.85631e-05
88 *2007:B1 *199:41 0.000109588
89 *2008:B1 *2010:A2 0.000146533
90 *183:12 *199:51 0
91 *191:14 *199:18 0.000361362
92 *192:24 *199:18 5.20359e-06
93 *196:8 *2010:A2 2.1527e-05
94 *196:12 *199:45 2.37957e-05
95 *196:12 *199:95 0
96 *197:16 *2010:A2 0.000271352
97 *197:28 *199:89 0.000513633
98 *197:28 *199:95 2.24656e-05
99 *197:40 *199:95 1.90936e-05
100 *197:46 *199:51 0.000333556
101 *197:63 *1865:B1 0.000146474
102 *197:67 *1865:B1 4.11173e-05
*RES
1 *1824:X *199:18 33.6393 
2 *199:18 *1825:B1 19.8804 
3 *199:18 *199:41 10.5357 
4 *199:41 *199:45 7.35714 
5 *199:45 *199:51 23.875 
6 *199:51 *1865:B1 26.181 
7 *199:51 *1835:A2 16.5321 
8 *199:45 *199:89 14.3036 
9 *199:89 *199:95 13.3393 
10 *199:95 *1895:A2 26.1616 
11 *199:95 *1921:B 11.8893 
12 *199:89 *1966:B1 15.2911 
13 *199:41 *2010:A2 19.2464 
*END

*D_NET *200 0.000569371
*CONN
*I *1826:B1 I *D sky130_fd_sc_hd__a311o_1
*I *1825:X O *D sky130_fd_sc_hd__a32o_1
*CAP
1 *1826:B1 0.000183568
2 *1825:X 0.000183568
3 *1826:B1 *1825:A1 0.000144773
4 *1812:A2 *1826:B1 2.83284e-06
5 *183:12 *1826:B1 4.84319e-05
6 *186:8 *1826:B1 6.19639e-06
*RES
1 *1825:X *1826:B1 30.6 
*END

*D_NET *201 0.00249789
*CONN
*I *1827:C I *D sky130_fd_sc_hd__or3_4
*I *1826:X O *D sky130_fd_sc_hd__a311o_1
*CAP
1 *1827:C 0.000540064
2 *1826:X 0.000540064
3 *1827:C *1816:A 5.52302e-05
4 *1827:C *1824:B_N 9.59532e-06
5 *1827:C *1824:C 0.000266743
6 *1827:C *2088:A 0.000200221
7 *1827:C *2113:A 5.52302e-05
8 *1827:C *2114:A 9.41642e-05
9 *1827:C *336:12 9.90367e-05
10 *1827:C *489:45 8.41284e-06
11 *1827:C *491:26 8.96776e-05
12 *1827:C *511:66 2.59355e-05
13 *1827:C *511:70 0.00011765
14 op_out[1] *1827:C 1.3409e-05
15 *1827:A *1827:C 0.000361971
16 *192:24 *1827:C 2.04825e-05
17 *199:18 *1827:C 0
*RES
1 *1826:X *1827:C 41.2964 
*END

*D_NET *202 0.0051178
*CONN
*I *1835:B1 I *D sky130_fd_sc_hd__a22o_1
*I *1829:B I *D sky130_fd_sc_hd__nor2_1
*I *1833:C I *D sky130_fd_sc_hd__and3_1
*I *1855:C I *D sky130_fd_sc_hd__and3_1
*I *1853:B1 I *D sky130_fd_sc_hd__a21o_1
*I *1828:X O *D sky130_fd_sc_hd__and2_1
*CAP
1 *1835:B1 0.000202887
2 *1829:B 0
3 *1833:C 4.12293e-05
4 *1855:C 0.000203578
5 *1853:B1 0.000111554
6 *1828:X 0
7 *202:43 0.000505886
8 *202:32 0.00039265
9 *202:21 0.0004281
10 *202:4 0.000287654
11 *1833:C *207:6 8.25843e-06
12 *1833:C *538:24 0.000121712
13 *1833:C *547:82 8.08483e-05
14 *1835:B1 *1837:B 4.43215e-05
15 *1835:B1 *1837:C 2.06112e-05
16 *1835:B1 *492:67 0.000138164
17 *1835:B1 *540:97 0.000392471
18 *1835:B1 *550:65 0.000137834
19 *1853:B1 *1853:A1 9.90431e-05
20 *1853:B1 *1853:A2 9.71197e-05
21 *1853:B1 *523:39 2.58821e-05
22 *1853:B1 *547:88 1.24368e-05
23 *1855:C *542:141 6.47313e-05
24 *202:21 *1832:A2 0.000116825
25 *202:21 *1858:A 0.00015234
26 *202:21 *547:88 0.000408577
27 *202:32 *1832:A2 4.78056e-05
28 *202:32 *547:88 8.98585e-05
29 *202:43 *1830:A2 0.000507719
30 *202:43 *1832:A2 0.000137436
31 *202:43 *1834:A 4.27772e-05
32 *202:43 *1837:C 0.00014129
33 *202:43 *547:88 2.24646e-05
34 *188:22 *1835:B1 4.22135e-06
35 *188:22 *202:43 3.47641e-06
36 *188:28 *202:43 2.60416e-05
*RES
1 *1828:X *202:4 9.3 
2 *202:4 *1853:B1 11.925 
3 *202:4 *202:21 10.0179 
4 *202:21 *1855:C 16.2732 
5 *202:21 *202:32 1.33929 
6 *202:32 *1833:C 15.0143 
7 *202:32 *202:43 8.01786 
8 *202:43 *1829:B 13.8 
9 *202:43 *1835:B1 23.315 
*END

*D_NET *203 0.000525808
*CONN
*I *1830:B2 I *D sky130_fd_sc_hd__o22a_1
*I *1829:Y O *D sky130_fd_sc_hd__nor2_1
*CAP
1 *1830:B2 7.71377e-05
2 *1829:Y 7.71377e-05
3 *1830:B2 *1830:A1 3.08382e-06
4 *1830:B2 *520:18 0.000224583
5 *1830:B2 *526:77 8.86413e-05
6 *1830:B1 *1830:B2 5.52238e-05
*RES
1 *1829:Y *1830:B2 21.2071 
*END

*D_NET *204 0.000285966
*CONN
*I *1837:A I *D sky130_fd_sc_hd__or3_1
*I *1830:X O *D sky130_fd_sc_hd__o22a_1
*CAP
1 *1837:A 4.68511e-05
2 *1830:X 4.68511e-05
3 *1837:A *1837:C 6.65398e-05
4 *188:22 *1837:A 0.000125724
*RES
1 *1830:X *1837:A 29.2429 
*END

*D_NET *205 0.0178987
*CONN
*I *2009:B1 I *D sky130_fd_sc_hd__a32o_1
*I *2049:A2 I *D sky130_fd_sc_hd__a211o_1
*I *1836:B1 I *D sky130_fd_sc_hd__a32o_1
*I *1922:B1 I *D sky130_fd_sc_hd__a32o_1
*I *1894:B1 I *D sky130_fd_sc_hd__a32o_1
*I *1866:A2 I *D sky130_fd_sc_hd__a221o_1
*I *1967:A2 I *D sky130_fd_sc_hd__a221o_1
*I *1831:X O *D sky130_fd_sc_hd__and4bb_2
*CAP
1 *2009:B1 0.000398286
2 *2049:A2 0
3 *1836:B1 5.02572e-05
4 *1922:B1 0.000274358
5 *1894:B1 0.000108278
6 *1866:A2 9.65439e-05
7 *1967:A2 0.000449183
8 *1831:X 0.0010591
9 *205:64 0.000874096
10 *205:62 0.000745943
11 *205:47 0.000722505
12 *205:28 0.000956864
13 *205:26 0.000601813
14 *205:14 0.00197325
15 *1836:B1 *1836:A2 2.57162e-05
16 *1836:B1 *528:34 1.90936e-05
17 *1836:B1 *545:29 1.1671e-05
18 *1836:B1 *550:65 8.89913e-05
19 *1866:A2 *1867:C1 3.18676e-05
20 *1866:A2 *532:24 9.14714e-06
21 *1866:A2 *545:33 5.20232e-05
22 *1894:B1 *1865:A2 1.66856e-05
23 *1894:B1 *1894:A2 6.74684e-05
24 *1894:B1 *2081:A 0.000120909
25 *1894:B1 *518:54 1.87573e-05
26 *1894:B1 *520:18 3.72174e-05
27 *1894:B1 *520:29 5.80706e-06
28 *1894:B1 *524:113 1.66856e-05
29 *1894:B1 *534:118 0.000130525
30 *1922:B1 *1596:C 0.000166838
31 *1922:B1 *1596:D 2.59355e-05
32 *1922:B1 *1872:A 1.38167e-05
33 *1922:B1 *2081:A 1.48981e-05
34 *1922:B1 *534:118 0.000266319
35 *1922:B1 *542:120 1.38167e-05
36 *1922:B1 *542:141 0
37 *1922:B1 *545:29 6.14278e-05
38 *1967:A2 *1919:A2 9.71197e-05
39 *1967:A2 *1920:A1 2.51721e-05
40 *1967:A2 *1920:B2 0.00012095
41 *1967:A2 *1966:A2 0.000104933
42 *1967:A2 *1966:B2 0.000136951
43 *1967:A2 *1969:A 9.41642e-05
44 *1967:A2 *1969:B 0.000274774
45 *1967:A2 *326:68 9.60939e-05
46 *1967:A2 *351:22 1.98839e-05
47 *1967:A2 *518:109 0.000100625
48 *1967:A2 *518:124 1.96517e-05
49 *2009:B1 *2010:B1 5.85189e-05
50 *2009:B1 *535:69 9.7591e-05
51 *205:14 *1586:A 2.16719e-05
52 *205:14 *1831:B_N 0.000139907
53 *205:14 *2011:C1 9.60939e-05
54 *205:14 *2114:A 0.000139913
55 *205:14 *491:26 2.26327e-05
56 *205:14 *500:25 0.000222666
57 *205:14 *500:35 1.5424e-05
58 *205:26 *2047:B2 5.52302e-05
59 *205:26 *326:68 0.000300529
60 *205:26 *440:28 0.000155461
61 *205:26 *492:50 0.000115474
62 *205:26 *532:14 4.25523e-05
63 *205:26 *532:16 2.16719e-05
64 *205:28 *326:68 1.03483e-05
65 *205:28 *492:50 0.000167878
66 *205:47 *326:68 4.24752e-05
67 *205:47 *326:78 0.000222397
68 *205:47 *492:50 3.074e-05
69 *205:47 *492:56 7.30047e-05
70 *205:47 *532:24 0.000159824
71 *205:62 *1896:C1 9.4688e-06
72 *205:62 *540:97 0.000324799
73 *205:64 *1894:A2 0.000371269
74 *205:64 *1896:C1 0.000740892
75 *205:64 *2081:A 0.000137821
76 *205:64 *540:97 0.000465128
77 *1812:A1 *205:14 0.000407584
78 *1812:A2 *205:14 0.000399668
79 *1827:A *205:14 0.000139907
80 *1836:A1 *1836:B1 4.43126e-05
81 *1836:A1 *205:62 0.000562943
82 *1966:B1 *1967:A2 6.0238e-05
83 *2008:B1 *2009:B1 0
84 *2008:B1 *205:14 1.82657e-05
85 *2009:A3 *2009:B1 0.000184512
86 *2047:B1 *205:26 9.6732e-05
87 *2047:B1 *205:28 5.80706e-06
88 *188:28 *1836:B1 0
89 *188:28 *1866:A2 0.000120501
90 *188:63 *205:26 5.03772e-05
91 *188:71 *205:26 2.05612e-05
92 *190:27 *1866:A2 2.02469e-05
93 *190:27 *205:47 3.92494e-05
94 *196:8 *205:26 7.71511e-05
95 *196:12 *205:26 1.69115e-05
96 *196:12 *205:28 3.70415e-05
97 *196:12 *205:47 0.000135116
98 *196:14 *205:47 0
99 *197:16 *2009:B1 7.6696e-05
100 *197:16 *205:14 0.00035013
101 *197:22 *2009:B1 1.04232e-05
102 *197:22 *205:26 8.03434e-05
103 *197:28 *205:26 1.83841e-05
104 *199:89 *205:26 4.78056e-05
*RES
1 *1831:X *205:14 40.05 
2 *205:14 *205:26 25.0357 
3 *205:26 *205:28 2.25 
4 *205:28 *1967:A2 24.5589 
5 *205:28 *205:47 9.91964 
6 *205:47 *1866:A2 16.1393 
7 *205:47 *205:62 4.39387 
8 *205:62 *205:64 2.4252 
9 *205:64 *1894:B1 19.5261 
10 *205:64 *1922:B1 23.5493 
11 *205:62 *1836:B1 18.6386 
12 *205:26 *2049:A2 13.8 
13 *205:14 *2009:B1 16.4339 
*END

*D_NET *206 0.00139441
*CONN
*I *1836:A2 I *D sky130_fd_sc_hd__a32o_1
*I *1832:X O *D sky130_fd_sc_hd__a22o_1
*CAP
1 *1836:A2 0.000258869
2 *1832:X 0.000258869
3 *1836:A2 *1867:C1 0.000183243
4 *1836:A2 *492:67 0.000215495
5 *1836:A2 *528:22 6.05161e-06
6 *1836:A2 *529:51 0.000181796
7 *1836:A2 *545:29 5.21731e-05
8 *1836:A2 *550:54 9.851e-05
9 *1836:A2 *550:65 0.000113691
10 *1836:B1 *1836:A2 2.57162e-05
*RES
1 *1832:X *1836:A2 33.9884 
*END

*D_NET *207 0.00189723
*CONN
*I *1834:A I *D sky130_fd_sc_hd__inv_2
*I *1859:A I *D sky130_fd_sc_hd__and2_1
*I *1860:A I *D sky130_fd_sc_hd__nor2_1
*I *1833:X O *D sky130_fd_sc_hd__and3_1
*CAP
1 *1834:A 0.000119935
2 *1859:A 0
3 *1860:A 9.65383e-05
4 *1833:X 0.000158622
5 *207:10 0.00020215
6 *207:6 0.000384169
7 *1834:A *1832:A2 0.00017282
8 *1834:A *532:24 0.000317114
9 *1860:A *1860:B 0.000107307
10 *1860:A *538:24 0.000227539
11 *207:6 *538:24 1.1152e-05
12 *207:6 *547:82 3.69047e-06
13 *207:10 *538:24 4.51611e-05
14 *1833:C *207:6 8.25843e-06
15 *202:43 *1834:A 4.27772e-05
*RES
1 *1833:X *207:6 11.0679 
2 *207:6 *207:10 2.08929 
3 *207:10 *1860:A 12.6393 
4 *207:10 *1859:A 9.3 
5 *207:6 *1834:A 22.3714 
*END

*D_NET *208 0.000455566
*CONN
*I *1836:A3 I *D sky130_fd_sc_hd__a32o_1
*I *1834:Y O *D sky130_fd_sc_hd__inv_2
*CAP
1 *1836:A3 6.44884e-05
2 *1834:Y 6.44884e-05
3 *1836:A3 *1867:C1 0.000121857
4 *1836:A3 *545:29 2.27372e-05
5 *188:28 *1836:A3 0.000181995
*RES
1 *1834:Y *1836:A3 21.2429 
*END

*D_NET *209 0.000617638
*CONN
*I *1837:B I *D sky130_fd_sc_hd__or3_1
*I *1835:X O *D sky130_fd_sc_hd__a22o_1
*CAP
1 *1837:B 0.000191577
2 *1835:X 0.000191577
3 *1837:B *518:105 0
4 *1837:B *528:34 8.9591e-05
5 *1835:B1 *1837:B 4.43215e-05
6 *188:22 *1837:B 8.79208e-05
7 *190:14 *1837:B 1.26512e-05
*RES
1 *1835:X *1837:B 36.4511 
*END

*D_NET *210 0.000988878
*CONN
*I *1837:C I *D sky130_fd_sc_hd__or3_1
*I *1836:X O *D sky130_fd_sc_hd__a32o_1
*CAP
1 *1837:C 0.000223117
2 *1836:X 0.000223117
3 *1837:C *532:24 3.69513e-05
4 *1837:C *545:29 9.58181e-05
5 *1835:B1 *1837:C 2.06112e-05
6 *1837:A *1837:C 6.65398e-05
7 *188:22 *1837:C 6.62299e-06
8 *190:14 *1837:C 0.000174812
9 *202:43 *1837:C 0.00014129
*RES
1 *1836:X *1837:C 32.6179 
*END

*D_NET *211 0.00614717
*CONN
*I *1845:A I *D sky130_fd_sc_hd__or2_1
*I *1837:X O *D sky130_fd_sc_hd__or3_1
*CAP
1 *1845:A 0.000624651
2 *1837:X 0.000744381
3 *211:16 0.00136903
4 *1845:A *1824:A_N 0.000115072
5 *1845:A *1955:B1 0
6 *1845:A *2114:A 5.52238e-05
7 *1845:A *500:10 1.52978e-05
8 *1845:A *500:25 9.71197e-05
9 *1845:A *524:78 0.000760234
10 *1845:A *538:12 0.00011741
11 *211:16 *2088:A 5.71472e-05
12 *211:16 *302:14 0.000220608
13 *211:16 *492:67 0.000145753
14 *211:16 *497:52 0.000910862
15 *211:16 *518:105 0.000159286
16 *211:16 *526:92 0.000105033
17 *211:16 *550:65 0.000121573
18 *1898:A *1845:A 0.000197984
19 *1898:B *1845:A 8.07951e-05
20 *191:8 *1845:A 4.75715e-05
21 *191:14 *1845:A 5.97719e-05
22 *197:46 *211:16 8.24047e-05
23 *199:51 *211:16 5.99631e-05
*RES
1 *1837:X *211:16 40.2286 
2 *211:16 *1845:A 30.4607 
*END

*D_NET *212 0.00286603
*CONN
*I *1839:B I *D sky130_fd_sc_hd__xnor2_1
*I *1838:Y O *D sky130_fd_sc_hd__nand2_1
*CAP
1 *1839:B 0.000838826
2 *1838:Y 0.000838826
3 *1839:B *1795:A2 1.33343e-05
4 *1839:B *1795:C1 3.18703e-05
5 *1839:B *1803:A 3.64727e-05
6 *1839:B *1838:A 1.24368e-05
7 *1839:B *1839:A 2.89016e-05
8 *1839:B *1840:B 0.000136951
9 *1839:B *1841:A 0.000173797
10 *1839:B *1841:B 9.80173e-05
11 *1839:B *1842:B 4.35452e-05
12 *1839:B *1844:A2 0
13 *1839:B *1844:B1 0.000356022
14 *1839:B *1845:B 0.000186662
15 *1839:B *526:98 5.72899e-05
16 *1839:B *529:63 1.30761e-05
17 *1839:B *544:34 0
18 *1842:A *1839:B 0
19 *178:17 *1839:B 0
*RES
1 *1838:Y *1839:B 44.2964 
*END

*D_NET *213 0.00206666
*CONN
*I *1840:B I *D sky130_fd_sc_hd__nand2_1
*I *1841:B I *D sky130_fd_sc_hd__xnor2_1
*I *1839:Y O *D sky130_fd_sc_hd__xnor2_1
*CAP
1 *1840:B 0.00030969
2 *1841:B 0.000292877
3 *1839:Y 0
4 *213:4 0.000602566
5 *1840:B *1843:A2 4.23086e-05
6 *1840:B *1844:A2 5.03694e-05
7 *1840:B *1844:B2 9.59345e-05
8 *1841:B *1839:A 5.74972e-05
9 *1841:B *1843:A2 0
10 *1841:B *1844:A1 0
11 *1841:B *215:10 0
12 *1839:B *1840:B 0.000136951
13 *1839:B *1841:B 9.80173e-05
14 *1843:A1 *1840:B 2.44318e-05
15 *1843:B1 *1840:B 0.000356022
*RES
1 *1839:Y *213:4 9.3 
2 *213:4 *1841:B 23.1214 
3 *213:4 *1840:B 25.425 
*END

*D_NET *214 0.00105308
*CONN
*I *1851:A1 I *D sky130_fd_sc_hd__a21o_1
*I *1852:A1 I *D sky130_fd_sc_hd__a31oi_1
*I *1840:Y O *D sky130_fd_sc_hd__nand2_1
*CAP
1 *1851:A1 9.94156e-05
2 *1852:A1 0
3 *1840:Y 0.00022488
4 *214:12 0.000324296
5 *1851:A1 *1845:B 1.32552e-05
6 *1851:A1 *1851:A2 3.67142e-05
7 *1851:A1 *1852:A2 3.57366e-05
8 *1851:A1 *1852:A3 9.90431e-05
9 *1851:A1 *216:17 1.92905e-05
10 *214:12 *1840:A 1.92905e-05
11 *214:12 *1851:A2 1.19402e-05
12 *1843:B1 *214:12 9.22103e-06
13 *1852:B1 *214:12 6.09572e-05
14 *192:30 *214:12 9.90431e-05
*RES
1 *1840:Y *214:12 21.7107 
2 *214:12 *1852:A1 9.3 
3 *214:12 *1851:A1 11.8 
*END

*D_NET *215 0.00136823
*CONN
*I *1842:B I *D sky130_fd_sc_hd__or2_1
*I *1843:A2 I *D sky130_fd_sc_hd__a21oi_1
*I *1841:Y O *D sky130_fd_sc_hd__xnor2_1
*CAP
1 *1842:B 0.000185665
2 *1843:A2 9.20585e-05
3 *1841:Y 0.000119111
4 *215:10 0.000396835
5 *1842:B *1844:B1 6.71657e-05
6 *1843:A2 *1839:A 0.000117369
7 *1843:A2 *1844:A1 0
8 *1843:A2 *1844:B2 0.000149904
9 *215:10 *1844:A1 0
10 *215:10 *2069:A 5.52302e-05
11 *1839:B *1842:B 4.35452e-05
12 *1840:B *1843:A2 4.23086e-05
13 *1841:B *1843:A2 0
14 *1841:B *215:10 0
15 *1842:A *1842:B 9.90431e-05
*RES
1 *1841:Y *215:10 15.675 
2 *215:10 *1843:A2 16.9607 
3 *215:10 *1842:B 17.2107 
*END

*D_NET *216 0.00164718
*CONN
*I *1851:A2 I *D sky130_fd_sc_hd__a21o_1
*I *1852:A2 I *D sky130_fd_sc_hd__a31oi_1
*I *1844:B1 I *D sky130_fd_sc_hd__a22o_1
*I *1842:X O *D sky130_fd_sc_hd__or2_1
*CAP
1 *1851:A2 5.3794e-05
2 *1852:A2 2.20861e-05
3 *1844:B1 0.000117633
4 *1842:X 0
5 *216:17 0.000181035
6 *216:4 0.000222788
7 *1844:B1 *1845:B 1.38323e-05
8 *1851:A2 *1845:B 8.76257e-05
9 *1851:A2 *1852:A3 1.02504e-05
10 *1851:A2 *224:14 0
11 *1851:A2 *243:14 0
12 *1852:A2 *1852:A3 0
13 *216:17 *1845:B 0.000224596
14 *1839:B *1844:B1 0.000356022
15 *1842:A *1844:B1 0.000186669
16 *1842:B *1844:B1 6.71657e-05
17 *1851:A1 *1851:A2 3.67142e-05
18 *1851:A1 *1852:A2 3.57366e-05
19 *1851:A1 *216:17 1.92905e-05
20 *1852:B1 *1851:A2 0
21 *214:12 *1851:A2 1.19402e-05
*RES
1 *1842:X *216:4 9.3 
2 *216:4 *1844:B1 13.55 
3 *216:4 *216:17 2.60714 
4 *216:17 *1852:A2 10.0321 
5 *216:17 *1851:A2 19.9786 
*END

*D_NET *217 0.000542462
*CONN
*I *1844:B2 I *D sky130_fd_sc_hd__a22o_1
*I *1843:Y O *D sky130_fd_sc_hd__a21oi_1
*CAP
1 *1844:B2 0.000143646
2 *1843:Y 0.000143646
3 *1844:B2 *1844:A1 4.1331e-06
4 *1844:B2 *1844:A2 0
5 *1840:B *1844:B2 9.59345e-05
6 *1843:A1 *1844:B2 5.19842e-06
7 *1843:A2 *1844:B2 0.000149904
*RES
1 *1843:Y *1844:B2 30.4929 
*END

*D_NET *218 0.0033462
*CONN
*I *1845:B I *D sky130_fd_sc_hd__or2_1
*I *1844:X O *D sky130_fd_sc_hd__a22o_1
*CAP
1 *1845:B 0.00122397
2 *1844:X 0.00122397
3 *1845:B *1852:A3 1.68715e-05
4 *1845:B *1868:A1 3.61629e-06
5 *1845:B *1874:B 8.85532e-05
6 *1845:B *1876:B 5.52302e-05
7 *1845:B *224:14 2.27416e-05
8 *1845:B *225:21 2.95726e-05
9 *1845:B *250:6 0.000155692
10 *1839:B *1845:B 0.000186662
11 *1844:B1 *1845:B 1.38323e-05
12 *1851:A1 *1845:B 1.32552e-05
13 *1851:A2 *1845:B 8.76257e-05
14 *216:17 *1845:B 0.000224596
*RES
1 *1844:X *1845:B 36.975 
*END

*D_NET *219 0.00750313
*CONN
*I *1795:B1 I *D sky130_fd_sc_hd__o211a_1
*I *1793:A I *D sky130_fd_sc_hd__and2_1
*I *1732:A I *D sky130_fd_sc_hd__or2_1
*I *2055:A I *D sky130_fd_sc_hd__clkbuf_4
*I *1585:Y O *D sky130_fd_sc_hd__inv_2
*CAP
1 *1795:B1 0.000182531
2 *1793:A 0.000164324
3 *1732:A 0.000210631
4 *2055:A 5.92302e-05
5 *1585:Y 0.000443509
6 *219:40 0.000564343
7 *219:25 0.00111986
8 *219:10 0.00119448
9 *1732:A *1847:A 1.24368e-05
10 *1732:A *542:109 2.58821e-05
11 *1795:B1 *1795:C1 5.80706e-06
12 *1795:B1 *1803:A 0
13 *1795:B1 *544:34 8.86448e-05
14 *2055:A *516:6 4.87854e-05
15 *219:10 *1590:A 8.89104e-05
16 *219:10 *2086:A 5.33005e-05
17 *219:10 *493:23 0.00010326
18 *219:10 *550:6 9.41642e-05
19 *219:10 *550:21 5.33005e-05
20 *219:10 *550:32 1.24368e-05
21 *219:10 *551:120 0.000183713
22 *219:25 *1590:A 2.66026e-05
23 *219:25 *1847:A 5.33005e-05
24 *219:25 *493:23 0.000963968
25 *219:25 *493:34 0.000151333
26 *219:25 *543:29 0.000101586
27 *219:25 *543:104 0.000362896
28 *219:25 *543:108 0.000332821
29 *219:25 *548:94 4.93504e-05
30 *219:40 *1732:B 0
31 *219:40 *516:112 0.000146163
32 *219:40 *543:125 3.17148e-05
33 *1783:A *1732:A 0.000102197
34 *1783:A *219:40 2.94103e-05
35 *1791:A *1795:B1 3.34366e-05
36 *1791:A *219:40 0.000290993
37 *1791:B *1793:A 5.17614e-05
38 *1792:A1 *1793:A 9.99644e-06
39 *1792:A1 *1795:B1 5.60557e-05
*RES
1 *1585:Y *219:10 20.1929 
2 *219:10 *2055:A 14.7464 
3 *219:10 *219:25 22.7143 
4 *219:25 *1732:A 12.3179 
5 *219:25 *219:40 14.2857 
6 *219:40 *1793:A 11.9071 
7 *219:40 *1795:B1 22.4071 
*END

*D_NET *220 0.000701168
*CONN
*I *1847:B I *D sky130_fd_sc_hd__xnor2_1
*I *1846:X O *D sky130_fd_sc_hd__o21a_1
*CAP
1 *1847:B 9.42884e-05
2 *1846:X 9.42884e-05
3 *1847:B *1847:A 6.05161e-06
4 *1847:B *516:112 0.000148189
5 *1847:B *542:109 0.0001399
6 *1847:B *543:108 7.02611e-05
7 *1847:B *544:34 0.000148189
*RES
1 *1846:X *1847:B 30.9036 
*END

*D_NET *221 0.00284268
*CONN
*I *1849:B I *D sky130_fd_sc_hd__nand2_1
*I *1848:B I *D sky130_fd_sc_hd__or2_1
*I *1847:Y O *D sky130_fd_sc_hd__xnor2_1
*CAP
1 *1849:B 0
2 *1848:B 8.2215e-05
3 *1847:Y 0.00089381
4 *221:12 0.000976025
5 *1848:B *1849:A 5.52238e-05
6 *1848:B *223:10 5.52238e-05
7 *1848:B *524:78 0
8 *221:12 *1825:A1 4.19172e-05
9 *221:12 *243:14 0
10 *221:12 *493:34 0.000202016
11 *221:12 *542:109 0.000353086
12 *221:12 *544:34 0
13 *1843:B1 *1848:B 0
14 *1925:A1 *221:12 0.000151748
15 *192:30 *1848:B 3.14193e-05
*RES
1 *1847:Y *221:12 35.4964 
2 *221:12 *1848:B 11.0857 
3 *221:12 *1849:B 9.3 
*END

*D_NET *222 0.000905142
*CONN
*I *1850:A I *D sky130_fd_sc_hd__nand2_1
*I *1848:X O *D sky130_fd_sc_hd__or2_1
*CAP
1 *1850:A 0.000147924
2 *1848:X 0.000147924
3 *1850:A *1850:B 0.000199797
4 *1850:A *1875:B1 0.000149911
5 *1850:A *2117:A 4.92005e-05
6 *1850:A *223:14 0.000149911
7 *1850:A *243:14 5.25192e-06
8 *1850:A *326:18 5.52238e-05
*RES
1 *1848:X *1850:A 32.2071 
*END

*D_NET *223 0.00198446
*CONN
*I *1874:A I *D sky130_fd_sc_hd__and3_1
*I *1850:B I *D sky130_fd_sc_hd__nand2_1
*I *1875:A1 I *D sky130_fd_sc_hd__a21o_1
*I *1849:Y O *D sky130_fd_sc_hd__nand2_1
*CAP
1 *1874:A 2.29123e-05
2 *1850:B 0.000205631
3 *1875:A1 0
4 *1849:Y 0.000129005
5 *223:14 0.000317554
6 *223:10 0.000263841
7 *1850:B *224:14 5.52238e-05
8 *1850:B *243:14 6.69985e-05
9 *1850:B *274:20 1.73088e-05
10 *1850:B *326:18 4.57098e-05
11 *1874:A *248:12 8.57023e-05
12 *1874:A *524:78 5.03772e-05
13 *223:10 *1849:A 6.90625e-05
14 *223:10 *248:12 5.52302e-05
15 *223:10 *524:78 2.14658e-05
16 *223:14 *1875:B1 4.75908e-05
17 *223:14 *243:14 0.000125918
18 *1848:B *223:10 5.52238e-05
19 *1850:A *1850:B 0.000199797
20 *1850:A *223:14 0.000149911
*RES
1 *1849:Y *223:10 11.6214 
2 *223:10 *223:14 7.66071 
3 *223:14 *1875:A1 13.8 
4 *223:14 *1850:B 18.0679 
5 *223:10 *1874:A 10.2464 
*END

*D_NET *224 0.00126017
*CONN
*I *1852:A3 I *D sky130_fd_sc_hd__a31oi_1
*I *1851:B1 I *D sky130_fd_sc_hd__a21o_1
*I *1850:Y O *D sky130_fd_sc_hd__nand2_1
*CAP
1 *1852:A3 0.000175282
2 *1851:B1 0
3 *1850:Y 0.000225233
4 *224:14 0.000400515
5 *1852:A3 *1841:A 0
6 *1852:A3 *1868:A1 1.33343e-05
7 *1852:A3 *1868:A2 4.1331e-06
8 *1852:A3 *225:21 2.94744e-05
9 *224:14 *1868:A1 9.70426e-05
10 *224:14 *243:14 8.67467e-05
11 *224:14 *326:18 2.42778e-05
12 *1845:B *1852:A3 1.68715e-05
13 *1845:B *224:14 2.27416e-05
14 *1850:B *224:14 5.52238e-05
15 *1851:A1 *1852:A3 9.90431e-05
16 *1851:A2 *1852:A3 1.02504e-05
17 *1851:A2 *224:14 0
18 *1852:A2 *1852:A3 0
19 *1852:B1 *1852:A3 0
*RES
1 *1850:Y *224:14 22.2464 
2 *224:14 *1851:B1 9.3 
3 *224:14 *1852:A3 21.7821 
*END

*D_NET *225 0.0013752
*CONN
*I *1875:A2 I *D sky130_fd_sc_hd__a21o_1
*I *1874:B I *D sky130_fd_sc_hd__and3_1
*I *1868:A1 I *D sky130_fd_sc_hd__a21o_1
*I *1851:X O *D sky130_fd_sc_hd__a21o_1
*CAP
1 *1875:A2 0
2 *1874:B 0.00020326
3 *1868:A1 0.000130394
4 *1851:X 0
5 *225:21 0.000273931
6 *225:4 0.000201066
7 *1868:A1 *1868:A2 0
8 *1874:B *1875:B1 0.000125724
9 *1874:B *2117:A 0.00012401
10 *1845:B *1868:A1 3.61629e-06
11 *1845:B *1874:B 8.85532e-05
12 *1845:B *225:21 2.95726e-05
13 *1852:A3 *1868:A1 1.33343e-05
14 *1852:A3 *225:21 2.94744e-05
15 *192:28 *1874:B 5.52238e-05
16 *224:14 *1868:A1 9.70426e-05
*RES
1 *1851:X *225:4 9.3 
2 *225:4 *1868:A1 20.2821 
3 *225:4 *225:21 1.67857 
4 *225:21 *1874:B 22.675 
5 *225:21 *1875:A2 9.3 
*END

*D_NET *226 0.000721907
*CONN
*I *1868:A2 I *D sky130_fd_sc_hd__a21o_1
*I *1852:Y O *D sky130_fd_sc_hd__a31oi_1
*CAP
1 *1868:A2 0.000195718
2 *1852:Y 0.000195718
3 *1868:A2 *1841:A 1.94012e-05
4 *1868:A2 *2070:A 1.88175e-05
5 *1868:A2 *326:18 0.000274294
6 *1868:A2 *501:8 1.38247e-05
7 *1852:A3 *1868:A2 4.1331e-06
8 *1868:A1 *1868:A2 0
*RES
1 *1852:Y *1868:A2 31.8321 
*END

*D_NET *227 0.00129539
*CONN
*I *1857:D I *D sky130_fd_sc_hd__and4b_1
*I *1854:A I *D sky130_fd_sc_hd__inv_2
*I *1853:X O *D sky130_fd_sc_hd__a21o_1
*CAP
1 *1857:D 0.000209869
2 *1854:A 0
3 *1853:X 4.88794e-05
4 *227:12 0.000258749
5 *1857:D *1856:A1_N 0.000185356
6 *1857:D *1856:A2_N 0.000211562
7 *1857:D *1856:B1 4.97471e-05
8 *1857:D *1856:B2 1.39841e-05
9 *1857:D *229:21 0.000103301
10 *227:12 *1853:A1 0.000128154
11 *227:12 *1856:B1 1.59901e-05
12 *227:12 *492:77 6.97972e-05
*RES
1 *1853:X *227:12 20.1036 
2 *227:12 *1854:A 9.3 
3 *227:12 *1857:D 14.3491 
*END

*D_NET *228 0.000177424
*CONN
*I *1856:B1 I *D sky130_fd_sc_hd__o2bb2a_1
*I *1854:Y O *D sky130_fd_sc_hd__inv_2
*CAP
1 *1856:B1 5.58435e-05
2 *1854:Y 5.58435e-05
3 *1857:D *1856:B1 4.97471e-05
4 *227:12 *1856:B1 1.59901e-05
*RES
1 *1854:Y *1856:B1 19.5464 
*END

*D_NET *229 0.00163881
*CONN
*I *1877:A I *D sky130_fd_sc_hd__nor2_1
*I *1857:A_N I *D sky130_fd_sc_hd__and4b_1
*I *1856:B2 I *D sky130_fd_sc_hd__o2bb2a_1
*I *1855:X O *D sky130_fd_sc_hd__and3_1
*CAP
1 *1877:A 2.2002e-05
2 *1857:A_N 0
3 *1856:B2 4.35974e-05
4 *1855:X 4.15618e-05
5 *229:21 0.000244634
6 *229:10 0.000307791
7 *1877:A *1856:A1_N 0
8 *1877:A *1877:B 7.69167e-05
9 *1877:A *527:109 2.44318e-05
10 *229:10 *1855:B 7.6644e-05
11 *229:10 *529:35 3.92854e-05
12 *229:21 *1856:A1_N 0.000239254
13 *229:21 *1877:B 0.000256992
14 *229:21 *232:6 5.52302e-05
15 *229:21 *527:109 9.31893e-05
16 *1857:D *1856:B2 1.39841e-05
17 *1857:D *229:21 0.000103301
*RES
1 *1855:X *229:10 19.3357 
2 *229:10 *1856:B2 9.83571 
3 *229:10 *229:21 6.19643 
4 *229:21 *1857:A_N 9.3 
5 *229:21 *1877:A 10.2643 
*END

*D_NET *230 0.00241405
*CONN
*I *1813:C I *D sky130_fd_sc_hd__and4b_2
*I *1812:B1 I *D sky130_fd_sc_hd__o2111a_1
*I *1822:B I *D sky130_fd_sc_hd__and4b_2
*I *1820:A I *D sky130_fd_sc_hd__nor3_1
*I *1586:Y O *D sky130_fd_sc_hd__inv_2
*CAP
1 *1813:C 1.35541e-05
2 *1812:B1 0.000166037
3 *1822:B 0
4 *1820:A 0
5 *1586:Y 3.30846e-05
6 *230:19 0.000226718
7 *230:13 0.000160342
8 *230:6 0.000119191
9 *1812:B1 *1812:D1 9.90367e-05
10 *1812:B1 *1813:B 4.58194e-05
11 *1812:B1 *1831:B_N 5.33005e-05
12 *1812:B1 *500:35 3.8556e-05
13 *1813:C *2089:A 5.33005e-05
14 *230:6 *1586:A 5.33005e-05
15 *230:6 *2089:A 4.58194e-05
16 *230:6 *489:41 2.44318e-05
17 *230:13 *2089:A 0.000253488
18 *230:13 *489:41 6.58597e-05
19 *230:19 *1813:B 0.000171375
20 *230:19 *530:19 0.00017309
21 *1815:A *1813:C 4.18895e-05
22 *1815:A *230:13 9.60939e-05
23 *1820:C *230:13 0.00014285
24 *1821:C *1812:B1 9.90431e-05
25 *1827:A *1812:B1 0.000225609
26 *191:72 *1812:B1 1.22546e-05
*RES
1 *1586:Y *230:6 10.2464 
2 *230:6 *1820:A 9.3 
3 *230:6 *230:13 3.41071 
4 *230:13 *230:19 11.25 
5 *230:19 *1822:B 9.3 
6 *230:19 *1812:B1 13.8536 
7 *230:13 *1813:C 9.83571 
*END

*D_NET *231 0.00038811
*CONN
*I *1858:A I *D sky130_fd_sc_hd__nor2_1
*I *1856:X O *D sky130_fd_sc_hd__o2bb2a_1
*CAP
1 *1858:A 4.17151e-05
2 *1856:X 4.17151e-05
3 *1858:A *1832:A2 0.00015234
4 *202:21 *1858:A 0.00015234
*RES
1 *1856:X *1858:A 29.5464 
*END

*D_NET *232 0.00139114
*CONN
*I *1877:B I *D sky130_fd_sc_hd__nor2_1
*I *1858:B I *D sky130_fd_sc_hd__nor2_1
*I *1857:X O *D sky130_fd_sc_hd__and4b_1
*CAP
1 *1877:B 0.000223149
2 *1858:B 4.96657e-05
3 *1857:X 3.07369e-05
4 *232:6 0.000303552
5 *1858:B *1832:A2 0.000175526
6 *1858:B *532:24 0.000175526
7 *1877:B *253:12 1.24368e-05
8 *1877:B *527:109 3.14078e-05
9 *1877:A *1877:B 7.69167e-05
10 *229:21 *1877:B 0.000256992
11 *229:21 *232:6 5.52302e-05
*RES
1 *1857:X *232:6 9.83571 
2 *232:6 *1858:B 20.55 
3 *232:6 *1877:B 13.8536 
*END

*D_NET *233 0.00121018
*CONN
*I *1860:B I *D sky130_fd_sc_hd__nor2_1
*I *1859:B I *D sky130_fd_sc_hd__and2_1
*I *1858:Y O *D sky130_fd_sc_hd__nor2_1
*CAP
1 *1860:B 9.41057e-05
2 *1859:B 0
3 *1858:Y 0.000308481
4 *233:12 0.000402587
5 *1860:B *234:12 0.00014183
6 *1860:B *538:24 2.95726e-05
7 *233:12 *1863:B 0
8 *233:12 *542:141 6.53381e-05
9 *233:12 *545:33 6.09572e-05
10 *1860:A *1860:B 0.000107307
*RES
1 *1858:Y *233:12 22.5321 
2 *233:12 *1859:B 9.3 
3 *233:12 *1860:B 12.3357 
*END

*D_NET *234 0.00383733
*CONN
*I *1861:A I *D sky130_fd_sc_hd__nor2_1
*I *1890:A I *D sky130_fd_sc_hd__nand2_1
*I *1889:A I *D sky130_fd_sc_hd__and2_1
*I *1891:A1 I *D sky130_fd_sc_hd__o21a_1
*I *1859:X O *D sky130_fd_sc_hd__and2_1
*CAP
1 *1861:A 0
2 *1890:A 3.22675e-05
3 *1889:A 0.000166229
4 *1891:A1 0
5 *1859:X 0.000328952
6 *234:27 0.000377419
7 *234:16 0.000383377
8 *234:12 0.000533407
9 *1889:A *1890:B 0.000128818
10 *1889:A *1895:B1 5.52302e-05
11 *1889:A *526:62 3.61629e-06
12 *1890:A *265:17 0
13 *1890:A *534:147 4.56437e-05
14 *234:12 *1864:B2 3.34366e-05
15 *234:12 *2052:A 5.59013e-05
16 *234:12 *524:25 4.06875e-05
17 *234:12 *535:22 0.000116042
18 *234:12 *538:24 7.78288e-05
19 *234:16 *1893:B2 0.000320024
20 *234:16 *2052:A 5.33005e-05
21 *234:16 *540:97 0.000139907
22 *234:16 *540:110 0.000288955
23 *234:27 *1891:A2 8.40933e-05
24 *234:27 *1893:B2 8.57023e-05
25 *234:27 *265:17 0
26 *234:27 *534:147 0.000153054
27 *234:27 *540:110 9.31011e-05
28 *1860:B *234:12 0.00014183
29 *1891:B1 *234:16 5.71472e-05
30 *1892:B1 *234:16 4.13595e-05
*RES
1 *1859:X *234:12 24.7821 
2 *234:12 *234:16 6.71429 
3 *234:16 *1891:A1 9.3 
4 *234:16 *234:27 9.03571 
5 *234:27 *1889:A 16.8357 
6 *234:27 *1890:A 14.5321 
7 *234:12 *1861:A 9.3 
*END

*D_NET *235 0.000904985
*CONN
*I *1861:B I *D sky130_fd_sc_hd__nor2_1
*I *1860:Y O *D sky130_fd_sc_hd__nor2_1
*CAP
1 *1861:B 0.000111119
2 *1860:Y 0.000111119
3 *1861:B *1863:B 0.00010326
4 *1861:B *1864:B2 0.000139907
5 *1861:B *2052:A 6.87245e-05
6 *1861:B *490:27 0.000148189
7 *1861:B *545:33 0
8 *1892:B1 *1861:B 0.000222666
*RES
1 *1860:Y *1861:B 31.725 
*END

*D_NET *236 0.000940844
*CONN
*I *1866:B1 I *D sky130_fd_sc_hd__a221o_1
*I *1861:Y O *D sky130_fd_sc_hd__nor2_1
*CAP
1 *1866:B1 0.000238575
2 *1861:Y 0.000238575
3 *1866:B1 *1866:C1 5.52238e-05
4 *1866:B1 *535:22 0.00010047
5 *1866:B1 *563:14 9.25014e-06
6 *1866:B1 *563:69 0.00010047
7 *1866:B2 *1866:B1 3.03503e-05
8 *1892:B1 *1866:B1 9.60875e-05
9 *188:28 *1866:B1 7.1843e-05
*RES
1 *1861:Y *1866:B1 32.0643 
*END

*D_NET *237 0.00288861
*CONN
*I *1863:B I *D sky130_fd_sc_hd__and2b_1
*I *1909:A I *D sky130_fd_sc_hd__xnor2_2
*I *1862:Y O *D sky130_fd_sc_hd__nand2_1
*CAP
1 *1863:B 0.00054899
2 *1909:A 0.000147651
3 *1862:Y 0
4 *237:6 0.000696641
5 *1863:B *1862:B 0.000451863
6 *1863:B *1906:A1 0.00015234
7 *1863:B *2052:A 5.33005e-05
8 *1863:B *490:27 0.000329057
9 *1863:B *542:141 0.000173083
10 *1863:B *545:33 0
11 *1863:B *545:37 0
12 *1909:A *1862:B 5.59013e-05
13 *1909:A *1909:B 3.51442e-05
14 *1909:A *490:27 0.000141375
15 *1909:A *523:16 0
16 *1861:B *1863:B 0.00010326
17 *233:12 *1863:B 0
*RES
1 *1862:Y *237:6 13.8 
2 *237:6 *1909:A 17.2643 
3 *237:6 *1863:B 27.8179 
*END

*D_NET *238 0.000893117
*CONN
*I *1864:B2 I *D sky130_fd_sc_hd__o22a_1
*I *1863:X O *D sky130_fd_sc_hd__and2b_1
*CAP
1 *1864:B2 0.00012194
2 *1863:X 0.00012194
3 *1864:B2 *2052:A 0.000263372
4 *1864:B2 *535:22 0.000192637
5 *1861:B *1864:B2 0.000139907
6 *1892:B1 *1864:B2 1.98839e-05
7 *234:12 *1864:B2 3.34366e-05
*RES
1 *1863:X *1864:B2 31.9214 
*END

*D_NET *239 0.000133696
*CONN
*I *1866:C1 I *D sky130_fd_sc_hd__a221o_1
*I *1864:X O *D sky130_fd_sc_hd__o22a_1
*CAP
1 *1866:C1 1.1624e-05
2 *1864:X 1.1624e-05
3 *1866:B1 *1866:C1 5.52238e-05
4 *188:28 *1866:C1 5.52238e-05
*RES
1 *1864:X *1866:C1 19.1357 
*END

*D_NET *240 0.000423594
*CONN
*I *1867:B1 I *D sky130_fd_sc_hd__a211o_1
*I *1865:X O *D sky130_fd_sc_hd__a32o_1
*CAP
1 *1867:B1 0.00011975
2 *1865:X 0.00011975
3 *1867:B1 *1924:A2 3.2746e-05
4 *1867:B1 *243:14 7.83659e-05
5 *1867:B1 *552:10 7.29826e-05
*RES
1 *1865:X *1867:B1 30.0821 
*END

*D_NET *241 0.00976375
*CONN
*I *2026:A I *D sky130_fd_sc_hd__or4b_1
*I *1663:B I *D sky130_fd_sc_hd__nor2_4
*I *1677:B1 I *D sky130_fd_sc_hd__a21o_1
*I *1664:B I *D sky130_fd_sc_hd__nand2_1
*I *1587:Y O *D sky130_fd_sc_hd__inv_2
*CAP
1 *2026:A 0
2 *1663:B 0.000271756
3 *1677:B1 6.86837e-05
4 *1664:B 0.000134653
5 *1587:Y 0.000237455
6 *241:39 0.000730136
7 *241:28 0.00144653
8 *241:16 0.00115964
9 *1663:B *1645:A 0.000138089
10 *1663:B *546:121 6.39808e-05
11 *1663:B *565:54 4.97567e-06
12 *1664:B *493:10 0
13 *1664:B *546:73 0.000133797
14 *1677:B1 *1677:A1 6.05161e-06
15 *1677:B1 *471:20 6.57032e-05
16 *241:16 *1644:S 1.33343e-05
17 *241:16 *1924:A2 9.25014e-06
18 *241:16 *2084:A 0.000126169
19 *241:16 *475:83 0.000487
20 *241:16 *477:8 1.5424e-05
21 *241:16 *515:88 0.000179538
22 *241:28 *1613:B 0.000118339
23 *241:28 *1660:A2 0.000100625
24 *241:28 *475:68 3.53786e-05
25 *241:28 *475:81 0.000354002
26 *241:28 *477:8 5.33005e-05
27 *241:28 *517:14 7.2754e-05
28 *241:28 *517:25 8.68665e-05
29 *241:39 *1645:A 0.000529507
30 *241:39 *1670:A1 0.00017309
31 *241:39 *479:10 0.000126439
32 *241:39 *479:12 7.83587e-05
33 *241:39 *546:73 6.80581e-05
34 *241:39 *546:121 2.14378e-05
35 *1659:B1 *241:28 0.00012401
36 *1670:B1 *241:39 0.00017309
37 *1675:A *1663:B 8.99927e-05
38 *1676:A *1663:B 0.000191485
39 *1676:B *1663:B 0.000263276
40 *35:10 *241:28 0.000789278
41 *43:12 *1677:B1 0.000178847
42 *44:10 *1663:B 5.59013e-05
43 *44:10 *241:39 0.000753634
44 *45:56 *1663:B 2.83192e-05
45 *45:56 *241:39 0
46 *64:14 *1663:B 5.58875e-06
*RES
1 *1587:Y *241:16 25.8893 
2 *241:16 *241:28 30.4107 
3 *241:28 *1664:B 16.9607 
4 *241:28 *241:39 13.7857 
5 *241:39 *1677:B1 15.5679 
6 *241:39 *1663:B 20.8536 
7 *241:16 *2026:A 9.3 
*END

*D_NET *242 0.00502131
*CONN
*I *1867:C1 I *D sky130_fd_sc_hd__a211o_1
*I *1866:X O *D sky130_fd_sc_hd__a221o_1
*CAP
1 *1867:C1 0.00215484
2 *1866:X 0.00215484
3 *1867:C1 *1867:A1 5.57575e-05
4 *1867:C1 *1896:A1 6.42095e-05
5 *1867:C1 *337:16 9.60939e-05
6 *1867:C1 *528:22 2.42516e-05
7 *1867:C1 *545:29 6.89173e-05
8 *1836:A2 *1867:C1 0.000183243
9 *1836:A3 *1867:C1 0.000121857
10 *1866:A2 *1867:C1 3.18676e-05
11 *188:28 *1867:C1 6.54469e-05
*RES
1 *1866:X *1867:C1 45.5821 
*END

*D_NET *243 0.00490625
*CONN
*I *1868:B1 I *D sky130_fd_sc_hd__a21o_1
*I *1867:X O *D sky130_fd_sc_hd__a211o_1
*CAP
1 *1868:B1 0
2 *1867:X 0.00125994
3 *243:14 0.00125994
4 *243:14 *1781:C1 5.74499e-06
5 *243:14 *1867:A1 2.89114e-05
6 *243:14 *1867:A2 2.95726e-05
7 *243:14 *1869:A1 0.000223443
8 *243:14 *1873:A 0.00015234
9 *243:14 *1924:A2 0.000293408
10 *243:14 *245:10 0
11 *243:14 *248:12 0.000453025
12 *243:14 *274:20 0
13 *243:14 *326:18 5.52238e-05
14 *243:14 *493:34 0
15 *243:14 *543:23 6.05161e-06
16 *243:14 *552:10 0.000280009
17 *1850:A *243:14 5.25192e-06
18 *1850:B *243:14 6.69985e-05
19 *1851:A2 *243:14 0
20 *1867:B1 *243:14 7.83659e-05
21 *1925:A1 *243:14 0.000495353
22 *221:12 *243:14 0
23 *223:14 *243:14 0.000125918
24 *224:14 *243:14 8.67467e-05
*RES
1 *1867:X *243:14 48.9607 
2 *243:14 *1868:B1 9.3 
*END

*D_NET *244 0.000174201
*CONN
*I *1870:B I *D sky130_fd_sc_hd__xnor2_1
*I *1869:X O *D sky130_fd_sc_hd__o31a_1
*CAP
1 *1870:B 3.75792e-05
2 *1869:X 3.75792e-05
3 *1870:B *542:109 9.90431e-05
*RES
1 *1869:X *1870:B 19.5464 
*END

*D_NET *245 0.000774022
*CONN
*I *1872:B I *D sky130_fd_sc_hd__nand2_1
*I *1871:B I *D sky130_fd_sc_hd__or2_1
*I *1870:Y O *D sky130_fd_sc_hd__xnor2_1
*CAP
1 *1872:B 3.44718e-05
2 *1871:B 0
3 *1870:Y 0.00015656
4 *245:10 0.000191032
5 *1872:B *1871:A 3.17016e-05
6 *1872:B *1872:A 1.3701e-05
7 *245:10 *274:20 0.000291993
8 *245:10 *552:10 2.56601e-05
9 *191:22 *1872:B 2.89016e-05
10 *243:14 *245:10 0
*RES
1 *1870:Y *245:10 22.0679 
2 *245:10 *1871:B 9.3 
3 *245:10 *1872:B 10.2643 
*END

*D_NET *246 0.00044905
*CONN
*I *1873:A I *D sky130_fd_sc_hd__nand2_1
*I *1871:X O *D sky130_fd_sc_hd__or2_1
*CAP
1 *1873:A 0.000114656
2 *1871:X 0.000114656
3 *1873:A *274:20 0
4 *1925:A1 *1873:A 1.02504e-05
5 *191:22 *1873:A 5.71472e-05
6 *243:14 *1873:A 0.00015234
*RES
1 *1871:X *1873:A 30.0821 
*END

*D_NET *247 0.00178714
*CONN
*I *1902:A1 I *D sky130_fd_sc_hd__a21oi_1
*I *1901:A I *D sky130_fd_sc_hd__and3_1
*I *1873:B I *D sky130_fd_sc_hd__nand2_1
*I *1872:Y O *D sky130_fd_sc_hd__nand2_1
*CAP
1 *1902:A1 2.22669e-05
2 *1901:A 0
3 *1873:B 0.000253051
4 *1872:Y 0.000155069
5 *247:25 6.33501e-05
6 *247:14 0.000449203
7 *1873:B *1925:B1 5.33005e-05
8 *1873:B *526:98 0.000204671
9 *1902:A1 *1902:B1 9.80173e-05
10 *1902:A1 *526:98 4.43256e-05
11 *247:14 *1902:B1 0
12 *247:14 *1925:B1 0.000144038
13 *247:14 *277:10 7.17932e-05
14 *247:25 *1901:C 6.28435e-05
15 *247:25 *1902:B1 4.27935e-05
16 *247:25 *526:98 6.71854e-05
17 *191:22 *247:14 5.52302e-05
*RES
1 *1872:Y *247:14 21.2107 
2 *247:14 *1873:B 13.9607 
3 *247:14 *247:25 1.35714 
4 *247:25 *1901:A 9.3 
5 *247:25 *1902:A1 10.2464 
*END

*D_NET *248 0.00221684
*CONN
*I *1874:C I *D sky130_fd_sc_hd__and3_1
*I *1875:B1 I *D sky130_fd_sc_hd__a21o_1
*I *1873:Y O *D sky130_fd_sc_hd__nand2_1
*CAP
1 *1874:C 4.23478e-05
2 *1875:B1 0.000154374
3 *1873:Y 0.000359644
4 *248:12 0.000556366
5 *1874:C *524:78 2.13878e-05
6 *1875:B1 *2117:A 7.15783e-05
7 *248:12 *2117:A 0
8 *248:12 *524:78 1.56e-05
9 *1850:A *1875:B1 0.000149911
10 *1874:A *248:12 8.57023e-05
11 *1874:B *1875:B1 0.000125724
12 *1925:A1 *248:12 7.83587e-05
13 *223:10 *248:12 5.52302e-05
14 *223:14 *1875:B1 4.75908e-05
15 *243:14 *248:12 0.000453025
*RES
1 *1873:Y *248:12 25.9607 
2 *248:12 *1875:B1 22.3 
3 *248:12 *1874:C 9.90714 
*END

*D_NET *249 0.000319277
*CONN
*I *1876:B I *D sky130_fd_sc_hd__or3b_1
*I *1874:X O *D sky130_fd_sc_hd__and3_1
*CAP
1 *1876:B 7.32061e-05
2 *1874:X 7.32061e-05
3 *1876:B *274:20 7.83587e-05
4 *1845:B *1876:B 5.52302e-05
5 *1876:A *1876:B 3.92757e-05
*RES
1 *1874:X *1876:B 29.1714 
*END

*D_NET *250 0.00218503
*CONN
*I *1876:C_N I *D sky130_fd_sc_hd__or3b_1
*I *1902:A2 I *D sky130_fd_sc_hd__a21oi_1
*I *1901:B I *D sky130_fd_sc_hd__and3_1
*I *1875:X O *D sky130_fd_sc_hd__a21o_1
*CAP
1 *1876:C_N 0
2 *1902:A2 0
3 *1901:B 0.000151196
4 *1875:X 0.000149206
5 *250:10 0.000743259
6 *250:6 0.00074127
7 *1901:B *1925:A3 0.000139907
8 *1901:B *1955:A2 0
9 *1901:B *277:10 3.92854e-05
10 *250:10 *1955:A2 0
11 *250:10 *274:20 0
12 *250:10 *277:10 2.26327e-05
13 *1845:B *250:6 0.000155692
14 *1876:A *250:10 4.25809e-05
*RES
1 *1875:X *250:6 12.3 
2 *250:6 *250:10 14.3393 
3 *250:10 *1901:B 16.1929 
4 *250:10 *1902:A2 13.8 
5 *250:6 *1876:C_N 9.3 
*END

*D_NET *251 0.00184647
*CONN
*I *2026:B I *D sky130_fd_sc_hd__or4b_1
*I *1660:A1 I *D sky130_fd_sc_hd__o211ai_2
*I *1588:Y O *D sky130_fd_sc_hd__inv_2
*CAP
1 *2026:B 5.55626e-05
2 *1660:A1 0.00028665
3 *1588:Y 7.50812e-05
4 *251:6 0.000417294
5 *1660:A1 *446:10 1.3142e-05
6 *1660:A1 *493:23 0.000311014
7 *1660:A1 *551:25 0.000145753
8 *1660:A1 *551:107 0.000200413
9 *2026:B *1613:B 0.000144512
10 *2026:B *446:10 0.000109809
11 *2026:B *517:25 5.83304e-05
12 *251:6 *517:29 2.89114e-05
*RES
1 *1588:Y *251:6 10.2464 
2 *251:6 *1660:A1 24.4429 
3 *251:6 *2026:B 20.8536 
*END

*D_NET *252 0.000374439
*CONN
*I *1897:B I *D sky130_fd_sc_hd__nand2b_1
*I *1876:X O *D sky130_fd_sc_hd__or3b_1
*CAP
1 *1897:B 6.428e-05
2 *1876:X 6.428e-05
3 *1897:B *2117:A 0.000121291
4 *1897:B *274:20 0.000111706
5 *1897:B *326:18 1.28809e-05
*RES
1 *1876:X *1897:B 29.3723 
*END

*D_NET *253 0.0020138
*CONN
*I *1884:A_N I *D sky130_fd_sc_hd__and2b_1
*I *1885:A I *D sky130_fd_sc_hd__xnor2_1
*I *1877:Y O *D sky130_fd_sc_hd__nor2_1
*CAP
1 *1884:A_N 9.32874e-05
2 *1885:A 0
3 *1877:Y 0.000652959
4 *253:12 0.000746246
5 *1884:A_N *1884:B 0.000126639
6 *253:12 *2078:A 0.000249009
7 *253:12 *259:12 0.000125731
8 *253:12 *527:109 7.49387e-06
9 *253:12 *537:69 0
10 *253:12 *566:35 0
11 *1877:B *253:12 1.24368e-05
*RES
1 *1877:Y *253:12 27.3536 
2 *253:12 *1885:A 9.3 
3 *253:12 *1884:A_N 11.4786 
*END

*D_NET *254 0.00106694
*CONN
*I *1883:A I *D sky130_fd_sc_hd__xnor2_1
*I *1906:A1 I *D sky130_fd_sc_hd__o21ba_1
*I *1878:Y O *D sky130_fd_sc_hd__nand2_1
*CAP
1 *1883:A 0.000177462
2 *1906:A1 0.000128145
3 *1878:Y 0
4 *254:4 0.000305606
5 *1883:A *527:51 0.000136958
6 *1906:A1 *1878:A 1.58163e-05
7 *1906:A1 *490:27 0.000150618
8 *1863:B *1906:A1 0.00015234
*RES
1 *1878:Y *254:4 9.3 
2 *254:4 *1906:A1 21.1929 
3 *254:4 *1883:A 12.8893 
*END

*D_NET *255 0.00087217
*CONN
*I *1908:A2 I *D sky130_fd_sc_hd__a21oi_2
*I *1879:Y O *D sky130_fd_sc_hd__nand2_1
*CAP
1 *1908:A2 0.00027517
2 *1879:Y 0.00027517
3 *1908:A2 *1653:B 1.32552e-05
4 *1908:A2 *486:8 0.000100625
5 *1908:A2 *492:77 0.000129868
6 *1908:A2 *517:58 6.74911e-05
7 *1908:A2 *549:107 5.19842e-06
8 *1908:A2 *549:118 5.39166e-06
*RES
1 *1879:Y *1908:A2 32.2429 
*END

*D_NET *256 0.00194748
*CONN
*I *1906:B1_N I *D sky130_fd_sc_hd__o21ba_1
*I *1882:A I *D sky130_fd_sc_hd__nor2_1
*I *1880:X O *D sky130_fd_sc_hd__and3_1
*CAP
1 *1906:B1_N 1.96206e-05
2 *1882:A 0.000187582
3 *1880:X 0.000366003
4 *256:12 0.000573206
5 *1882:A *1882:B 0.000159683
6 *1882:A *1910:B 1.3701e-05
7 *1882:A *284:8 3.14078e-05
8 *1906:B1_N *527:45 4.73656e-05
9 *1906:B1_N *535:22 2.84494e-05
10 *256:12 *1862:A 5.00222e-05
11 *256:12 *1862:B 5.52238e-05
12 *256:12 *1881:A1 5.52238e-05
13 *256:12 *1881:A2 3.15473e-05
14 *256:12 *257:12 4.16984e-05
15 *256:12 *527:45 0.000103267
16 *256:12 *535:22 5.10822e-05
17 *1881:B1 *256:12 0.000132398
*RES
1 *1880:X *256:12 21.0321 
2 *256:12 *1882:A 16.7107 
3 *256:12 *1906:B1_N 14.5321 
*END

*D_NET *257 0.00153315
*CONN
*I *1906:A2 I *D sky130_fd_sc_hd__o21ba_1
*I *1882:B I *D sky130_fd_sc_hd__nor2_1
*I *1881:Y O *D sky130_fd_sc_hd__a21oi_1
*CAP
1 *1906:A2 0
2 *1882:B 0.000154245
3 *1881:Y 0.000231707
4 *257:12 0.000385952
5 *1882:B *2025:B1 4.53889e-05
6 *1882:B *284:8 2.89114e-05
7 *257:12 *1862:A 0.00014285
8 *257:12 *490:27 0.000225314
9 *257:12 *527:45 0.000117398
10 *1882:A *1882:B 0.000159683
11 *256:12 *257:12 4.16984e-05
*RES
1 *1881:Y *257:12 23.7464 
2 *257:12 *1882:B 12.7464 
3 *257:12 *1906:A2 9.3 
*END

*D_NET *258 0.000258458
*CONN
*I *1883:B I *D sky130_fd_sc_hd__xnor2_1
*I *1882:Y O *D sky130_fd_sc_hd__nor2_1
*CAP
1 *1883:B 6.41086e-05
2 *1882:Y 6.41086e-05
3 *1883:B *524:25 6.32633e-05
4 *1883:B *535:22 6.69779e-05
*RES
1 *1882:Y *1883:B 29.2429 
*END

*D_NET *259 0.00163709
*CONN
*I *1885:B I *D sky130_fd_sc_hd__xnor2_1
*I *1884:B I *D sky130_fd_sc_hd__and2b_1
*I *1883:Y O *D sky130_fd_sc_hd__xnor2_1
*CAP
1 *1885:B 0
2 *1884:B 0.000174146
3 *1883:Y 0.000319295
4 *259:12 0.000493441
5 *1884:B *261:18 0.000232399
6 *259:12 *527:51 5.20692e-05
7 *259:12 *537:69 0.000113372
8 *259:12 *566:35 0
9 *1884:A_N *1884:B 0.000126639
10 *253:12 *259:12 0.000125731
*RES
1 *1883:Y *259:12 24.1393 
2 *259:12 *1884:B 13.55 
3 *259:12 *1885:B 9.3 
*END

*D_NET *260 0.00232833
*CONN
*I *1914:A1 I *D sky130_fd_sc_hd__o21ai_1
*I *1915:A I *D sky130_fd_sc_hd__or3_1
*I *1884:X O *D sky130_fd_sc_hd__and2b_1
*CAP
1 *1914:A1 0.00011465
2 *1915:A 0
3 *1884:X 0.000740091
4 *260:10 0.000854741
5 *1914:A1 *1888:B 0
6 *1914:A1 *1914:A2 6.05161e-06
7 *1914:A1 *1914:B1 0.000187733
8 *1914:A1 *1916:B 0.000150625
9 *1914:A1 *292:12 2.59355e-05
10 *1914:A1 *388:10 0
11 *260:10 *1914:B1 1.02504e-05
12 *260:10 *261:18 0.000110101
13 *260:10 *291:8 0.000128154
14 *260:10 *388:10 0
*RES
1 *1884:X *260:10 23.3714 
2 *260:10 *1915:A 13.8 
3 *260:10 *1914:A1 17.1929 
*END

*D_NET *261 0.00194639
*CONN
*I *1887:B1 I *D sky130_fd_sc_hd__a21oi_1
*I *1886:C I *D sky130_fd_sc_hd__and3_1
*I *1885:Y O *D sky130_fd_sc_hd__xnor2_1
*CAP
1 *1887:B1 9.31849e-05
2 *1886:C 0
3 *1885:Y 0.000557374
4 *261:18 0.000650559
5 *1887:B1 *1886:A 0.000119465
6 *261:18 *1886:A 9.50968e-06
7 *261:18 *526:62 0.000173797
8 *261:18 *538:28 0
9 *1884:B *261:18 0.000232399
10 *260:10 *261:18 0.000110101
*RES
1 *1885:Y *261:18 27.9964 
2 *261:18 *1886:C 9.3 
3 *261:18 *1887:B1 11.1393 
*END

*D_NET *262 0.000762399
*CONN
*I *1598:A2 I *D sky130_fd_sc_hd__a2111oi_1
*I *1589:Y O *D sky130_fd_sc_hd__inv_2
*CAP
1 *1598:A2 7.3506e-05
2 *1589:Y 7.3506e-05
3 *1598:A2 *1598:A1 6.90561e-05
4 *1598:A2 *1807:C 9.71197e-05
5 *1598:A2 *550:67 9.31893e-05
6 *1956:A2 *1598:A2 8.57023e-05
7 *182:16 *1598:A2 0.00027032
*RES
1 *1589:Y *1598:A2 22.0107 
*END

*D_NET *263 0.00187988
*CONN
*I *1914:A2 I *D sky130_fd_sc_hd__o21ai_1
*I *1888:A I *D sky130_fd_sc_hd__nor2_1
*I *1915:B I *D sky130_fd_sc_hd__or3_1
*I *1886:X O *D sky130_fd_sc_hd__and3_1
*CAP
1 *1914:A2 0.000240618
2 *1888:A 0.000101762
3 *1915:B 0.000191285
4 *1886:X 0
5 *263:21 0.000400337
6 *263:4 0.000249243
7 *1888:A *1888:B 9.41642e-05
8 *1888:A *1891:A2 5.33334e-05
9 *1914:A2 *1888:B 1.98839e-05
10 *1914:A2 *1914:B1 5.52238e-05
11 *1914:A2 *292:12 5.74499e-06
12 *1915:B *1887:A2 0.000208355
13 *263:21 *1888:B 0.000125724
14 *263:21 *526:62 0.000128154
15 *1914:A1 *1914:A2 6.05161e-06
*RES
1 *1886:X *263:4 9.3 
2 *263:4 *1915:B 13.1571 
3 *263:4 *263:21 10.6429 
4 *263:21 *1888:A 11.4964 
5 *263:21 *1914:A2 13.1393 
*END

*D_NET *264 0.000576872
*CONN
*I *1888:B I *D sky130_fd_sc_hd__nor2_1
*I *1887:Y O *D sky130_fd_sc_hd__a21oi_1
*CAP
1 *1888:B 0.000163132
2 *1887:Y 0.000163132
3 *1888:B *1914:B1 0
4 *1888:B *526:62 1.08359e-05
5 *1888:A *1888:B 9.41642e-05
6 *1914:A1 *1888:B 0
7 *1914:A2 *1888:B 1.98839e-05
8 *263:21 *1888:B 0.000125724
*RES
1 *1887:Y *1888:B 30.9036 
*END

*D_NET *265 0.00216207
*CONN
*I *1890:B I *D sky130_fd_sc_hd__nand2_1
*I *1889:B I *D sky130_fd_sc_hd__and2_1
*I *1891:A2 I *D sky130_fd_sc_hd__o21a_1
*I *1888:Y O *D sky130_fd_sc_hd__nor2_1
*CAP
1 *1890:B 8.8501e-05
2 *1889:B 0
3 *1891:A2 0.000456733
4 *1888:Y 0
5 *265:17 0.000230108
6 *265:4 0.000598339
7 *1890:B *1893:A1 0
8 *1890:B *526:62 0.000129595
9 *1891:A2 *1893:B2 0.000144773
10 *265:17 *526:62 0.000247778
11 *265:17 *534:147 0
12 *1888:A *1891:A2 5.33334e-05
13 *1889:A *1890:B 0.000128818
14 *1890:A *265:17 0
15 *234:27 *1891:A2 8.40933e-05
16 *234:27 *265:17 0
*RES
1 *1888:Y *265:4 9.3 
2 *265:4 *1891:A2 15.175 
3 *265:4 *265:17 12.1607 
4 *265:17 *1889:B 9.3 
5 *265:17 *1890:B 12.3357 
*END

*D_NET *266 0.000611197
*CONN
*I *1917:A I *D sky130_fd_sc_hd__or2_1
*I *1918:A I *D sky130_fd_sc_hd__nand2_1
*I *1889:X O *D sky130_fd_sc_hd__and2_1
*CAP
1 *1917:A 0
2 *1918:A 0.000101134
3 *1889:X 0.000183416
4 *266:12 0.000284551
5 *1918:A *1917:B 3.76337e-05
6 *1918:A *1951:A 0
7 *266:12 *295:12 0
8 *266:12 *526:62 4.46186e-06
*RES
1 *1889:X *266:12 20.7821 
2 *266:12 *1918:A 11.5143 
3 *266:12 *1917:A 9.3 
*END

*D_NET *267 0.00093773
*CONN
*I *1895:B1 I *D sky130_fd_sc_hd__a221o_1
*I *1890:Y O *D sky130_fd_sc_hd__nand2_1
*CAP
1 *1895:B1 0.000277689
2 *1890:Y 0.000277689
3 *1895:B1 *1893:A1 0.000239224
4 *1895:B1 *1895:B2 1.28809e-05
5 *1895:B1 *1895:C1 5.52302e-05
6 *1895:B1 *526:62 1.97865e-05
7 *1889:A *1895:B1 5.52302e-05
*RES
1 *1890:Y *1895:B1 23.6536 
*END

*D_NET *268 0.000535822
*CONN
*I *1895:B2 I *D sky130_fd_sc_hd__a221o_1
*I *1891:X O *D sky130_fd_sc_hd__o21a_1
*CAP
1 *1895:B2 0.000140479
2 *1891:X 0.000140479
3 *1895:B2 *1892:A1 0
4 *1895:B2 *1893:A1 1.28809e-05
5 *1895:B2 *1895:A1 4.1331e-06
6 *1895:B2 *1896:C1 0
7 *1895:B2 *540:110 0.00010096
8 *1891:B1 *1895:B2 0.00012401
9 *1895:B1 *1895:B2 1.28809e-05
*RES
1 *1891:X *1895:B2 30.3188 
*END

*D_NET *269 0.00128313
*CONN
*I *1893:B2 I *D sky130_fd_sc_hd__o22a_1
*I *1892:Y O *D sky130_fd_sc_hd__a21oi_1
*CAP
1 *1893:B2 0.000250957
2 *1892:Y 0.000250957
3 *1893:B2 *566:35 0.000220463
4 *1891:A2 *1893:B2 0.000144773
5 *1891:B1 *1893:B2 0
6 *1893:B1 *1893:B2 1.02504e-05
7 *234:16 *1893:B2 0.000320024
8 *234:27 *1893:B2 8.57023e-05
*RES
1 *1892:Y *1893:B2 34.2786 
*END

*D_NET *270 0.000133673
*CONN
*I *1895:C1 I *D sky130_fd_sc_hd__a221o_1
*I *1893:X O *D sky130_fd_sc_hd__o22a_1
*CAP
1 *1895:C1 1.16062e-05
2 *1893:X 1.16062e-05
3 *1895:C1 *1893:A1 5.52302e-05
4 *1895:B1 *1895:C1 5.52302e-05
*RES
1 *1893:X *1895:C1 19.1357 
*END

*D_NET *271 0.000455052
*CONN
*I *1896:B1 I *D sky130_fd_sc_hd__a211o_1
*I *1894:X O *D sky130_fd_sc_hd__a32o_1
*CAP
1 *1896:B1 0.000119108
2 *1894:X 0.000119108
3 *1896:B1 *1896:C1 1.02504e-05
4 *1896:B1 *518:54 0
5 *1896:B1 *519:88 0.000151355
6 *1896:B1 *524:113 5.52302e-05
*RES
1 *1894:X *1896:B1 30.0821 
*END

*D_NET *272 0.00639122
*CONN
*I *1896:C1 I *D sky130_fd_sc_hd__a211o_1
*I *1895:X O *D sky130_fd_sc_hd__a221o_1
*CAP
1 *1896:C1 0.00182271
2 *1895:X 0.00182271
3 *1896:C1 *1607:B1 0.000140113
4 *1896:C1 *1892:A1 4.5534e-05
5 *1896:C1 *2081:A 0.000535712
6 *1896:C1 *391:12 4.46202e-05
7 *1896:C1 *440:28 0.000264117
8 *1896:C1 *518:54 5.7903e-06
9 *1896:C1 *519:88 6.38844e-06
10 *1896:C1 *540:97 9.62911e-05
11 *1836:A1 *1896:C1 0.000846629
12 *1895:B2 *1896:C1 0
13 *1896:B1 *1896:C1 1.02504e-05
14 *205:62 *1896:C1 9.4688e-06
15 *205:64 *1896:C1 0.000740892
*RES
1 *1895:X *1896:C1 40.585 
*END

*D_NET *273 0.0101978
*CONN
*I *1839:A I *D sky130_fd_sc_hd__xnor2_1
*I *1804:A1 I *D sky130_fd_sc_hd__a2111o_1
*I *2054:A I *D sky130_fd_sc_hd__buf_2
*I *1590:Y O *D sky130_fd_sc_hd__inv_2
*CAP
1 *1839:A 0.000456973
2 *1804:A1 0
3 *2054:A 0.000205052
4 *1590:Y 2.63024e-05
5 *273:27 0.00137987
6 *273:25 0.00150324
7 *273:8 0.000811697
8 *1839:A *1844:A2 0
9 *1839:A *536:16 0
10 *2054:A *1637:A2 0.000240785
11 *2054:A *423:10 0.000524889
12 *2054:A *454:18 4.00349e-05
13 *2054:A *518:54 1.52978e-05
14 *2054:A *519:88 0.000158337
15 *2054:A *543:42 0
16 *273:8 *518:54 9.71197e-05
17 *273:8 *550:32 5.03772e-05
18 *273:25 *1728:A0 0.000732668
19 *273:25 *518:54 0.000186631
20 *273:25 *519:88 0.000185446
21 *273:25 *534:118 0.00162918
22 *273:25 *543:42 0.000134549
23 *273:27 *1796:A1 2.04866e-05
24 *273:27 *515:33 1.76135e-05
25 *273:27 *515:42 0.000802638
26 *273:27 *536:16 0
27 *273:27 *536:20 0
28 *1781:A1 *273:27 0
29 *1804:B1 *273:27 0.000307518
30 *1839:B *1839:A 2.89016e-05
31 *1841:B *1839:A 5.74972e-05
32 *1843:A2 *1839:A 0.000117369
33 *103:8 *273:25 0.000109616
34 *103:10 *273:25 6.05161e-06
35 *105:10 *273:27 0.000253649
36 *167:25 *273:27 9.80405e-05
*RES
1 *1590:Y *273:8 14.7464 
2 *273:8 *2054:A 21.2107 
3 *273:8 *273:25 29.4107 
4 *273:25 *273:27 22.2857 
5 *273:27 *1804:A1 13.8 
6 *273:27 *1839:A 22.4607 
*END

*D_NET *274 0.00548148
*CONN
*I *1897:A_N I *D sky130_fd_sc_hd__nand2b_1
*I *1896:X O *D sky130_fd_sc_hd__a211o_1
*CAP
1 *1897:A_N 0
2 *1896:X 0.00135834
3 *274:20 0.00135834
4 *274:20 *1728:A0 4.75812e-05
5 *274:20 *1865:A1 5.59013e-05
6 *274:20 *1867:A1 6.05161e-06
7 *274:20 *1896:A1 7.32272e-05
8 *274:20 *1924:A1 5.7903e-06
9 *274:20 *1925:B1 0.000973033
10 *274:20 *2117:A 0.000716966
11 *274:20 *277:10 0
12 *274:20 *326:18 3.95516e-05
13 *274:20 *326:90 4.96356e-05
14 *274:20 *519:88 0.00012401
15 *274:20 *519:105 0.00015402
16 *274:20 *552:10 0
17 *1850:B *274:20 1.73088e-05
18 *1873:A *274:20 0
19 *1876:A *274:20 1.96658e-05
20 *1876:B *274:20 7.83587e-05
21 *1897:B *274:20 0.000111706
22 *1925:A1 *274:20 0
23 *243:14 *274:20 0
24 *245:10 *274:20 0.000291993
25 *250:10 *274:20 0
*RES
1 *1896:X *274:20 49.7464 
2 *274:20 *1897:A_N 9.3 
*END

*D_NET *275 0.000299552
*CONN
*I *1899:B I *D sky130_fd_sc_hd__xor2_1
*I *1898:Y O *D sky130_fd_sc_hd__nand2_1
*CAP
1 *1899:B 5.4391e-05
2 *1898:Y 5.4391e-05
3 *1899:B *518:82 9.7659e-05
4 *191:14 *1899:B 1.98839e-05
5 *191:22 *1899:B 7.32272e-05
*RES
1 *1898:Y *1899:B 20.3679 
*END

*D_NET *276 0.00103467
*CONN
*I *1955:A2 I *D sky130_fd_sc_hd__a21o_1
*I *1900:B I *D sky130_fd_sc_hd__xnor2_1
*I *1899:X O *D sky130_fd_sc_hd__xor2_1
*CAP
1 *1955:A2 0.000205365
2 *1900:B 0.000103686
3 *1899:X 0
4 *276:6 0.000309051
5 *1900:B *1925:B1 0
6 *1900:B *1955:A1 2.61296e-05
7 *1900:B *277:10 0
8 *1900:B *518:74 5.71472e-05
9 *1955:A2 *1955:A1 0.000291993
10 *1955:A2 *1955:B1 1.23973e-05
11 *1955:A2 *277:10 0
12 *1901:B *1955:A2 0
13 *191:22 *1900:B 2.89016e-05
14 *250:10 *1955:A2 0
*RES
1 *1899:X *276:6 13.8 
2 *276:6 *1900:B 15.8357 
3 *276:6 *1955:A2 18.175 
*END

*D_NET *277 0.00114563
*CONN
*I *1902:B1 I *D sky130_fd_sc_hd__a21oi_1
*I *1901:C I *D sky130_fd_sc_hd__and3_1
*I *1900:Y O *D sky130_fd_sc_hd__xnor2_1
*CAP
1 *1902:B1 0.000177604
2 *1901:C 4.3885e-05
3 *1900:Y 0.000161775
4 *277:10 0.000383264
5 *1902:B1 *526:98 3.48705e-05
6 *277:10 *1925:B1 6.8646e-06
7 *1900:B *277:10 0
8 *1901:B *277:10 3.92854e-05
9 *1902:A1 *1902:B1 9.80173e-05
10 *1955:A2 *277:10 0
11 *247:14 *1902:B1 0
12 *247:14 *277:10 7.17932e-05
13 *247:25 *1901:C 6.28435e-05
14 *247:25 *1902:B1 4.27935e-05
15 *250:10 *277:10 2.26327e-05
16 *274:20 *277:10 0
*RES
1 *1900:Y *277:10 21.1571 
2 *277:10 *1901:C 9.90714 
3 *277:10 *1902:B1 11.9071 
*END

*D_NET *278 0.000458706
*CONN
*I *1925:A2 I *D sky130_fd_sc_hd__o31ai_1
*I *1901:X O *D sky130_fd_sc_hd__and3_1
*CAP
1 *1925:A2 5.6593e-05
2 *1901:X 5.6593e-05
3 *1925:A2 *1925:A3 0.0001399
4 *1925:A2 *526:98 0.00020562
*RES
1 *1901:X *1925:A2 20.5732 
*END

*D_NET *279 0.0020614
*CONN
*I *1955:B1 I *D sky130_fd_sc_hd__a21o_1
*I *1925:A3 I *D sky130_fd_sc_hd__o31ai_1
*I *1902:Y O *D sky130_fd_sc_hd__a21oi_1
*CAP
1 *1955:B1 0.000260132
2 *1925:A3 0.000259372
3 *1902:Y 0
4 *279:4 0.000519503
5 *1925:A3 *526:98 0.000326054
6 *1955:B1 *1955:A1 6.39901e-05
7 *1955:B1 *2075:A 5.59013e-05
8 *1955:B1 *526:98 0.000265441
9 *1955:B1 *538:12 1.88048e-05
10 *1845:A *1955:B1 0
11 *1901:B *1925:A3 0.000139907
12 *1925:A2 *1925:A3 0.0001399
13 *1955:A2 *1955:B1 1.23973e-05
*RES
1 *1902:Y *279:4 9.3 
2 *279:4 *1925:A3 14.4964 
3 *279:4 *1955:B1 23.7464 
*END

*D_NET *280 0.0026
*CONN
*I *1905:A I *D sky130_fd_sc_hd__or2_1
*I *1977:A1 I *D sky130_fd_sc_hd__a21o_1
*I *1947:A I *D sky130_fd_sc_hd__xnor2_1
*I *1903:X O *D sky130_fd_sc_hd__and4_1
*CAP
1 *1905:A 0
2 *1977:A1 0
3 *1947:A 0.000131364
4 *1903:X 0.000276735
5 *280:26 0.000305376
6 *280:22 0.000450747
7 *1947:A *1945:B1 0.000247778
8 *1947:A *1947:B 0.000175519
9 *1947:A *325:12 4.10841e-05
10 *1947:A *388:10 1.5605e-05
11 *280:22 *1904:A1 2.21972e-05
12 *280:22 *1905:B 5.41794e-05
13 *280:22 *1912:A_N 9.10431e-06
14 *280:22 *1913:B 0.000202184
15 *280:22 *526:19 4.75715e-05
16 *280:22 *526:62 9.22026e-05
17 *280:22 *527:76 0.00011954
18 *280:26 *1912:B 7.96703e-05
19 *280:26 *1977:A2 2.59355e-05
20 *280:26 *288:8 0.000271339
21 *280:26 *289:6 3.18676e-05
*RES
1 *1903:X *280:22 28.7974 
2 *280:22 *280:26 4.25 
3 *280:26 *1947:A 22.4071 
4 *280:26 *1977:A1 9.3 
5 *280:22 *1905:A 9.3 
*END

*D_NET *281 0.00106806
*CONN
*I *1905:B I *D sky130_fd_sc_hd__or2_1
*I *1904:Y O *D sky130_fd_sc_hd__a22oi_1
*CAP
1 *1905:B 0.000186558
2 *1904:Y 0.000186558
3 *1905:B *1912:A_N 3.17148e-05
4 *1905:B *1912:B 0.000139913
5 *1905:B *1913:A 7.83659e-05
6 *1905:B *1944:B 3.34366e-05
7 *1905:B *1945:A2 6.98302e-05
8 *1905:B *282:8 5.52238e-05
9 *1905:B *288:8 2.89114e-05
10 *1905:B *289:6 0.000147465
11 *1905:B *526:19 5.59013e-05
12 *280:22 *1905:B 5.41794e-05
*RES
1 *1904:Y *1905:B 41.3857 
*END

*D_NET *282 0.00103422
*CONN
*I *1913:A I *D sky130_fd_sc_hd__xnor2_1
*I *1912:A_N I *D sky130_fd_sc_hd__nand2b_1
*I *1905:X O *D sky130_fd_sc_hd__or2_1
*CAP
1 *1913:A 0.000140905
2 *1912:A_N 3.43794e-05
3 *1905:X 3.92359e-05
4 *282:8 0.00021452
5 *1912:A_N *1913:B 2.84494e-05
6 *1912:A_N *1944:B 2.39779e-05
7 *1913:A *1913:B 0.000157922
8 *1913:A *1945:A2 1.08524e-05
9 *1913:A *527:76 6.57648e-05
10 *1913:A *527:89 0.000143804
11 *1905:B *1912:A_N 3.17148e-05
12 *1905:B *1913:A 7.83659e-05
13 *1905:B *282:8 5.52238e-05
14 *280:22 *1912:A_N 9.10431e-06
*RES
1 *1905:X *282:8 14.3357 
2 *282:8 *1912:A_N 14.8357 
3 *282:8 *1913:A 17.8714 
*END

*D_NET *283 0.0171145
*CONN
*I *1786:C1 I *D sky130_fd_sc_hd__a211o_1
*I *1787:C1 I *D sky130_fd_sc_hd__o211a_1
*I *1747:A I *D sky130_fd_sc_hd__xnor2_1
*I *2026:C I *D sky130_fd_sc_hd__or4b_1
*I *1646:A I *D sky130_fd_sc_hd__xnor2_2
*I *1702:B1 I *D sky130_fd_sc_hd__a21oi_1
*I *1703:B1 I *D sky130_fd_sc_hd__a21o_1
*I *1701:A I *D sky130_fd_sc_hd__and3_1
*I *1591:Y O *D sky130_fd_sc_hd__inv_2
*CAP
1 *1786:C1 2.46494e-05
2 *1787:C1 0
3 *1747:A 0.000672608
4 *2026:C 9.44472e-05
5 *1646:A 0
6 *1702:B1 0
7 *1703:B1 2.114e-05
8 *1701:A 6.19568e-05
9 *1591:Y 3.09283e-05
10 *283:93 0.000952458
11 *283:85 0.00105008
12 *283:67 0.000797644
13 *283:32 0.000131303
14 *283:26 0.000994297
15 *283:12 0.00237565
16 *283:8 0.00150287
17 *1747:A *531:25 0.000171954
18 *1747:A *565:73 0
19 *2026:C *2026:D_N 0.000180777
20 *2026:C *477:8 0.000296836
21 *283:8 *1591:A 0.000144773
22 *283:8 *1645:A 8.57023e-05
23 *283:8 *471:49 0.000230475
24 *283:12 *1673:C 0.000240491
25 *283:12 *471:26 5.25326e-05
26 *283:12 *471:41 2.1527e-05
27 *283:12 *471:49 0.000632233
28 *283:12 *531:72 0
29 *283:12 *534:74 0.000137939
30 *283:12 *536:20 1.08359e-05
31 *283:12 *536:22 2.46318e-05
32 *283:12 *536:24 1.37292e-05
33 *283:26 *1698:B1 0.000180962
34 *283:26 *1709:B1 9.83388e-05
35 *283:26 *546:81 8.03176e-05
36 *283:67 *1645:A 0.00018168
37 *283:67 *1688:B1 5.52302e-05
38 *283:67 *2026:D_N 0.00014285
39 *283:67 *477:8 0.000214082
40 *283:67 *477:10 0.000229456
41 *283:67 *479:10 1.5424e-05
42 *283:67 *546:81 0.000154101
43 *283:85 *1725:A 0.000221163
44 *283:85 *531:72 0
45 *283:85 *536:16 0.000227521
46 *283:85 *536:20 0.000545123
47 *283:85 *542:63 0.000113877
48 *283:93 *1787:A2 0.000104135
49 *283:93 *497:27 0.00013921
50 *1674:D *283:12 0.000125731
51 *1700:B *1701:A 0
52 *1703:A2 *283:26 5.49489e-05
53 *1706:B1 *283:26 0
54 *1711:B *1701:A 8.34951e-05
55 *1711:B *1703:B1 2.59355e-05
56 *1716:A1 *283:12 0.000216304
57 *1733:B *283:85 2.04825e-05
58 *1747:B *1747:A 9.90367e-05
59 *1785:A *283:85 0.000412326
60 *1786:A1 *283:93 1.97756e-05
61 *1786:B1 *1786:C1 1.04232e-05
62 *1786:B1 *283:85 2.77258e-05
63 *1786:B1 *283:93 1.92789e-05
64 *1787:A1 *283:93 0.000182592
65 *48:12 *283:12 0.000168217
66 *48:12 *283:26 0
67 *73:12 *1701:A 0
68 *73:31 *1701:A 7.32173e-05
69 *73:31 *1703:B1 1.98839e-05
70 *74:8 *283:26 0.000181957
71 *74:14 *283:26 0.000141131
72 *77:12 *283:32 0.000150618
73 *84:44 *283:32 0.000148911
74 *97:10 *283:85 0.000895987
75 *97:21 *283:85 0.00015134
76 *155:14 *283:85 0
77 *162:12 *283:93 0.000227286
*RES
1 *1591:Y *283:8 15.9786 
2 *283:8 *283:12 23.75 
3 *283:12 *283:26 24.75 
4 *283:26 *283:32 10.9464 
5 *283:32 *1701:A 11.0857 
6 *283:32 *1703:B1 9.83571 
7 *283:26 *1702:B1 9.3 
8 *283:12 *283:67 14.1071 
9 *283:67 *1646:A 9.3 
10 *283:67 *2026:C 12.3 
11 *283:8 *283:85 28.5536 
12 *283:85 *283:93 6.85714 
13 *283:93 *1747:A 29.3 
14 *283:93 *1787:C1 9.3 
15 *283:85 *1786:C1 10.0321 
*END

*D_NET *284 0.00132922
*CONN
*I *1910:A_N I *D sky130_fd_sc_hd__nand2b_1
*I *1911:A I *D sky130_fd_sc_hd__xnor2_2
*I *1906:X O *D sky130_fd_sc_hd__o21ba_1
*CAP
1 *1910:A_N 0.00014676
2 *1911:A 0
3 *1906:X 0.000213656
4 *284:8 0.000360416
5 *1910:A_N *1910:B 0.000444673
6 *1910:A_N *289:6 5.33005e-05
7 *284:8 *1910:B 5.00917e-05
8 *1882:A *284:8 3.14078e-05
9 *1882:B *284:8 2.89114e-05
*RES
1 *1906:X *284:8 13.1393 
2 *284:8 *1911:A 9.3 
3 *284:8 *1910:A_N 13.5321 
*END

*D_NET *285 0.000631091
*CONN
*I *2124:A I *D sky130_fd_sc_hd__dlymetal6s2s_1
*I *1908:B1 I *D sky130_fd_sc_hd__a21oi_2
*I *1907:X O *D sky130_fd_sc_hd__and3_1
*CAP
1 *2124:A 3.2426e-05
2 *1908:B1 0.000126106
3 *1907:X 2.23854e-05
4 *285:6 0.000180917
5 *1908:B1 *1907:B 0.000206464
6 *1908:B1 *1908:A1 4.46186e-06
7 *1908:B1 *517:58 0
8 *1907:C *1908:B1 5.83304e-05
*RES
1 *1907:X *285:6 9.72857 
2 *285:6 *1908:B1 21.3893 
3 *285:6 *2124:A 9.83571 
*END

*D_NET *286 0.00144713
*CONN
*I *1932:A1 I *D sky130_fd_sc_hd__a31oi_2
*I *2122:A I *D sky130_fd_sc_hd__buf_2
*I *1908:Y O *D sky130_fd_sc_hd__a21oi_2
*CAP
1 *1932:A1 0
2 *2122:A 0.000234506
3 *1908:Y 0.000234157
4 *286:8 0.000468663
5 *2122:A *1932:A3 0.000150625
6 *2122:A *1932:B1 0.000175456
7 *286:8 *1932:A3 0.00018372
*RES
1 *1908:Y *286:8 13.1393 
2 *286:8 *2122:A 22.8536 
3 *286:8 *1932:A1 9.3 
*END

*D_NET *287 0.00242495
*CONN
*I *1911:B I *D sky130_fd_sc_hd__xnor2_2
*I *1910:B I *D sky130_fd_sc_hd__nand2b_1
*I *1909:Y O *D sky130_fd_sc_hd__xnor2_2
*CAP
1 *1911:B 0
2 *1910:B 0.00031756
3 *1909:Y 0.00017124
4 *287:12 0.0004888
5 *1910:B *289:6 2.67132e-05
6 *287:12 *1982:B1 0.000192204
7 *287:12 *523:16 0.000125057
8 *287:12 *537:69 0.000367382
9 *287:12 *544:28 0.000227526
10 *1882:A *1910:B 1.3701e-05
11 *1910:A_N *1910:B 0.000444673
12 *284:8 *1910:B 5.00917e-05
*RES
1 *1909:Y *287:12 25.1571 
2 *287:12 *1910:B 15.7509 
3 *287:12 *1911:B 9.3 
*END

*D_NET *288 0.00247438
*CONN
*I *1945:A1 I *D sky130_fd_sc_hd__a21oi_1
*I *1944:A I *D sky130_fd_sc_hd__and3_1
*I *1910:Y O *D sky130_fd_sc_hd__nand2b_1
*CAP
1 *1945:A1 7.83689e-05
2 *1944:A 0.000177547
3 *1910:Y 0.000424684
4 *288:8 0.000680599
5 *1944:A *1944:B 0.000139826
6 *1944:A *1945:B1 0.000122426
7 *1944:A *323:14 1.95435e-05
8 *1945:A1 *1944:B 0.000121333
9 *1945:A1 *1945:A2 0.000151355
10 *1945:A1 *1945:B1 0.000148851
11 *288:8 *289:6 0.000109596
12 *1905:B *288:8 2.89114e-05
13 *280:26 *288:8 0.000271339
*RES
1 *1910:Y *288:8 19.675 
2 *288:8 *1944:A 17.6393 
3 *288:8 *1945:A1 17.2643 
*END

*D_NET *289 0.0022162
*CONN
*I *1912:B I *D sky130_fd_sc_hd__nand2b_1
*I *1913:B I *D sky130_fd_sc_hd__xnor2_1
*I *1911:Y O *D sky130_fd_sc_hd__xnor2_2
*CAP
1 *1912:B 4.80601e-05
2 *1913:B 0.000200502
3 *1911:Y 0.000297281
4 *289:6 0.000545843
5 *1912:B *1977:A2 0
6 *1913:B *1904:A1 0.000100476
7 *1913:B *526:62 3.91566e-05
8 *1913:B *527:89 7.79781e-06
9 *1905:B *1912:B 0.000139913
10 *1905:B *289:6 0.000147465
11 *1910:A_N *289:6 5.33005e-05
12 *1910:B *289:6 2.67132e-05
13 *1912:A_N *1913:B 2.84494e-05
14 *1913:A *1913:B 0.000157922
15 *280:22 *1913:B 0.000202184
16 *280:26 *1912:B 7.96703e-05
17 *280:26 *289:6 3.18676e-05
18 *288:8 *289:6 0.000109596
*RES
1 *1911:Y *289:6 15.175 
2 *289:6 *1913:B 23.8179 
3 *289:6 *1912:B 11.2152 
*END

*D_NET *290 0.00121382
*CONN
*I *1945:A2 I *D sky130_fd_sc_hd__a21oi_1
*I *1944:B I *D sky130_fd_sc_hd__and3_1
*I *1912:Y O *D sky130_fd_sc_hd__nand2b_1
*CAP
1 *1945:A2 5.31772e-05
2 *1944:B 0.000204791
3 *1912:Y 0
4 *290:6 0.000257968
5 *1944:B *323:14 0.000103974
6 *1944:B *388:10 0
7 *1944:B *526:19 0
8 *1945:A2 *527:76 4.33002e-05
9 *1905:B *1944:B 3.34366e-05
10 *1905:B *1945:A2 6.98302e-05
11 *1912:A_N *1944:B 2.39779e-05
12 *1913:A *1945:A2 1.08524e-05
13 *1944:A *1944:B 0.000139826
14 *1945:A1 *1944:B 0.000121333
15 *1945:A1 *1945:A2 0.000151355
*RES
1 *1912:Y *290:6 13.8 
2 *290:6 *1944:B 18.4071 
3 *290:6 *1945:A2 15.7464 
*END

*D_NET *291 0.00110622
*CONN
*I *1914:B1 I *D sky130_fd_sc_hd__o21ai_1
*I *1915:C I *D sky130_fd_sc_hd__or3_1
*I *1913:Y O *D sky130_fd_sc_hd__xnor2_1
*CAP
1 *1914:B1 0.000130304
2 *1915:C 0
3 *1913:Y 0.000158082
4 *291:8 0.000288386
5 *1914:B1 *292:12 1.92789e-05
6 *1914:B1 *526:62 0
7 *291:8 *388:10 0
8 *291:8 *527:89 0.000128812
9 *1888:B *1914:B1 0
10 *1914:A1 *1914:B1 0.000187733
11 *1914:A2 *1914:B1 5.52238e-05
12 *260:10 *1914:B1 1.02504e-05
13 *260:10 *291:8 0.000128154
*RES
1 *1913:Y *291:8 18.175 
2 *291:8 *1915:C 13.8 
3 *291:8 *1914:B1 16.8893 
*END

*D_NET *292 0.00117939
*CONN
*I *1950:A I *D sky130_fd_sc_hd__nand2_1
*I *1948:A I *D sky130_fd_sc_hd__or2_4
*I *1916:A I *D sky130_fd_sc_hd__and2_1
*I *1914:Y O *D sky130_fd_sc_hd__o21ai_1
*CAP
1 *1950:A 7.53701e-05
2 *1948:A 0
3 *1916:A 0
4 *1914:Y 0.000196812
5 *292:19 0.000243118
6 *292:12 0.00036456
7 *1950:A *1950:B 5.52302e-05
8 *292:12 *1916:B 0.000128154
9 *292:12 *388:10 6.5185e-05
10 *1914:A1 *292:12 2.59355e-05
11 *1914:A2 *292:12 5.74499e-06
12 *1914:B1 *292:12 1.92789e-05
*RES
1 *1914:Y *292:12 21.7107 
2 *292:12 *1916:A 9.3 
3 *292:12 *292:19 2.58929 
4 *292:19 *1948:A 9.3 
5 *292:19 *1950:A 10.6571 
*END

*D_NET *293 0.000796293
*CONN
*I *1916:B I *D sky130_fd_sc_hd__and2_1
*I *1915:X O *D sky130_fd_sc_hd__or3_1
*CAP
1 *1916:B 0.000224943
2 *1915:X 0.000224943
3 *1916:B *388:10 6.76272e-05
4 *1916:B *526:62 0
5 *1914:A1 *1916:B 0.000150625
6 *292:12 *1916:B 0.000128154
*RES
1 *1915:X *1916:B 32.6179 
*END

*D_NET *294 0.0167736
*CONN
*I *1626:B I *D sky130_fd_sc_hd__and3_1
*I *1627:B1 I *D sky130_fd_sc_hd__a21oi_1
*I *1666:A2 I *D sky130_fd_sc_hd__a221o_1
*I *1696:A I *D sky130_fd_sc_hd__xnor2_1
*I *1781:C1 I *D sky130_fd_sc_hd__o211a_1
*I *1592:Y O *D sky130_fd_sc_hd__inv_2
*CAP
1 *1626:B 9.50759e-05
2 *1627:B1 7.40716e-05
3 *1666:A2 3.85826e-05
4 *1696:A 0.00020027
5 *1781:C1 0.000714638
6 *1592:Y 0
7 *294:55 0.00193886
8 *294:47 0.00180481
9 *294:43 0.00110254
10 *294:4 0.00169137
11 *1626:B *565:62 0.000128496
12 *1627:B1 *1626:A 7.8613e-05
13 *1627:B1 *1626:C 0.00012377
14 *1627:B1 *1644:A0 0.000181796
15 *1627:B1 *565:62 4.43256e-05
16 *1666:A2 *1666:A1 1.46576e-05
17 *1666:A2 *1698:B1 1.08359e-05
18 *1666:A2 *484:10 2.61337e-05
19 *1666:A2 *485:12 6.98302e-05
20 *1696:A *1696:B 0.00010096
21 *1696:A *484:10 6.74815e-05
22 *1696:A *485:12 0.000301567
23 *1696:A *495:12 0
24 *1696:A *546:73 0
25 *1781:C1 *1780:C1 0.0001888
26 *1781:C1 *1867:A1 2.59355e-05
27 *1781:C1 *1867:A2 0.000561392
28 *1781:C1 *1924:A2 0.00010326
29 *1781:C1 *543:23 0.000333228
30 *1781:C1 *552:10 3.34672e-05
31 *294:43 *1600:B 0.000200406
32 *294:43 *1610:A 0.000245813
33 *294:43 *1728:A0 7.6644e-05
34 *294:43 *2084:A 0.000168051
35 *294:43 *515:88 0.000695769
36 *294:43 *518:54 0.000712719
37 *294:43 *548:94 0.000183713
38 *294:43 *552:10 0.000240469
39 *294:43 *552:12 0.000531073
40 *294:43 *565:62 0.00030926
41 *294:47 *1626:C 7.05375e-05
42 *294:47 *1644:A0 1.76135e-05
43 *294:47 *552:46 1.46624e-05
44 *294:55 *1626:C 3.34366e-05
45 *294:55 *1640:A2 0
46 *294:55 *1644:A0 5.9378e-05
47 *294:55 *1647:A 0
48 *294:55 *1656:A1 0.000150618
49 *294:55 *1657:A1 0.00024292
50 *294:55 *1657:B1 0.000172375
51 *294:55 *459:16 8.00806e-05
52 *294:55 *473:10 6.16744e-05
53 *294:55 *474:18 0.000214335
54 *294:55 *517:8 0.000270078
55 *294:55 *517:14 1.74352e-05
56 *294:55 *518:33 8.03068e-05
57 *294:55 *518:54 0
58 *294:55 *552:46 0.000123323
59 *1660:B1 *294:55 8.0786e-06
60 *1776:B *1781:C1 5.52238e-05
61 *1781:A1 *1781:C1 5.52238e-05
62 *1781:B1 *1781:C1 1.21436e-05
63 *1896:A2 *294:43 0.000364095
64 *34:8 *294:55 0.00109497
65 *39:10 *1666:A2 1.46576e-05
66 *151:6 *1781:C1 0.000135953
67 *243:14 *1781:C1 5.74499e-06
*RES
1 *1592:Y *294:4 9.3 
2 *294:4 *1781:C1 34.5679 
3 *294:4 *294:43 36.4107 
4 *294:43 *294:47 5.53571 
5 *294:47 *294:55 39.25 
6 *294:55 *1696:A 19.2286 
7 *294:55 *1666:A2 14.983 
8 *294:47 *1627:B1 16.3893 
9 *294:43 *1626:B 10.6571 
*END

*D_NET *295 0.000583827
*CONN
*I *1917:B I *D sky130_fd_sc_hd__or2_1
*I *1918:B I *D sky130_fd_sc_hd__nand2_1
*I *1916:X O *D sky130_fd_sc_hd__and2_1
*CAP
1 *1917:B 0.000101644
2 *1918:B 0
3 *1916:X 0.000171452
4 *295:12 0.000273097
5 *1917:B *1951:A 0
6 *295:12 *388:10 0
7 *1918:A *1917:B 3.76337e-05
8 *266:12 *295:12 0
*RES
1 *1916:X *295:12 20.7821 
2 *295:12 *1918:B 9.3 
3 *295:12 *1917:B 11.0857 
*END

*D_NET *296 0.00133654
*CONN
*I *1923:A2 I *D sky130_fd_sc_hd__a311o_1
*I *1917:X O *D sky130_fd_sc_hd__or2_1
*CAP
1 *1923:A2 0.000583654
2 *1917:X 0.000583654
3 *1923:A2 *1895:A1 0
4 *1923:A2 *520:8 5.76121e-05
5 *1923:A2 *534:147 0
6 *1923:A2 *566:35 3.32631e-05
7 *1891:B1 *1923:A2 7.83587e-05
*RES
1 *1917:X *1923:A2 35.225 
*END

*D_NET *297 0.00290454
*CONN
*I *1953:A I *D sky130_fd_sc_hd__nor2_1
*I *1954:A1 I *D sky130_fd_sc_hd__o21a_1
*I *1952:A I *D sky130_fd_sc_hd__nand2_1
*I *1923:A3 I *D sky130_fd_sc_hd__a311o_1
*I *1918:Y O *D sky130_fd_sc_hd__nand2_1
*CAP
1 *1953:A 0
2 *1954:A1 5.5939e-05
3 *1952:A 2.23854e-05
4 *1923:A3 0.000256325
5 *1918:Y 0.000234976
6 *297:36 0.000202579
7 *297:12 0.000591684
8 *297:8 0.000694589
9 *1923:A3 *1895:A1 0
10 *1923:A3 *1920:A2 9.16173e-05
11 *1923:A3 *1921:A 8.50152e-05
12 *1923:A3 *1923:B1 0
13 *1923:A3 *1923:C1 4.87854e-05
14 *1923:A3 *1967:B1 1.74352e-05
15 *1952:A *1921:A 0
16 *1954:A1 *332:21 0.00014285
17 *297:8 *332:12 0
18 *297:8 *345:10 0
19 *297:12 *1952:B 0.000401758
20 *297:12 *1967:B1 5.30637e-06
21 *297:36 *1952:B 0
22 *297:36 *332:12 0
23 *1921:B *1923:A3 5.33005e-05
24 *196:74 *297:8 0
*RES
1 *1918:Y *297:8 17.8714 
2 *297:8 *297:12 10.7857 
3 *297:12 *1923:A3 23.4429 
4 *297:12 *1952:A 9.72857 
5 *297:8 *297:36 7.05357 
6 *297:36 *1954:A1 10.6571 
7 *297:36 *1953:A 9.3 
*END

*D_NET *298 0.00122931
*CONN
*I *1920:B2 I *D sky130_fd_sc_hd__o22a_1
*I *1919:Y O *D sky130_fd_sc_hd__a21oi_1
*CAP
1 *1920:B2 0.000145062
2 *1919:Y 0.000145062
3 *1920:B2 *1920:A1 0.000240208
4 *1920:B2 *1920:A2 5.52238e-05
5 *1920:B2 *1967:B2 2.77289e-05
6 *1920:B2 *1969:B 5.52302e-05
7 *1920:B2 *518:124 2.08465e-05
8 *1920:B1 *1920:B2 0.000418995
9 *1967:A2 *1920:B2 0.00012095
*RES
1 *1919:Y *1920:B2 24.3857 
*END

*D_NET *299 0.00123232
*CONN
*I *1923:B1 I *D sky130_fd_sc_hd__a311o_1
*I *1920:X O *D sky130_fd_sc_hd__o22a_1
*CAP
1 *1923:B1 0.000336942
2 *1920:X 0.000336942
3 *1923:B1 *1920:A2 9.91086e-05
4 *1923:B1 *1921:A 5.31278e-05
5 *1923:B1 *1923:C1 0.000150618
6 *1923:B1 *1967:B2 0.00022459
7 *1923:B1 *534:147 3.09963e-05
8 *1923:A3 *1923:B1 0
*RES
1 *1920:X *1923:B1 34.1536 
*END

*D_NET *300 0.000541364
*CONN
*I *1923:C1 I *D sky130_fd_sc_hd__a311o_1
*I *1921:X O *D sky130_fd_sc_hd__and2_1
*CAP
1 *1923:C1 0.000131817
2 *1921:X 0.000131817
3 *1923:C1 *534:147 7.8327e-05
4 *1923:A3 *1923:C1 4.87854e-05
5 *1923:B1 *1923:C1 0.000150618
*RES
1 *1921:X *1923:C1 30.4929 
*END

*D_NET *301 0.000258287
*CONN
*I *1924:B1 I *D sky130_fd_sc_hd__a211oi_1
*I *1922:X O *D sky130_fd_sc_hd__a32o_1
*CAP
1 *1924:B1 4.50343e-05
2 *1922:X 4.50343e-05
3 *1924:B1 *1596:C 4.43256e-05
4 *1924:B1 *302:14 0.000123893
*RES
1 *1922:X *1924:B1 19.9571 
*END

*D_NET *302 0.00771328
*CONN
*I *1924:C1 I *D sky130_fd_sc_hd__a211oi_1
*I *1923:X O *D sky130_fd_sc_hd__a311o_1
*CAP
1 *1924:C1 0
2 *1923:X 0.00189264
3 *302:14 0.00189264
4 *302:14 *1596:C 0.000698978
5 *302:14 *1968:A3 0.000110029
6 *302:14 *1968:B1 0.00214171
7 *302:14 *351:22 0.000522439
8 *302:14 *538:12 4.35881e-05
9 *302:14 *538:24 6.67542e-05
10 *1924:B1 *302:14 0.000123893
11 *211:16 *302:14 0.000220608
*RES
1 *1923:X *302:14 46.05 
2 *302:14 *1924:C1 9.3 
*END

*D_NET *303 0.00263492
*CONN
*I *1925:B1 I *D sky130_fd_sc_hd__o31ai_1
*I *1924:Y O *D sky130_fd_sc_hd__a211oi_1
*CAP
1 *1925:B1 0.000342096
2 *1924:Y 0.000342096
3 *1925:B1 *518:67 0
4 *1925:B1 *519:105 0.000720192
5 *1925:B1 *526:98 5.33005e-05
6 *1873:B *1925:B1 5.33005e-05
7 *1900:B *1925:B1 0
8 *247:14 *1925:B1 0.000144038
9 *274:20 *1925:B1 0.000973033
10 *277:10 *1925:B1 6.8646e-06
*RES
1 *1924:Y *1925:B1 40.7071 
*END

*D_NET *304 0.000891748
*CONN
*I *1753:A1_N I *D sky130_fd_sc_hd__o2bb2a_1
*I *1752:A1 I *D sky130_fd_sc_hd__o21bai_1
*I *1593:Y O *D sky130_fd_sc_hd__inv_2
*CAP
1 *1753:A1_N 0
2 *1752:A1 2.01936e-05
3 *1593:Y 0.000121988
4 *304:12 0.000142182
5 *304:12 *471:71 0
6 *304:12 *534:50 0.00014465
7 *1753:B1 *1752:A1 0.000120527
8 *1753:B1 *304:12 0.00010466
9 *113:6 *304:12 8.2607e-05
10 *113:10 *1752:A1 0.000120039
11 *113:10 *304:12 3.49005e-05
*RES
1 *1593:Y *304:12 21.3982 
2 *304:12 *1752:A1 10.4518 
3 *304:12 *1753:A1_N 9.3 
*END

*D_NET *305 0.00128134
*CONN
*I *1929:B1 I *D sky130_fd_sc_hd__o21a_1
*I *1930:A I *D sky130_fd_sc_hd__nor3_1
*I *1926:Y O *D sky130_fd_sc_hd__nand2_1
*CAP
1 *1929:B1 8.33111e-05
2 *1930:A 0
3 *1926:Y 0.0001896
4 *305:12 0.000272911
5 *1929:B1 *1930:B 0.000148196
6 *1929:B1 *1930:C 0.000119834
7 *1929:B1 *1979:A2 5.52238e-05
8 *305:12 *1930:C 5.52302e-05
9 *305:12 *1979:A2 0.000312222
10 *305:12 *1984:A 4.48113e-05
11 *305:12 *566:35 0
*RES
1 *1926:Y *305:12 22.9429 
2 *305:12 *1930:A 9.3 
3 *305:12 *1929:B1 20.7821 
*END

*D_NET *306 0.0022002
*CONN
*I *1979:B1 I *D sky130_fd_sc_hd__a211oi_1
*I *1978:A1 I *D sky130_fd_sc_hd__o211a_1
*I *1930:B I *D sky130_fd_sc_hd__nor3_1
*I *1929:A1 I *D sky130_fd_sc_hd__o21a_1
*I *1927:X O *D sky130_fd_sc_hd__and4_1
*CAP
1 *1979:B1 0.000130008
2 *1978:A1 1.99857e-05
3 *1930:B 0.000125576
4 *1929:A1 0.000129159
5 *1927:X 7.98921e-05
6 *306:36 0.000316569
7 *306:12 0.000301583
8 *306:10 0.000293316
9 *1929:A1 *1978:C1 9.71197e-05
10 *1929:A1 *527:18 4.13595e-05
11 *1930:B *1930:C 1.18451e-05
12 *1930:B *1931:A 6.42338e-05
13 *1930:B *1978:B1 0
14 *1930:B *1978:C1 1.52978e-05
15 *1930:B *309:16 0
16 *1930:B *566:35 0
17 *1978:A1 *1978:A2 1.04232e-05
18 *1978:A1 *1978:C1 0
19 *1978:A1 *1979:C1 0
20 *1979:B1 *1979:C1 0.000117543
21 *1979:B1 *527:8 1.56e-05
22 *306:10 *1978:C1 0
23 *306:10 *323:14 0
24 *306:12 *1978:C1 8.66063e-05
25 *306:36 *1978:C1 0.000131439
26 *306:36 *1979:C1 1.74352e-05
27 *306:36 *309:16 4.70078e-05
28 *1929:B1 *1930:B 0.000148196
*RES
1 *1927:X *306:10 19.6393 
2 *306:10 *306:12 0.946429 
3 *306:12 *1929:A1 11.4964 
4 *306:12 *1930:B 21.4607 
5 *306:10 *306:36 3.42857 
6 *306:36 *1978:A1 9.72857 
7 *306:36 *1979:B1 11.8893 
*END

*D_NET *307 0.00176715
*CONN
*I *1929:A2 I *D sky130_fd_sc_hd__o21a_1
*I *1930:C I *D sky130_fd_sc_hd__nor3_1
*I *1928:Y O *D sky130_fd_sc_hd__a22oi_1
*CAP
1 *1929:A2 0
2 *1930:C 0.000167777
3 *1928:Y 0.000255955
4 *307:10 0.000423732
5 *1930:C *1978:C1 5.7616e-05
6 *1930:C *1979:A2 4.43256e-05
7 *1930:C *309:8 7.43578e-06
8 *1930:C *541:36 0.000128168
9 *1930:C *566:35 5.64858e-05
10 *307:10 *1978:C1 7.83587e-05
11 *307:10 *527:34 9.60875e-05
12 *307:10 *529:14 0.000196188
13 *307:10 *541:36 6.81083e-05
14 *1929:B1 *1930:C 0.000119834
15 *1930:B *1930:C 1.18451e-05
16 *305:12 *1930:C 5.52302e-05
*RES
1 *1928:Y *307:10 17.8357 
2 *307:10 *1930:C 18.7286 
3 *307:10 *1929:A2 13.8 
*END

*D_NET *308 0.000376206
*CONN
*I *1931:A I *D sky130_fd_sc_hd__nor2_1
*I *1929:X O *D sky130_fd_sc_hd__o21a_1
*CAP
1 *1931:A 9.62671e-05
2 *1929:X 9.62671e-05
3 *1931:A *309:16 6.42145e-05
4 *1931:A *527:18 5.52238e-05
5 *1930:B *1931:A 6.42338e-05
*RES
1 *1929:X *1931:A 29.7786 
*END

*D_NET *309 0.00152867
*CONN
*I *1931:B I *D sky130_fd_sc_hd__nor2_1
*I *1979:C1 I *D sky130_fd_sc_hd__a211oi_1
*I *1978:A2 I *D sky130_fd_sc_hd__o211a_1
*I *1930:Y O *D sky130_fd_sc_hd__nor3_1
*CAP
1 *1931:B 0
2 *1979:C1 7.75063e-05
3 *1978:A2 1.82115e-05
4 *1930:Y 0.000101686
5 *309:16 0.000257156
6 *309:8 0.000263124
7 *1978:A2 *1978:C1 3.99614e-06
8 *1978:A2 *527:18 0
9 *1979:C1 *527:8 0.000255062
10 *309:8 *1979:A2 3.97657e-05
11 *309:8 *310:12 1.33343e-05
12 *309:16 *1978:B1 9.69119e-06
13 *309:16 *1978:C1 2.89114e-05
14 *309:16 *323:14 0
15 *309:16 *527:8 5.52302e-05
16 *309:16 *527:18 0.000140933
17 *1930:B *309:16 0
18 *1930:C *309:8 7.43578e-06
19 *1931:A *309:16 6.42145e-05
20 *1978:A1 *1978:A2 1.04232e-05
21 *1978:A1 *1979:C1 0
22 *1979:B1 *1979:C1 0.000117543
23 *306:36 *1979:C1 1.74352e-05
24 *306:36 *309:16 4.70078e-05
*RES
1 *1930:Y *309:8 11.3893 
2 *309:8 *309:16 12.7143 
3 *309:16 *1978:A2 9.72857 
4 *309:16 *1979:C1 12.3179 
5 *309:8 *1931:B 9.3 
*END

*D_NET *310 0.00152157
*CONN
*I *1942:A I *D sky130_fd_sc_hd__nand2_1
*I *1941:A I *D sky130_fd_sc_hd__or2_1
*I *1931:Y O *D sky130_fd_sc_hd__nor2_1
*CAP
1 *1942:A 0
2 *1941:A 0.000161666
3 *1931:Y 0.000376405
4 *310:12 0.000538071
5 *1941:A *1942:B 0.000188586
6 *310:12 *1943:B 0.000154762
7 *310:12 *1979:A2 3.80953e-06
8 *310:12 *1999:A1 0
9 *310:12 *2000:A 0
10 *310:12 *322:8 8.49318e-05
11 *310:12 *323:14 0
12 *310:12 *363:10 0
13 *310:12 *566:35 0
14 *309:8 *310:12 1.33343e-05
*RES
1 *1931:Y *310:12 25.6393 
2 *310:12 *1941:A 12.3179 
3 *310:12 *1942:A 9.3 
*END

*D_NET *311 0.00147655
*CONN
*I *1940:A I *D sky130_fd_sc_hd__xnor2_1
*I *1939:A I *D sky130_fd_sc_hd__or3_1
*I *1932:Y O *D sky130_fd_sc_hd__a31oi_2
*CAP
1 *1940:A 0
2 *1939:A 0.000130491
3 *1932:Y 0.000520523
4 *311:10 0.000651013
5 *1939:A *1938:A 5.71472e-05
6 *1939:A *1938:B 5.52238e-05
7 *1939:A *1940:B 4.79842e-05
8 *1939:A *368:12 0
9 *1939:A *490:27 0
10 *311:10 *1940:B 1.41706e-05
11 *311:10 *368:12 0
12 *311:10 *490:27 0
*RES
1 *1932:Y *311:10 21.925 
2 *311:10 *1939:A 16.5857 
3 *311:10 *1940:A 13.8 
*END

*D_NET *312 0.000875555
*CONN
*I *1937:A I *D sky130_fd_sc_hd__nor3_1
*I *1936:B1 I *D sky130_fd_sc_hd__o21a_1
*I *1933:Y O *D sky130_fd_sc_hd__nand2_1
*CAP
1 *1937:A 2.67562e-05
2 *1936:B1 0
3 *1933:Y 0.000203183
4 *312:12 0.000229939
5 *1937:A *1937:C 0.000139913
6 *1937:A *313:18 0.00014183
7 *312:12 *2037:A 9.01334e-05
8 *312:12 *519:6 2.65105e-05
9 *312:12 *519:12 1.72894e-05
10 *312:12 *546:44 0
*RES
1 *1933:Y *312:12 22.3179 
2 *312:12 *1936:B1 9.3 
3 *312:12 *1937:A 10.6571 
*END

*D_NET *313 0.0018643
*CONN
*I *1936:A1 I *D sky130_fd_sc_hd__o21a_1
*I *1937:B I *D sky130_fd_sc_hd__nor3_1
*I *1993:A1 I *D sky130_fd_sc_hd__o21a_1
*I *1992:A I *D sky130_fd_sc_hd__nor3_1
*I *1934:X O *D sky130_fd_sc_hd__and3_1
*CAP
1 *1936:A1 0
2 *1937:B 0
3 *1993:A1 0.00013553
4 *1992:A 0
5 *1934:X 0.000102267
6 *313:24 0.000198459
7 *313:18 0.000248556
8 *313:8 0.000287894
9 *1993:A1 *1993:B1 5.40878e-05
10 *1993:A1 *375:12 0.00014183
11 *313:8 *1934:C 1.3701e-05
12 *313:8 *314:8 0.000185643
13 *313:18 *1937:C 0.000126121
14 *313:18 *314:8 2.44318e-05
15 *313:24 *2037:A 5.26091e-05
16 *313:24 *490:27 0.00015134
17 *1937:A *313:18 0.00014183
*RES
1 *1934:X *313:8 11.8 
2 *313:8 *313:18 4.53571 
3 *313:18 *313:24 10.9464 
4 *313:24 *1992:A 9.3 
5 *313:24 *1993:A1 11.9071 
6 *313:18 *1937:B 9.3 
7 *313:8 *1936:A1 9.3 
*END

*D_NET *314 0.00144244
*CONN
*I *1937:C I *D sky130_fd_sc_hd__nor3_1
*I *1936:A2 I *D sky130_fd_sc_hd__o21a_1
*I *1935:Y O *D sky130_fd_sc_hd__a21oi_1
*CAP
1 *1937:C 0.000142216
2 *1936:A2 0
3 *1935:Y 0.000199806
4 *314:8 0.000342022
5 *1937:C *316:10 9.92409e-05
6 *1937:C *317:8 3.69047e-06
7 *314:8 *1934:C 0.000126698
8 *314:8 *448:33 2.37575e-05
9 *314:8 *518:33 2.89016e-05
10 *1937:A *1937:C 0.000139913
11 *313:8 *314:8 0.000185643
12 *313:18 *1937:C 0.000126121
13 *313:18 *314:8 2.44318e-05
*RES
1 *1935:Y *314:8 13.9607 
2 *314:8 *1936:A2 9.3 
3 *314:8 *1937:C 13.1393 
*END

*D_NET *315 0.00279951
*CONN
*I *1817:C I *D sky130_fd_sc_hd__or4b_4
*I *1595:B I *D sky130_fd_sc_hd__and3b_2
*I *1812:D1 I *D sky130_fd_sc_hd__o2111a_1
*I *1594:Y O *D sky130_fd_sc_hd__nor2_1
*CAP
1 *1817:C 2.07566e-05
2 *1595:B 0.000146077
3 *1812:D1 0.000162057
4 *1594:Y 6.11646e-05
5 *315:23 0.000285351
6 *315:8 0.000341738
7 *1595:B *1595:A_N 7.83659e-05
8 *1595:B *326:6 8.66063e-05
9 *1595:B *326:18 5.33005e-05
10 *1595:B *326:56 9.91086e-05
11 *1812:D1 *1586:A 0
12 *1812:D1 *1594:B 5.48376e-05
13 *1812:D1 *500:35 5.62995e-05
14 *1812:D1 *500:46 2.03917e-05
15 *1812:D1 *530:17 0
16 *1812:D1 *530:66 2.8266e-06
17 *1817:C *1817:B 9.60939e-05
18 *1817:C *2068:A 3.48705e-05
19 *315:8 *1594:B 9.22948e-05
20 *315:8 *489:21 0
21 *315:23 *1814:A 9.60875e-05
22 *315:23 *1816:C 0.000272371
23 *315:23 *1817:B 4.18895e-05
24 *315:23 *2068:A 3.48705e-05
25 *315:23 *500:48 5.03772e-05
26 *315:23 *530:6 8.36572e-05
27 *315:23 *530:94 0.000175251
28 *1812:B1 *1812:D1 9.90367e-05
29 *1817:D_N *315:23 9.61553e-05
30 *189:10 *315:23 3.14193e-05
31 *192:24 *1812:D1 0.000120506
32 *192:24 *315:23 5.74499e-06
*RES
1 *1594:Y *315:8 15.1393 
2 *315:8 *1812:D1 17.6036 
3 *315:8 *315:23 9.96429 
4 *315:23 *1595:B 20.9964 
5 *315:23 *1817:C 10.2464 
*END

*D_NET *316 0.00160419
*CONN
*I *1938:A I *D sky130_fd_sc_hd__nor2_1
*I *1939:B I *D sky130_fd_sc_hd__or3_1
*I *1936:X O *D sky130_fd_sc_hd__o21a_1
*CAP
1 *1938:A 0.000128988
2 *1939:B 0
3 *1936:X 0.000322365
4 *316:10 0.000451353
5 *1938:A *1938:B 9.9615e-05
6 *1938:A *2058:A 0.000282794
7 *1938:A *317:34 2.49484e-05
8 *1938:A *319:10 4.58976e-05
9 *1938:A *368:12 0
10 *316:10 *317:8 1.34703e-05
11 *316:10 *317:34 7.83659e-05
12 *316:10 *368:12 0
13 *1937:C *316:10 9.92409e-05
14 *1939:A *1938:A 5.71472e-05
*RES
1 *1936:X *316:10 18.2464 
2 *316:10 *1939:B 13.8 
3 *316:10 *1938:A 18.0857 
*END

*D_NET *317 0.00211112
*CONN
*I *1938:B I *D sky130_fd_sc_hd__nor2_1
*I *1939:C I *D sky130_fd_sc_hd__or3_1
*I *1993:A2 I *D sky130_fd_sc_hd__o21a_1
*I *1992:B I *D sky130_fd_sc_hd__nor3_1
*I *1937:Y O *D sky130_fd_sc_hd__nor3_1
*CAP
1 *1938:B 0.000123941
2 *1939:C 0
3 *1993:A2 5.68551e-05
4 *1992:B 8.84653e-05
5 *1937:Y 0.000117818
6 *317:34 0.000283127
7 *317:12 0.000302882
8 *317:8 0.000434566
9 *1938:B *2058:A 1.02821e-05
10 *1938:B *319:10 5.40879e-05
11 *1992:B *1994:A 5.52238e-05
12 *1992:B *375:12 1.74352e-05
13 *1993:A2 *1994:A 9.90431e-05
14 *317:12 *490:27 6.95112e-05
15 *317:34 *2058:A 2.89114e-05
16 *317:34 *368:12 0
17 *317:34 *490:27 9.36523e-05
18 *1937:C *317:8 3.69047e-06
19 *1938:A *1938:B 9.9615e-05
20 *1938:A *317:34 2.49484e-05
21 *1939:A *1938:B 5.52238e-05
22 *316:10 *317:8 1.34703e-05
23 *316:10 *317:34 7.83659e-05
*RES
1 *1937:Y *317:8 15.1571 
2 *317:8 *317:12 7.05357 
3 *317:12 *1992:B 10.675 
4 *317:12 *1993:A2 10.2464 
5 *317:8 *317:34 8.5 
6 *317:34 *1939:C 9.3 
7 *317:34 *1938:B 12.4607 
*END

*D_NET *318 0.000446348
*CONN
*I *1940:B I *D sky130_fd_sc_hd__xnor2_1
*I *1938:Y O *D sky130_fd_sc_hd__nor2_1
*CAP
1 *1940:B 0.000115573
2 *1938:Y 0.000115573
3 *1940:B *368:12 0.000153047
4 *1939:A *1940:B 4.79842e-05
5 *311:10 *1940:B 1.41706e-05
*RES
1 *1938:Y *1940:B 30.4929 
*END

*D_NET *319 0.00210017
*CONN
*I *1998:A1 I *D sky130_fd_sc_hd__a21oi_1
*I *1997:A I *D sky130_fd_sc_hd__and3_1
*I *1939:X O *D sky130_fd_sc_hd__or3_1
*CAP
1 *1998:A1 0.000206845
2 *1997:A 0
3 *1939:X 0.000466284
4 *319:10 0.000673129
5 *1998:A1 *1998:B1 0.000176619
6 *1998:A1 *381:14 1.95435e-05
7 *1998:A1 *566:14 2.77173e-05
8 *319:10 *2058:A 0.000303407
9 *319:10 *566:14 0.000126639
10 *1938:A *319:10 4.58976e-05
11 *1938:B *319:10 5.40879e-05
*RES
1 *1939:X *319:10 18.6036 
2 *319:10 *1997:A 9.3 
3 *319:10 *1998:A1 12.3179 
*END

*D_NET *320 0.00159944
*CONN
*I *1942:B I *D sky130_fd_sc_hd__nand2_1
*I *1941:B I *D sky130_fd_sc_hd__or2_1
*I *1940:Y O *D sky130_fd_sc_hd__xnor2_1
*CAP
1 *1942:B 0.000117712
2 *1941:B 0
3 *1940:Y 0.000576343
4 *320:8 0.000694055
5 *1942:B *1943:A 2.27416e-05
6 *1941:A *1942:B 0.000188586
*RES
1 *1940:Y *320:8 16.0143 
2 *320:8 *1941:B 9.3 
3 *320:8 *1942:B 12.3179 
*END

*D_NET *321 0.000344256
*CONN
*I *1943:A I *D sky130_fd_sc_hd__nand2_1
*I *1941:X O *D sky130_fd_sc_hd__or2_1
*CAP
1 *1943:A 0.00011996
2 *1941:X 0.00011996
3 *1943:A *1943:B 7.71321e-05
4 *1943:A *322:8 4.46186e-06
5 *1943:A *566:35 0
6 *1942:B *1943:A 2.27416e-05
*RES
1 *1941:X *1943:A 30.0821 
*END

*D_NET *322 0.00124762
*CONN
*I *1943:B I *D sky130_fd_sc_hd__nand2_1
*I *1998:A2 I *D sky130_fd_sc_hd__a21oi_1
*I *1997:B I *D sky130_fd_sc_hd__and3_1
*I *1942:Y O *D sky130_fd_sc_hd__nand2_1
*CAP
1 *1943:B 4.2079e-05
2 *1998:A2 1.16062e-05
3 *1997:B 0.000142892
4 *1942:Y 0
5 *322:8 0.000324223
6 *322:6 0.000211803
7 *1997:B *1999:A1 0
8 *1997:B *381:14 4.25619e-05
9 *1997:B *566:14 2.89114e-05
10 *1998:A2 *1998:B1 5.52302e-05
11 *1998:A2 *566:14 5.52302e-05
12 *322:8 *1999:A1 0
13 *322:8 *381:14 1.17968e-05
14 *322:8 *566:35 0
15 *1943:A *1943:B 7.71321e-05
16 *1943:A *322:8 4.46186e-06
17 *310:12 *1943:B 0.000154762
18 *310:12 *322:8 8.49318e-05
*RES
1 *1942:Y *322:6 13.8 
2 *322:6 *322:8 3.16071 
3 *322:8 *1997:B 15.9071 
4 *322:8 *1998:A2 14.3357 
5 *322:6 *1943:B 15.7464 
*END

*D_NET *323 0.00386349
*CONN
*I *1945:B1 I *D sky130_fd_sc_hd__a21oi_1
*I *1944:C I *D sky130_fd_sc_hd__and3_1
*I *1943:Y O *D sky130_fd_sc_hd__nand2_1
*CAP
1 *1945:B1 0.000244582
2 *1944:C 0
3 *1943:Y 0.00106823
4 *323:14 0.00131281
5 *1945:B1 *1946:A 9.71197e-05
6 *1945:B1 *388:10 0
7 *323:14 *1978:B1 0
8 *323:14 *2020:A 0.000251908
9 *323:14 *2062:A 0
10 *323:14 *2063:A 0
11 *323:14 *2065:A 0
12 *323:14 *360:8 0
13 *323:14 *361:8 0.00018459
14 *323:14 *363:10 6.1684e-05
15 *323:14 *388:10 0
16 *323:14 *523:10 0
17 *323:14 *526:19 0
18 *1944:A *1945:B1 0.000122426
19 *1944:A *323:14 1.95435e-05
20 *1944:B *323:14 0.000103974
21 *1945:A1 *1945:B1 0.000148851
22 *1947:A *1945:B1 0.000247778
23 *306:10 *323:14 0
24 *309:16 *323:14 0
25 *310:12 *323:14 0
*RES
1 *1943:Y *323:14 36.3 
2 *323:14 *1944:C 9.3 
3 *323:14 *1945:B1 24.675 
*END

*D_NET *324 0.00110277
*CONN
*I *1946:A I *D sky130_fd_sc_hd__nor2_1
*I *1944:X O *D sky130_fd_sc_hd__and3_1
*CAP
1 *1946:A 0.000425913
2 *1944:X 0.000425913
3 *1946:A *360:8 2.56694e-05
4 *1946:A *388:10 0
5 *1946:A *431:12 0.000128154
6 *1945:B1 *1946:A 9.71197e-05
*RES
1 *1944:X *1946:A 33.475 
*END

*D_NET *325 0.000943906
*CONN
*I *1946:B I *D sky130_fd_sc_hd__nor2_1
*I *1977:B1 I *D sky130_fd_sc_hd__a21o_1
*I *1945:Y O *D sky130_fd_sc_hd__a21oi_1
*CAP
1 *1946:B 6.52278e-05
2 *1977:B1 0
3 *1945:Y 0.000178559
4 *325:12 0.000243786
5 *1946:B *327:6 0.000139907
6 *325:12 *1947:B 0.000126439
7 *325:12 *388:10 0.000148903
8 *1947:A *325:12 4.10841e-05
*RES
1 *1945:Y *325:12 21.6036 
2 *325:12 *1977:B1 9.3 
3 *325:12 *1946:B 10.6571 
*END

*D_NET *326 0.0238456
*CONN
*I *2011:A1 I *D sky130_fd_sc_hd__a211o_1
*I *2048:B2 I *D sky130_fd_sc_hd__a32o_1
*I *1968:A1 I *D sky130_fd_sc_hd__a31o_1
*I *1924:A1 I *D sky130_fd_sc_hd__a211oi_1
*I *1896:A1 I *D sky130_fd_sc_hd__a211o_1
*I *1867:A1 I *D sky130_fd_sc_hd__a211o_1
*I *1806:B1 I *D sky130_fd_sc_hd__o21a_1
*I *1844:A1 I *D sky130_fd_sc_hd__a22o_1
*I *1595:X O *D sky130_fd_sc_hd__and3b_2
*CAP
1 *2011:A1 2.21289e-05
2 *2048:B2 0
3 *1968:A1 0
4 *1924:A1 1.18901e-05
5 *1896:A1 6.57635e-05
6 *1867:A1 0.000135933
7 *1806:B1 0.000659345
8 *1844:A1 0.000166235
9 *1595:X 5.06485e-05
10 *326:90 0.000381366
11 *326:86 0.000956879
12 *326:78 0.00126429
13 *326:68 0.000941361
14 *326:56 0.001163
15 *326:18 0.00207446
16 *326:6 0.001998
17 *1806:B1 *2069:A 8.49125e-05
18 *1806:B1 *534:139 0.000158153
19 *1844:A1 *1841:A 0
20 *1844:A1 *1844:A2 1.02504e-05
21 *1844:A1 *501:8 0
22 *1924:A1 *552:10 1.24469e-05
23 *2011:A1 *359:14 2.59355e-05
24 *326:18 *1594:A 4.69993e-05
25 *326:18 *1841:A 0.000359997
26 *326:18 *2069:A 1.98839e-05
27 *326:18 *2113:A 2.14757e-05
28 *326:18 *2116:A 0.000188586
29 *326:18 *489:21 9.90367e-05
30 *326:18 *491:26 0.000660795
31 *326:18 *500:10 9.90367e-05
32 *326:18 *511:51 1.00073e-05
33 *326:18 *534:139 0.000172737
34 *326:56 *1595:A_N 1.17968e-05
35 *326:56 *1821:B 7.18512e-05
36 *326:56 *336:12 1.21258e-05
37 *326:56 *359:14 2.21991e-05
38 *326:56 *489:23 0
39 *326:56 *522:10 2.08223e-05
40 *326:56 *532:14 0.00077305
41 *326:68 *2047:B2 0.000108538
42 *326:78 *1598:A1 0.000141031
43 *326:78 *1807:B 0.000137983
44 *326:78 *1807:C 2.83284e-06
45 *326:78 *348:32 7.80851e-06
46 *326:78 *351:22 0.000854837
47 *326:78 *492:56 0.000181075
48 *326:78 *547:45 5.18707e-05
49 *326:78 *550:67 0.000380596
50 *326:78 *550:95 0.000168334
51 *326:78 *554:75 6.56294e-05
52 *326:86 *1968:A2 2.06178e-05
53 *326:86 *2081:A 0
54 *326:86 *547:45 1.03483e-05
55 *326:86 *554:75 2.07809e-05
56 *326:90 *1728:A0 0.00014778
57 *326:90 *1865:A1 2.49484e-05
58 *326:90 *552:10 0.000352097
59 op_out[0] *326:18 0.000320024
60 *1595:B *326:6 8.66063e-05
61 *1595:B *326:18 5.33005e-05
62 *1595:B *326:56 9.91086e-05
63 *1781:C1 *1867:A1 2.59355e-05
64 *1827:B *1806:B1 0.000843855
65 *1827:B *326:18 0.00148054
66 *1841:B *1844:A1 0
67 *1843:A2 *1844:A1 0
68 *1844:B2 *1844:A1 4.1331e-06
69 *1850:A *326:18 5.52238e-05
70 *1850:B *326:18 4.57098e-05
71 *1865:B1 *326:86 0.000683358
72 *1867:C1 *1867:A1 5.57575e-05
73 *1867:C1 *1896:A1 6.42095e-05
74 *1868:A2 *326:18 0.000274294
75 *1897:B *326:18 1.28809e-05
76 *1956:A2 *326:78 3.15101e-05
77 *1967:A2 *326:68 9.60939e-05
78 *2007:B1 *2011:A1 1.98839e-05
79 *2007:B1 *326:56 0.000221634
80 *2010:A2 *326:56 0.000207403
81 *2091:A *326:18 0.000229456
82 *2104:A *326:6 0.000186669
83 *2104:A *326:18 5.52238e-05
84 *2105:A *326:18 9.21719e-05
85 *196:8 *326:56 0
86 *196:8 *326:68 0.000120506
87 *196:12 *326:68 0.000623046
88 *196:12 *326:78 0.000222397
89 *197:16 *326:56 0
90 *197:63 *326:86 0.00120147
91 *199:41 *326:56 5.33005e-05
92 *199:45 *326:56 2.95642e-05
93 *199:89 *326:68 4.13824e-05
94 *205:26 *326:68 0.000300529
95 *205:28 *326:68 1.03483e-05
96 *205:47 *326:68 4.24752e-05
97 *205:47 *326:78 0.000222397
98 *215:10 *1844:A1 0
99 *224:14 *326:18 2.42778e-05
100 *243:14 *1867:A1 2.89114e-05
101 *243:14 *326:18 5.52238e-05
102 *274:20 *1867:A1 6.05161e-06
103 *274:20 *1896:A1 7.32272e-05
104 *274:20 *1924:A1 5.7903e-06
105 *274:20 *326:18 3.95516e-05
106 *274:20 *326:90 4.96356e-05
*RES
1 *1595:X *326:6 11.0679 
2 *326:6 *326:18 48.5536 
3 *326:18 *1844:A1 16.3536 
4 *326:18 *1806:B1 24.4429 
5 *326:6 *326:56 25.3571 
6 *326:56 *326:68 24.4107 
7 *326:68 *326:78 25.4286 
8 *326:78 *326:86 9.82556 
9 *326:86 *326:90 9.02679 
10 *326:90 *1867:A1 11.9071 
11 *326:90 *1896:A1 11.0857 
12 *326:86 *1924:A1 14.0768 
13 *326:78 *1968:A1 13.8 
14 *326:68 *2048:B2 13.8 
15 *326:56 *2011:A1 9.83571 
*END

*D_NET *327 0.000993178
*CONN
*I *1947:B I *D sky130_fd_sc_hd__xnor2_1
*I *1977:A2 I *D sky130_fd_sc_hd__a21o_1
*I *1946:Y O *D sky130_fd_sc_hd__nor2_1
*CAP
1 *1947:B 5.13244e-05
2 *1977:A2 8.46018e-05
3 *1946:Y 0.000113136
4 *327:6 0.000249062
5 *1947:B *388:10 2.72545e-05
6 *1912:B *1977:A2 0
7 *1946:B *327:6 0.000139907
8 *1947:A *1947:B 0.000175519
9 *280:26 *1977:A2 2.59355e-05
10 *325:12 *1947:B 0.000126439
*RES
1 *1946:Y *327:6 11.4786 
2 *327:6 *1977:A2 10.675 
3 *327:6 *1947:B 20.55 
*END

*D_NET *328 0.00220639
*CONN
*I *1950:B I *D sky130_fd_sc_hd__nand2_1
*I *1948:B I *D sky130_fd_sc_hd__or2_4
*I *1947:Y O *D sky130_fd_sc_hd__xnor2_1
*CAP
1 *1950:B 0.000104099
2 *1948:B 0
3 *1947:Y 0.000531252
4 *328:12 0.000635351
5 *328:12 *431:12 0.000880457
6 *1950:A *1950:B 5.52302e-05
*RES
1 *1947:Y *328:12 30.7107 
2 *328:12 *1948:B 9.3 
3 *328:12 *1950:B 11.0857 
*END

*D_NET *329 0.00170437
*CONN
*I *1949:A I *D sky130_fd_sc_hd__inv_2
*I *2004:B I *D sky130_fd_sc_hd__xnor2_1
*I *1951:A I *D sky130_fd_sc_hd__nand2_1
*I *1948:X O *D sky130_fd_sc_hd__or2_4
*CAP
1 *1949:A 7.89773e-05
2 *2004:B 5.79583e-05
3 *1951:A 0.000104564
4 *1948:X 8.55438e-05
5 *329:23 0.000326968
6 *329:8 0.000380141
7 *1951:A *1951:B 5.33005e-05
8 *2004:B *2004:A 5.52238e-05
9 *329:8 *388:10 0.000177941
10 *329:8 *431:12 0
11 *329:23 *388:10 0.000383747
12 *329:23 *431:12 0
13 *1917:B *1951:A 0
14 *1918:A *1951:A 0
*RES
1 *1948:X *329:8 16.05 
2 *329:8 *1951:A 15.5857 
3 *329:8 *329:23 9.48214 
4 *329:23 *2004:B 10.2464 
5 *329:23 *1949:A 10.675 
*END

*D_NET *330 0.000471971
*CONN
*I *2019:A1 I *D sky130_fd_sc_hd__o21ai_1
*I *1949:Y O *D sky130_fd_sc_hd__inv_2
*CAP
1 *2019:A1 0.000104938
2 *1949:Y 0.000104938
3 *2019:A1 *389:12 4.89264e-05
4 *2019:A1 *405:12 8.50152e-05
5 *2019:A1 *431:12 0.000128154
*RES
1 *1949:Y *2019:A1 30.1893 
*END

*D_NET *331 0.000720631
*CONN
*I *1951:B I *D sky130_fd_sc_hd__nand2_1
*I *1950:Y O *D sky130_fd_sc_hd__nand2_1
*CAP
1 *1951:B 0.000305774
2 *1950:Y 0.000305774
3 *1951:B *431:12 5.5782e-05
4 *1951:A *1951:B 5.33005e-05
*RES
1 *1950:Y *1951:B 32.9571 
*END

*D_NET *332 0.00254857
*CONN
*I *1954:A2 I *D sky130_fd_sc_hd__o21a_1
*I *1952:B I *D sky130_fd_sc_hd__nand2_1
*I *1953:B I *D sky130_fd_sc_hd__nor2_1
*I *1951:Y O *D sky130_fd_sc_hd__nand2_1
*CAP
1 *1954:A2 0
2 *1952:B 0.000270762
3 *1953:B 0
4 *1951:Y 0.000353014
5 *332:21 0.000420418
6 *332:12 0.000502671
7 *1952:B *345:10 0.000106552
8 *332:12 *2019:B1 8.89385e-05
9 *332:12 *334:6 6.62783e-05
10 *332:12 *388:10 0.000187893
11 *332:21 *334:6 7.43578e-06
12 *1954:A1 *332:21 0.00014285
13 *297:8 *332:12 0
14 *297:12 *1952:B 0.000401758
15 *297:36 *1952:B 0
16 *297:36 *332:12 0
*RES
1 *1951:Y *332:12 26.5679 
2 *332:12 *1953:B 9.3 
3 *332:12 *332:21 3.01786 
4 *332:21 *1952:B 24.675 
5 *332:21 *1954:A2 9.3 
*END

*D_NET *333 0.00092394
*CONN
*I *1967:B1 I *D sky130_fd_sc_hd__a221o_1
*I *1952:Y O *D sky130_fd_sc_hd__nand2_1
*CAP
1 *1967:B1 0.000275752
2 *1952:Y 0.000275752
3 *1967:B1 *1895:A1 2.79092e-05
4 *1967:B1 *1920:A2 0.000268396
5 *1967:B1 *1921:A 5.33882e-05
6 *1967:B1 *497:56 0
7 *1923:A3 *1967:B1 1.74352e-05
8 *297:12 *1967:B1 5.30637e-06
*RES
1 *1952:Y *1967:B1 31.9393 
*END

*D_NET *334 0.00123731
*CONN
*I *2019:A2 I *D sky130_fd_sc_hd__o21ai_1
*I *2005:A I *D sky130_fd_sc_hd__or2_1
*I *2006:A I *D sky130_fd_sc_hd__nand2_1
*I *1953:Y O *D sky130_fd_sc_hd__nor2_1
*CAP
1 *2019:A2 0
2 *2005:A 0
3 *2006:A 0.000103763
4 *1953:Y 0.000226215
5 *334:12 0.000204932
6 *334:6 0.000327385
7 *2006:A *2006:B 4.48152e-05
8 *2006:A *2012:A2 1.21258e-05
9 *2006:A *389:12 5.33005e-05
10 *334:6 *2019:B1 2.89016e-05
11 *334:6 *405:12 1.15281e-05
12 *334:12 *389:12 0.000150625
13 *332:12 *334:6 6.62783e-05
14 *332:21 *334:6 7.43578e-06
*RES
1 *1953:Y *334:6 12.3 
2 *334:6 *334:12 10.9464 
3 *334:12 *2006:A 11.5143 
4 *334:12 *2005:A 9.3 
5 *334:6 *2019:A2 9.3 
*END

*D_NET *335 0.000887785
*CONN
*I *1967:B2 I *D sky130_fd_sc_hd__a221o_1
*I *1954:X O *D sky130_fd_sc_hd__o21a_1
*CAP
1 *1967:B2 0.000258464
2 *1954:X 0.000258464
3 *1967:B2 *1920:A1 7.96398e-05
4 *1967:B2 *1920:A2 2.89016e-05
5 *1920:B1 *1967:B2 9.99644e-06
6 *1920:B2 *1967:B2 2.77289e-05
7 *1923:B1 *1967:B2 0.00022459
*RES
1 *1954:X *1967:B2 24.2116 
*END

*D_NET *336 0.00756012
*CONN
*I *1962:A I *D sky130_fd_sc_hd__or2_1
*I *1961:A I *D sky130_fd_sc_hd__nand2_1
*I *1955:X O *D sky130_fd_sc_hd__a21o_1
*CAP
1 *1962:A 5.20507e-05
2 *1961:A 0.000107445
3 *1955:X 0.000965464
4 *336:18 0.00122848
5 *336:12 0.00203445
6 *1961:A *2050:C1 0
7 *1962:A *1962:B 9.90431e-05
8 *1962:A *1963:C 4.88637e-05
9 *336:12 *2011:C1 5.42698e-05
10 *336:12 *529:63 0.000437749
11 *336:18 *1962:B 9.60875e-05
12 *336:18 *1963:C 2.78608e-05
13 *336:18 *554:88 0.00012007
14 *336:18 *554:111 3.72932e-05
15 *1812:A1 *336:12 1.39841e-05
16 *1823:A *336:18 9.71197e-05
17 *1823:B *336:18 0.000221634
18 *1826:A3 *336:12 0.000271345
19 *1826:C1 *336:12 0.000349878
20 *1827:C *336:12 9.90367e-05
21 *1956:A2 *336:18 0.000437762
22 *1956:B1 *336:18 9.90367e-05
23 *1963:A_N *1961:A 0.000168224
24 *1963:A_N *1962:A 4.38128e-05
25 *1963:A_N *336:18 5.52302e-05
26 *2010:A2 *336:12 5.26224e-05
27 *196:8 *336:12 4.74098e-05
28 *196:12 *336:12 1.36251e-05
29 *199:18 *336:12 5.45017e-05
30 *199:41 *336:12 5.42547e-05
31 *199:45 *336:12 0.000141962
32 *199:89 *336:18 1.74352e-05
33 *326:56 *336:12 1.21258e-05
*RES
1 *1955:X *336:12 37.4071 
2 *336:12 *336:18 19.5714 
3 *336:18 *1961:A 20.55 
4 *336:18 *1962:A 11.0679 
*END

*D_NET *337 0.00563719
*CONN
*I *1598:C1 I *D sky130_fd_sc_hd__a2111oi_1
*I *1808:A I *D sky130_fd_sc_hd__or2_1
*I *1601:B1 I *D sky130_fd_sc_hd__a211o_1
*I *1599:A4 I *D sky130_fd_sc_hd__o41ai_4
*I *1641:B1 I *D sky130_fd_sc_hd__a21o_1
*I *1605:B1 I *D sky130_fd_sc_hd__a211oi_2
*I *1596:X O *D sky130_fd_sc_hd__or4_4
*CAP
1 *1598:C1 0
2 *1808:A 6.50525e-05
3 *1601:B1 0
4 *1599:A4 0.000283005
5 *1641:B1 0.00015145
6 *1605:B1 7.42258e-05
7 *1596:X 0
8 *337:60 0.000274316
9 *337:29 0.000434455
10 *337:18 0.000142361
11 *337:16 0.0004362
12 *337:6 0.000577328
13 *1599:A4 *369:6 0.000265453
14 *1599:A4 *369:10 0.000122591
15 *1599:A4 *547:82 1.39726e-05
16 *1605:B1 *1597:B 0.000212919
17 *1605:B1 *1968:A3 0.000220448
18 *1605:B1 *543:76 9.25014e-06
19 *1641:B1 *1601:A2 1.92789e-05
20 *1641:B1 *1607:A2 0.00016834
21 *1641:B1 *1641:A1 8.25843e-06
22 *1641:B1 *369:10 0.000279154
23 *1641:B1 *412:6 0.00018077
24 *1808:A *2131:A 0.000102545
25 *1808:A *524:64 2.59093e-05
26 *1808:A *554:75 0
27 *337:16 *1597:B 6.48878e-05
28 *337:16 *1968:A3 0.000534911
29 *337:16 *524:64 4.96162e-05
30 *337:16 *536:70 0
31 *337:16 *540:10 0.000113903
32 *337:16 *540:12 3.24989e-05
33 *337:16 *540:18 0.000201963
34 *337:18 *1597:B 1.64815e-05
35 *337:18 *1607:A2 0.00012401
36 *337:18 *1968:A3 0.000171893
37 *337:60 *524:64 8.15939e-05
38 *337:60 *536:70 0
39 *337:60 *538:12 0
40 *337:60 *547:45 3.69047e-06
41 *1867:C1 *337:16 9.60939e-05
42 *182:16 *1808:A 7.83587e-05
*RES
1 *1596:X *337:6 13.8 
2 *337:6 *337:16 18.0893 
3 *337:16 *337:18 2.25 
4 *337:18 *1605:B1 16.6571 
5 *337:18 *337:29 4.5 
6 *337:29 *1641:B1 13.8536 
7 *337:29 *1599:A4 14.2643 
8 *337:16 *1601:B1 13.8 
9 *337:6 *337:60 8.21429 
10 *337:60 *1808:A 20.2464 
11 *337:60 *1598:C1 9.3 
*END

*D_NET *338 0.00142895
*CONN
*I *1970:B1 I *D sky130_fd_sc_hd__a21o_1
*I *1957:B I *D sky130_fd_sc_hd__xnor2_1
*I *1956:X O *D sky130_fd_sc_hd__o21a_1
*CAP
1 *1970:B1 5.49804e-05
2 *1957:B 4.771e-05
3 *1956:X 0.000189924
4 *338:8 0.000292614
5 *1957:B *1957:A 0.000139907
6 *1957:B *2008:A1 5.33005e-05
7 *1970:B1 *2008:A1 0.00015134
8 *1970:B1 *2008:B2 8.2958e-06
9 *1970:B1 *2015:A1 0.000200413
10 *1970:B1 *553:68 3.34366e-05
11 *338:8 *2008:B2 6.09572e-05
12 *338:8 *2015:A1 5.41794e-05
13 *338:8 *2074:A 4.28249e-05
14 *338:8 *339:12 0
15 *338:8 *537:12 2.07078e-05
16 *338:8 *537:42 7.83587e-05
17 *338:8 *554:111 0
*RES
1 *1956:X *338:8 17.8714 
2 *338:8 *1957:B 15.1571 
3 *338:8 *1970:B1 16.3536 
*END

*D_NET *339 0.00056856
*CONN
*I *1958:B I *D sky130_fd_sc_hd__or2_1
*I *1959:B I *D sky130_fd_sc_hd__nand2_1
*I *1957:Y O *D sky130_fd_sc_hd__xnor2_1
*CAP
1 *1958:B 1.42885e-05
2 *1959:B 0
3 *1957:Y 0.000139589
4 *339:12 0.000153877
5 *1958:B *1958:A 5.52238e-05
6 *1958:B *341:6 5.33005e-05
7 *339:12 *534:147 0.000146474
8 *339:12 *554:111 5.80706e-06
9 *338:8 *339:12 0
*RES
1 *1957:Y *339:12 20.7821 
2 *339:12 *1959:B 9.3 
3 *339:12 *1958:B 9.83571 
*END

*D_NET *340 0.000184364
*CONN
*I *1960:A I *D sky130_fd_sc_hd__and2_1
*I *1958:X O *D sky130_fd_sc_hd__or2_1
*CAP
1 *1960:A 1.35522e-05
2 *1958:X 1.35522e-05
3 *1960:A *341:6 0.00010096
4 *1960:A *397:20 5.62995e-05
*RES
1 *1958:X *1960:A 19.5464 
*END

*D_NET *341 0.00250152
*CONN
*I *1975:A1 I *D sky130_fd_sc_hd__a31o_1
*I *1974:A1 I *D sky130_fd_sc_hd__a21oi_1
*I *1960:B I *D sky130_fd_sc_hd__and2_1
*I *1959:Y O *D sky130_fd_sc_hd__nand2_1
*CAP
1 *1975:A1 1.23124e-05
2 *1974:A1 0.000151652
3 *1960:B 2.23854e-05
4 *1959:Y 7.50638e-05
5 *341:19 0.000376435
6 *341:6 0.00030992
7 *1974:A1 *1974:A2 8.70311e-05
8 *1974:A1 *1975:A3 0.000103253
9 *1974:A1 *2050:C1 0
10 *1975:A1 *2050:C1 0
11 *341:6 *1958:A 7.17235e-05
12 *341:6 *359:14 0.000445571
13 *341:6 *397:20 6.44345e-05
14 *341:19 *1974:A2 3.4323e-06
15 *341:19 *2050:C1 0
16 *341:19 *342:6 5.33005e-05
17 *341:19 *359:14 0.000399841
18 *341:19 *397:20 0.000170902
19 *1958:B *341:6 5.33005e-05
20 *1960:A *341:6 0.00010096
21 *1963:A_N *341:19 0
*RES
1 *1959:Y *341:6 13.5321 
2 *341:6 *1960:B 9.72857 
3 *341:6 *341:19 10.4196 
4 *341:19 *1974:A1 16.9696 
5 *341:19 *1975:A1 14.0768 
*END

*D_NET *342 0.00102652
*CONN
*I *1961:B I *D sky130_fd_sc_hd__nand2_1
*I *1962:B I *D sky130_fd_sc_hd__or2_1
*I *1960:X O *D sky130_fd_sc_hd__and2_1
*CAP
1 *1961:B 0
2 *1962:B 0.000106391
3 *1960:X 1.69531e-05
4 *342:6 0.000123344
5 *1962:B *1963:B 9.91086e-05
6 *1962:B *1963:C 0.00018077
7 *1962:B *343:23 5.41794e-05
8 *342:6 *397:20 5.33005e-05
9 *1962:A *1962:B 9.90431e-05
10 *1963:A_N *1962:B 0.000144038
11 *336:18 *1962:B 9.60875e-05
12 *341:19 *342:6 5.33005e-05
*RES
1 *1960:X *342:6 9.83571 
2 *342:6 *1962:B 22.0143 
3 *342:6 *1961:B 9.3 
*END

*D_NET *343 0.00205858
*CONN
*I *1975:A2 I *D sky130_fd_sc_hd__a31o_1
*I *1974:A2 I *D sky130_fd_sc_hd__a21oi_1
*I *1963:B I *D sky130_fd_sc_hd__and3b_1
*I *1961:Y O *D sky130_fd_sc_hd__nand2_1
*CAP
1 *1975:A2 0.000117732
2 *1974:A2 8.11627e-05
3 *1963:B 0.000137626
4 *1961:Y 7.70325e-05
5 *343:23 0.000450667
6 *343:8 0.000466431
7 *1963:B *2050:A3 0
8 *1963:B *345:10 5.80706e-06
9 *1963:B *534:147 0
10 *1974:A2 *1975:A3 2.00751e-05
11 *1975:A2 *1975:A3 2.89114e-05
12 *1975:A2 *1976:B 0
13 *343:8 *397:20 9.41642e-05
14 *343:23 *534:147 0
15 *1962:B *1963:B 9.91086e-05
16 *1962:B *343:23 5.41794e-05
17 *1963:A_N *1963:B 2.39779e-05
18 *1963:A_N *1974:A2 2.94103e-05
19 *1963:A_N *343:23 8.24047e-05
20 *1974:A1 *1974:A2 8.70311e-05
21 *1975:B1 *1975:A2 5.33433e-05
22 *1975:B1 *343:23 5.03772e-05
23 *192:99 *1974:A2 9.57064e-05
24 *341:19 *1974:A2 3.4323e-06
*RES
1 *1961:Y *343:8 14.7464 
2 *343:8 *1963:B 16.3536 
3 *343:8 *343:23 9.125 
4 *343:23 *1974:A2 21.1571 
5 *343:23 *1975:A2 11.4964 
*END

*D_NET *344 0.000841039
*CONN
*I *1963:C I *D sky130_fd_sc_hd__and3b_1
*I *1962:X O *D sky130_fd_sc_hd__or2_1
*CAP
1 *1963:C 0.000291772
2 *1962:X 0.000291772
3 *1962:A *1963:C 4.88637e-05
4 *1962:B *1963:C 0.00018077
5 *336:18 *1963:C 2.78608e-05
*RES
1 *1962:X *1963:C 22.4214 
*END

*D_NET *345 0.00713094
*CONN
*I *1968:B1 I *D sky130_fd_sc_hd__a31o_1
*I *1963:X O *D sky130_fd_sc_hd__and3b_1
*CAP
1 *1968:B1 0.000850694
2 *1963:X 0.000444829
3 *345:10 0.00129552
4 *1968:B1 *524:52 0.000722521
5 *1968:B1 *524:56 8.43535e-06
6 *1968:B1 *538:24 0.000166407
7 *345:10 *534:147 0
8 *1835:A2 *1968:B1 0.000182309
9 *1952:B *345:10 0.000106552
10 *1963:B *345:10 5.80706e-06
11 *196:46 *1968:B1 0.000153138
12 *196:63 *1968:B1 2.61099e-05
13 *196:74 *1968:B1 0.000293114
14 *196:74 *345:10 0.000365682
15 *196:93 *345:10 0.000368104
16 *297:8 *345:10 0
17 *302:14 *1968:B1 0.00214171
*RES
1 *1963:X *345:10 29.6571 
2 *345:10 *1968:B1 36.9429 
*END

*D_NET *346 0.000566954
*CONN
*I *1965:B2 I *D sky130_fd_sc_hd__o22a_1
*I *1964:Y O *D sky130_fd_sc_hd__a21oi_1
*CAP
1 *1965:B2 0.000166011
2 *1964:Y 0.000166011
3 *1965:B2 *1964:A2 3.68898e-05
4 *1965:B2 *1967:C1 5.71472e-05
5 *1965:B2 *537:42 5.7616e-05
6 *1965:B2 *537:46 2.89114e-05
7 *1919:B1 *1965:B2 4.25619e-05
8 *1920:B1 *1965:B2 1.18064e-05
*RES
1 *1964:Y *1965:B2 30.4036 
*END

*D_NET *347 0.000690147
*CONN
*I *1967:C1 I *D sky130_fd_sc_hd__a221o_1
*I *1965:X O *D sky130_fd_sc_hd__o22a_1
*CAP
1 *1967:C1 0.000156115
2 *1965:X 0.000156115
3 *1967:C1 *1920:A2 1.19309e-05
4 *1967:C1 *1921:A 0.000168939
5 *1967:C1 *1964:A2 0.0001399
6 *1967:C1 *534:147 0
7 *1965:B2 *1967:C1 5.71472e-05
*RES
1 *1965:X *1967:C1 31.2071 
*END

*D_NET *348 0.00371532
*CONN
*I *1807:C I *D sky130_fd_sc_hd__or3_1
*I *1598:D1 I *D sky130_fd_sc_hd__a2111oi_1
*I *1601:C1 I *D sky130_fd_sc_hd__a211o_1
*I *1599:A3 I *D sky130_fd_sc_hd__o41ai_4
*I *1597:X O *D sky130_fd_sc_hd__or2_4
*CAP
1 *1807:C 0.000321672
2 *1598:D1 0
3 *1601:C1 6.81396e-05
4 *1599:A3 0.000125501
5 *1597:X 0
6 *348:32 0.000457682
7 *348:10 0.000411708
8 *348:6 0.000354077
9 *1599:A3 *1607:A1 0.00019678
10 *1599:A3 *1607:B1 9.59532e-06
11 *1599:A3 *1968:A2 5.89052e-05
12 *1599:A3 *440:28 2.1398e-05
13 *1599:A3 *540:18 2.23562e-05
14 *1601:C1 *1601:A1 1.73088e-05
15 *1601:C1 *1607:A2 3.60088e-05
16 *1601:C1 *1832:B1 1.76939e-05
17 *1601:C1 *547:37 0.000137983
18 *1807:C *1598:A1 5.52302e-05
19 *1807:C *1899:A 0
20 *1807:C *524:64 1.24469e-05
21 *1807:C *529:51 1.78465e-05
22 *1807:C *550:67 5.52238e-05
23 *348:10 *1968:A2 5.28368e-06
24 *348:10 *540:10 3.34366e-05
25 *348:10 *540:12 4.11218e-05
26 *348:10 *540:18 0.000299376
27 *348:10 *547:45 0.000167174
28 *348:32 *524:64 0.000211625
29 *348:32 *540:10 3.77748e-05
30 *348:32 *547:45 0.000277448
31 *1598:A2 *1807:C 9.71197e-05
32 *197:63 *1807:C 0.000136758
33 *199:51 *1807:C 0
34 *326:78 *1807:C 2.83284e-06
35 *326:78 *348:32 7.80851e-06
*RES
1 *1597:X *348:6 13.8 
2 *348:6 *348:10 5.51786 
3 *348:10 *1599:A3 16.9607 
4 *348:10 *1601:C1 15.5857 
5 *348:6 *348:32 4.07143 
6 *348:32 *1598:D1 13.8 
7 *348:32 *1807:C 23.0471 
*END

*D_NET *349 0.0002326
*CONN
*I *1969:A I *D sky130_fd_sc_hd__or3_1
*I *1966:X O *D sky130_fd_sc_hd__a32o_1
*CAP
1 *1969:A 3.26257e-05
2 *1966:X 3.26257e-05
3 *1969:A *1966:A2 1.98839e-05
4 *1969:A *351:22 5.33005e-05
5 *1967:A2 *1969:A 9.41642e-05
*RES
1 *1966:X *1969:A 19.5464 
*END

*D_NET *350 0.000967042
*CONN
*I *1969:B I *D sky130_fd_sc_hd__or3_1
*I *1967:X O *D sky130_fd_sc_hd__a221o_1
*CAP
1 *1969:B 0.000270472
2 *1967:X 0.000270472
3 *1969:B *2118:A 9.60939e-05
4 *1920:B2 *1969:B 5.52302e-05
5 *1967:A2 *1969:B 0.000274774
*RES
1 *1967:X *1969:B 23.5286 
*END

*D_NET *351 0.0049619
*CONN
*I *1969:C I *D sky130_fd_sc_hd__or3_1
*I *1968:X O *D sky130_fd_sc_hd__a31o_1
*CAP
1 *1969:C 0
2 *1968:X 0.0014047
3 *351:22 0.0014047
4 *351:22 *1966:A2 9.41642e-05
5 *351:22 *490:27 0.000196269
6 *351:22 *563:69 0.000241198
7 *1956:A2 *351:22 2.2285e-05
8 *1967:A2 *351:22 1.98839e-05
9 *1969:A *351:22 5.33005e-05
10 *197:28 *351:22 9.54798e-06
11 *197:40 *351:22 2.06178e-05
12 *199:51 *351:22 7.6644e-05
13 *199:95 *351:22 4.13059e-05
14 *302:14 *351:22 0.000522439
15 *326:78 *351:22 0.000854837
*RES
1 *1968:X *351:22 48.7107 
2 *351:22 *1969:C 9.3 
*END

*D_NET *352 0.00151604
*CONN
*I *1971:B I *D sky130_fd_sc_hd__xor2_1
*I *2015:B1 I *D sky130_fd_sc_hd__a21o_1
*I *1970:X O *D sky130_fd_sc_hd__a21o_1
*CAP
1 *1971:B 0.000207869
2 *2015:B1 0
3 *1970:X 0.000190341
4 *352:10 0.00039821
5 *1971:B *2016:B 4.63028e-05
6 *1971:B *2017:B 0.000276211
7 *1971:B *2118:A 0
8 *1971:B *534:147 0
9 *1971:B *553:68 3.51442e-05
10 *352:10 *2118:A 0
11 *352:10 *553:47 2.51343e-06
12 *352:10 *553:68 0.000150625
13 *191:76 *352:10 6.74911e-05
14 *192:97 *1971:B 0.000141337
*RES
1 *1970:X *352:10 17.1036 
2 *352:10 *2015:B1 13.8 
3 *352:10 *1971:B 19.7643 
*END

*D_NET *353 0.00123333
*CONN
*I *1972:A I *D sky130_fd_sc_hd__inv_2
*I *1973:B I *D sky130_fd_sc_hd__xor2_1
*I *1971:X O *D sky130_fd_sc_hd__xor2_1
*CAP
1 *1972:A 0.000155034
2 *1973:B 0
3 *1971:X 6.60424e-05
4 *353:6 0.000221076
5 *1972:A *2013:A2 0.000125731
6 *1972:A *2017:B 9.90367e-05
7 *353:6 *2017:B 0.00040765
8 *192:97 *353:6 0.000158761
*RES
1 *1971:X *353:6 13.1214 
2 *353:6 *1973:B 9.3 
3 *353:6 *1972:A 21.8 
*END

*D_NET *354 0.000667864
*CONN
*I *2013:A2 I *D sky130_fd_sc_hd__a21oi_1
*I *1972:Y O *D sky130_fd_sc_hd__inv_2
*CAP
1 *2013:A2 0.000171288
2 *1972:Y 0.000171288
3 *2013:A2 *1973:A 8.16036e-05
4 *2013:A2 *355:8 0.000108848
5 *1972:A *2013:A2 0.000125731
6 *192:97 *2013:A2 9.10431e-06
*RES
1 *1972:Y *2013:A2 32.2071 
*END

*D_NET *355 0.00110886
*CONN
*I *1974:B1 I *D sky130_fd_sc_hd__a21oi_1
*I *1975:A3 I *D sky130_fd_sc_hd__a31o_1
*I *1973:X O *D sky130_fd_sc_hd__xor2_1
*CAP
1 *1974:B1 0
2 *1975:A3 0.000153759
3 *1973:X 0.00023035
4 *355:8 0.000384109
5 *1975:A3 *1976:B 0
6 *1975:A3 *2050:C1 0
7 *355:8 *2013:B1 0
8 *355:8 *2017:A 7.95581e-05
9 *355:8 *2050:C1 0
10 *1974:A1 *1975:A3 0.000103253
11 *1974:A2 *1975:A3 2.00751e-05
12 *1975:A2 *1975:A3 2.89114e-05
13 *2013:A2 *355:8 0.000108848
14 *192:97 *355:8 0
15 *192:99 *355:8 0
*RES
1 *1973:X *355:8 19.0857 
2 *355:8 *1975:A3 17.1214 
3 *355:8 *1974:B1 13.8 
*END

*D_NET *356 0.00154958
*CONN
*I *1976:A I *D sky130_fd_sc_hd__nor2_1
*I *2013:B1 I *D sky130_fd_sc_hd__a21oi_1
*I *1974:Y O *D sky130_fd_sc_hd__a21oi_1
*CAP
1 *1976:A 0.000182839
2 *2013:B1 0.00021466
3 *1974:Y 0.000156881
4 *356:6 0.00055438
5 *1976:A *2050:C1 8.3068e-05
6 *2013:B1 *2017:A 2.61337e-05
7 *2013:B1 *2018:B 4.46186e-06
8 *2013:B1 *2050:C1 0.000101545
9 *2018:A *2013:B1 0.000225616
10 *355:8 *2013:B1 0
*RES
1 *1974:Y *356:6 11.4786 
2 *356:6 *2013:B1 22.7286 
3 *356:6 *1976:A 22.1036 
*END

*D_NET *357 0.000124381
*CONN
*I *1976:B I *D sky130_fd_sc_hd__nor2_1
*I *1975:X O *D sky130_fd_sc_hd__a31o_1
*CAP
1 *1976:B 6.21903e-05
2 *1975:X 6.21903e-05
3 *1975:A2 *1976:B 0
4 *1975:A3 *1976:B 0
*RES
1 *1975:X *1976:B 19.5643 
*END

*D_NET *358 0.000894159
*CONN
*I *2131:A I *D sky130_fd_sc_hd__clkbuf_1
*I *1598:Y O *D sky130_fd_sc_hd__a2111oi_1
*CAP
1 *2131:A 0.000249598
2 *1598:Y 0.000249598
3 *2131:A *1966:B2 5.71472e-05
4 *2131:A *524:64 0.00012501
5 *2131:A *554:75 0
6 *1808:A *2131:A 0.000102545
7 *182:16 *2131:A 4.58194e-05
8 *183:12 *2131:A 6.444e-05
*RES
1 *1598:Y *2131:A 33.0643 
*END

*D_NET *359 0.00462516
*CONN
*I *2011:B1 I *D sky130_fd_sc_hd__a211o_1
*I *1976:Y O *D sky130_fd_sc_hd__nor2_1
*CAP
1 *2011:B1 0
2 *1976:Y 0.00120744
3 *359:14 0.00120744
4 *359:14 *1958:A 1.39841e-05
5 *359:14 *2008:B2 0.000138881
6 *359:14 *2050:C1 0.000103267
7 *359:14 *397:20 0.00103659
8 *2007:B1 *359:14 2.40107e-05
9 *2011:A1 *359:14 2.59355e-05
10 *326:56 *359:14 2.21991e-05
11 *341:6 *359:14 0.000445571
12 *341:19 *359:14 0.000399841
*RES
1 *1976:Y *359:14 42.2643 
2 *359:14 *2011:B1 9.3 
*END

*D_NET *360 0.00300438
*CONN
*I *2003:A I *D sky130_fd_sc_hd__xnor2_1
*I *2002:A I *D sky130_fd_sc_hd__and3_1
*I *1977:X O *D sky130_fd_sc_hd__a21o_1
*CAP
1 *2003:A 0
2 *2002:A 0.000224785
3 *1977:X 0.000190126
4 *360:8 0.000414911
5 *2002:A *2003:B 0.000924679
6 *2002:A *2062:A 0.000920542
7 *360:8 *2003:B 3.34295e-05
8 *360:8 *388:10 0.000270236
9 *360:8 *431:12 0
10 *1946:A *360:8 2.56694e-05
11 *323:14 *360:8 0
*RES
1 *1977:X *360:8 18.175 
2 *360:8 *2002:A 25.4607 
3 *360:8 *2003:A 13.8 
*END

*D_NET *361 0.00142075
*CONN
*I *1980:A I *D sky130_fd_sc_hd__or2_1
*I *2020:A I *D sky130_fd_sc_hd__xnor2_1
*I *1978:X O *D sky130_fd_sc_hd__o211a_1
*CAP
1 *1980:A 2.11787e-05
2 *2020:A 0.000230595
3 *1978:X 8.10816e-05
4 *361:8 0.000332856
5 *1980:A *1979:A2 5.52302e-05
6 *1980:A *363:10 1.07719e-05
7 *2020:A *1980:B 4.46186e-06
8 *2020:A *2062:A 0
9 *2020:A *363:10 0.000151333
10 *361:8 *1980:B 9.67416e-05
11 *323:14 *2020:A 0.000251908
12 *323:14 *361:8 0.00018459
*RES
1 *1978:X *361:8 16.3536 
2 *361:8 *2020:A 19.1393 
3 *361:8 *1980:A 14.3357 
*END

*D_NET *362 0.000487197
*CONN
*I *1980:B I *D sky130_fd_sc_hd__or2_1
*I *1979:Y O *D sky130_fd_sc_hd__a211oi_1
*CAP
1 *1980:B 0.000154859
2 *1979:Y 0.000154859
3 *1980:B *1979:A2 5.52302e-05
4 *1980:B *2062:A 0
5 *1980:B *2065:A 2.10446e-05
6 *2020:A *1980:B 4.46186e-06
7 *361:8 *1980:B 9.67416e-05
*RES
1 *1979:Y *1980:B 30.6893 
*END

*D_NET *363 0.00134001
*CONN
*I *1999:B1 I *D sky130_fd_sc_hd__o21ai_1
*I *2000:A I *D sky130_fd_sc_hd__or3_1
*I *1980:X O *D sky130_fd_sc_hd__or2_1
*CAP
1 *1999:B1 0
2 *2000:A 0.00011849
3 *1980:X 0.000378214
4 *363:10 0.000496704
5 *2000:A *1999:A1 6.48863e-05
6 *2000:A *1999:A2 0
7 *2000:A *2043:A 0
8 *363:10 *1979:A2 3.06878e-06
9 *363:10 *2020:B 5.48581e-05
10 *363:10 *2043:A 0
11 *363:10 *2062:A 0
12 *363:10 *384:12 0
13 *1980:A *363:10 1.07719e-05
14 *2020:A *363:10 0.000151333
15 *310:12 *2000:A 0
16 *310:12 *363:10 0
17 *323:14 *363:10 6.1684e-05
*RES
1 *1980:X *363:10 21.2464 
2 *363:10 *2000:A 16.3536 
3 *363:10 *1999:B1 13.8 
*END

*D_NET *364 0.00032533
*CONN
*I *1985:A I *D sky130_fd_sc_hd__xnor2_1
*I *1981:Y O *D sky130_fd_sc_hd__nand2_1
*CAP
1 *1985:A 0.00015388
2 *1981:Y 0.00015388
3 *1985:A *1981:A 6.05161e-06
4 *1985:A *1985:B 0
5 *1985:A *2040:A 0
6 *1985:A *490:27 0
7 *1985:A *537:84 1.15172e-05
*RES
1 *1981:Y *1985:A 30.0821 
*END

*D_NET *365 0.000535424
*CONN
*I *1984:A I *D sky130_fd_sc_hd__nor2_1
*I *1982:Y O *D sky130_fd_sc_hd__a22oi_1
*CAP
1 *1984:A 0.000179133
2 *1982:Y 0.000179133
3 *1984:A *521:39 5.31113e-05
4 *1984:A *527:34 0
5 *1984:A *541:36 5.33005e-05
6 *1984:A *565:62 2.59355e-05
7 *1984:A *566:35 0
8 *305:12 *1984:A 4.48113e-05
*RES
1 *1982:Y *1984:A 30.6893 
*END

*D_NET *366 0.00103064
*CONN
*I *1984:B I *D sky130_fd_sc_hd__nor2_1
*I *2038:B1 I *D sky130_fd_sc_hd__a31o_1
*I *1983:X O *D sky130_fd_sc_hd__and4_1
*CAP
1 *1984:B 6.82908e-05
2 *2038:B1 0
3 *1983:X 0.000111142
4 *366:12 0.000179433
5 *1984:B *1979:A2 9.61553e-05
6 *1984:B *1981:A 5.52238e-05
7 *1984:B *367:6 0.000142856
8 *1984:B *537:84 9.41642e-05
9 *366:12 *1979:A2 3.75052e-05
10 *366:12 *1983:C 5.33005e-05
11 *366:12 *1983:D 1.02504e-05
12 *366:12 *490:27 0
13 *366:12 *525:92 0.000166503
14 *366:12 *565:62 1.58163e-05
*RES
1 *1983:X *366:12 21.0857 
2 *366:12 *2038:B1 9.3 
3 *366:12 *1984:B 11.8893 
*END

*D_NET *367 0.000824213
*CONN
*I *2038:A3 I *D sky130_fd_sc_hd__a31o_1
*I *1985:B I *D sky130_fd_sc_hd__xnor2_1
*I *1984:Y O *D sky130_fd_sc_hd__nor2_1
*CAP
1 *2038:A3 0
2 *1985:B 0.000216126
3 *1984:Y 7.6959e-05
4 *367:6 0.000293085
5 *1985:B *2038:A2 1.02504e-05
6 *1985:B *2040:A 6.75007e-05
7 *367:6 *1979:A2 1.74352e-05
8 *1984:B *367:6 0.000142856
9 *1985:A *1985:B 0
*RES
1 *1984:Y *367:6 11.0679 
2 *367:6 *1985:B 22.3179 
3 *367:6 *2038:A3 9.3 
*END

*D_NET *368 0.00181475
*CONN
*I *1996:A I *D sky130_fd_sc_hd__xor2_1
*I *2039:A1 I *D sky130_fd_sc_hd__a21oi_1
*I *1985:Y O *D sky130_fd_sc_hd__xnor2_1
*CAP
1 *1996:A 0
2 *2039:A1 5.28636e-05
3 *1985:Y 0.000588865
4 *368:12 0.000641729
5 *2039:A1 *1996:B 6.74911e-05
6 *2039:A1 *2040:A 4.57445e-05
7 *368:12 *2040:A 0.000265009
8 *1938:A *368:12 0
9 *1939:A *368:12 0
10 *1940:B *368:12 0.000153047
11 *311:10 *368:12 0
12 *316:10 *368:12 0
13 *317:34 *368:12 0
*RES
1 *1985:Y *368:12 30.1214 
2 *368:12 *2039:A1 19.9429 
3 *368:12 *1996:A 9.3 
*END

*D_NET *369 0.00349303
*CONN
*I *1607:A1 I *D sky130_fd_sc_hd__a21oi_1
*I *1641:A2 I *D sky130_fd_sc_hd__a21o_1
*I *1605:A2 I *D sky130_fd_sc_hd__a211oi_2
*I *1604:B1_N I *D sky130_fd_sc_hd__o21bai_1
*I *1608:A2 I *D sky130_fd_sc_hd__a211o_1
*I *1599:Y O *D sky130_fd_sc_hd__o41ai_4
*CAP
1 *1607:A1 6.5324e-05
2 *1641:A2 0
3 *1605:A2 0
4 *1604:B1_N 5.20791e-05
5 *1608:A2 0.000114318
6 *1599:Y 6.51163e-05
7 *369:25 5.20791e-05
8 *369:14 0.000170827
9 *369:10 0.000210157
10 *369:6 0.000284088
11 *1604:B1_N *1604:A1 0.000268396
12 *1604:B1_N *550:32 0.000268396
13 *1607:A1 *540:18 0.000194358
14 *1608:A2 *1608:A1 0.000218012
15 *1608:A2 *474:14 0
16 *1608:A2 *542:141 5.41794e-05
17 *369:6 *1599:A2 0.000114645
18 *369:6 *547:82 2.89114e-05
19 *369:10 *1599:A2 2.89114e-05
20 *369:10 *1641:A1 0.000102327
21 *369:14 *1608:A1 0.00017309
22 *369:14 *542:141 0.00016384
23 *1599:A3 *1607:A1 0.00019678
24 *1599:A4 *369:6 0.000265453
25 *1599:A4 *369:10 0.000122591
26 *1641:B1 *369:10 0.000279154
*RES
1 *1599:Y *369:6 11.8893 
2 *369:6 *369:10 4.25 
3 *369:10 *369:14 6.75 
4 *369:14 *1608:A2 16.6571 
5 *369:14 *369:25 4.5 
6 *369:25 *1604:B1_N 11.8893 
7 *369:25 *1605:A2 9.3 
8 *369:10 *1641:A2 9.3 
9 *369:6 *1607:A1 20.8536 
*END

*D_NET *370 0.00132591
*CONN
*I *1991:A I *D sky130_fd_sc_hd__xor2_1
*I *2031:A1 I *D sky130_fd_sc_hd__o21bai_1
*I *1986:Y O *D sky130_fd_sc_hd__nand2_1
*CAP
1 *1991:A 0
2 *2031:A1 0.000216193
3 *1986:Y 0.000127492
4 *370:8 0.000343685
5 *2031:A1 *1989:A1 6.9061e-05
6 *2031:A1 *1989:A2 1.46576e-05
7 *2031:A1 *1989:B2 5.33005e-05
8 *2031:A1 *2031:A2 0.000288166
9 *2031:A1 *492:77 2.77173e-05
10 *370:8 *1986:A 0.000185643
*RES
1 *1986:Y *370:8 12.3179 
2 *370:8 *2031:A1 14.925 
3 *370:8 *1991:A 9.3 
*END

*D_NET *371 0.000337158
*CONN
*I *2034:A I *D sky130_fd_sc_hd__xor2_1
*I *1987:Y O *D sky130_fd_sc_hd__nand2_1
*CAP
1 *2034:A 0.000168579
2 *1987:Y 0.000168579
3 *2034:A *2033:A 0
4 *2034:A *2033:B 0
*RES
1 *1987:Y *2034:A 21.2071 
*END

*D_NET *372 0.00122181
*CONN
*I *1990:A I *D sky130_fd_sc_hd__or2_1
*I *2031:B1_N I *D sky130_fd_sc_hd__o21bai_1
*I *1988:X O *D sky130_fd_sc_hd__and3_1
*CAP
1 *1990:A 0.000200766
2 *2031:B1_N 0.000202006
3 *1988:X 0
4 *372:4 0.000402772
5 *1990:A *1988:A 5.52302e-05
6 *1990:A *1988:C 1.95435e-05
7 *1990:A *1990:B 5.33005e-05
8 *1990:A *549:72 3.67142e-05
9 *1990:A *549:81 4.70078e-05
10 *2031:B1_N *1988:A 0
11 *2031:B1_N *2033:B 5.7616e-05
12 *2031:B1_N *549:72 1.94094e-05
13 *2031:B1_N *554:23 0.000127446
*RES
1 *1988:X *372:4 9.3 
2 *372:4 *2031:B1_N 21.7107 
3 *372:4 *1990:A 13.4429 
*END

*D_NET *373 0.00126236
*CONN
*I *1990:B I *D sky130_fd_sc_hd__or2_1
*I *2031:A2 I *D sky130_fd_sc_hd__o21bai_1
*I *1989:Y O *D sky130_fd_sc_hd__a22oi_1
*CAP
1 *1990:B 0.000153515
2 *2031:A2 0.000205062
3 *1989:Y 0
4 *373:4 0.000358578
5 *1990:B *1989:B1 1.3142e-05
6 *1990:B *1989:B2 5.41794e-05
7 *1990:B *1991:B 0
8 *1990:B *492:77 0.000101545
9 *1990:B *518:33 0
10 *2031:A2 *1989:A1 3.48705e-05
11 *1990:A *1990:B 5.33005e-05
12 *2031:A1 *2031:A2 0.000288166
*RES
1 *1989:Y *373:4 9.3 
2 *373:4 *2031:A2 13.4429 
3 *373:4 *1990:B 21.3893 
*END

*D_NET *374 0.000397845
*CONN
*I *1991:B I *D sky130_fd_sc_hd__xor2_1
*I *1990:X O *D sky130_fd_sc_hd__or2_1
*CAP
1 *1991:B 0.00016633
2 *1990:X 0.00016633
3 *1991:B *375:12 0
4 *1991:B *518:33 6.5185e-05
5 *1990:B *1991:B 0
*RES
1 *1990:X *1991:B 30.0821 
*END

*D_NET *375 0.00206798
*CONN
*I *1992:C I *D sky130_fd_sc_hd__nor3_1
*I *1993:B1 I *D sky130_fd_sc_hd__o21a_1
*I *1991:X O *D sky130_fd_sc_hd__xor2_1
*CAP
1 *1992:C 0
2 *1993:B1 9.77527e-05
3 *1991:X 0.00055814
4 *375:12 0.000655893
5 *1993:B1 *1994:A 0.000229456
6 *375:12 *518:33 0.00014983
7 *375:12 *546:35 1.87955e-05
8 *375:12 *546:44 0.000144764
9 *1991:B *375:12 0
10 *1992:B *375:12 1.74352e-05
11 *1993:A1 *1993:B1 5.40878e-05
12 *1993:A1 *375:12 0.00014183
*RES
1 *1991:X *375:12 30.5857 
2 *375:12 *1993:B1 12.3357 
3 *375:12 *1992:C 9.3 
*END

*D_NET *376 0.000864199
*CONN
*I *1994:A I *D sky130_fd_sc_hd__or2_1
*I *1992:Y O *D sky130_fd_sc_hd__nor3_1
*CAP
1 *1994:A 0.000211432
2 *1992:Y 0.000211432
3 *1994:A *2039:A2 0
4 *1994:A *2039:B1 3.48705e-05
5 *1994:A *377:6 2.27416e-05
6 *1994:A *378:8 0
7 *1992:B *1994:A 5.52238e-05
8 *1993:A2 *1994:A 9.90431e-05
9 *1993:B1 *1994:A 0.000229456
*RES
1 *1992:Y *1994:A 23.5643 
*END

*D_NET *377 0.000385438
*CONN
*I *2039:B1 I *D sky130_fd_sc_hd__a21oi_1
*I *1994:B I *D sky130_fd_sc_hd__or2_1
*I *1993:X O *D sky130_fd_sc_hd__o21a_1
*CAP
1 *2039:B1 0.000123486
2 *1994:B 0
3 *1993:X 2.59714e-05
4 *377:6 0.000149457
5 *2039:B1 *378:8 2.89114e-05
6 *1994:A *2039:B1 3.48705e-05
7 *1994:A *377:6 2.27416e-05
*RES
1 *1993:X *377:6 9.83571 
2 *377:6 *1994:B 9.3 
3 *377:6 *2039:B1 11.4786 
*END

*D_NET *378 0.000772708
*CONN
*I *1995:A I *D sky130_fd_sc_hd__inv_2
*I *1996:B I *D sky130_fd_sc_hd__xor2_1
*I *1994:X O *D sky130_fd_sc_hd__or2_1
*CAP
1 *1995:A 0
2 *1996:B 0.000178223
3 *1994:X 0.000138784
4 *378:8 0.000317007
5 *1996:B *2040:A 0
6 *1996:B *2042:B 0
7 *378:8 *2039:A2 4.22908e-05
8 *1994:A *378:8 0
9 *2039:A1 *1996:B 6.74911e-05
10 *2039:B1 *378:8 2.89114e-05
*RES
1 *1994:X *378:8 11.9071 
2 *378:8 *1996:B 21.3893 
3 *378:8 *1995:A 9.3 
*END

*D_NET *379 0.000192296
*CONN
*I *2039:A2 I *D sky130_fd_sc_hd__a21oi_1
*I *1995:Y O *D sky130_fd_sc_hd__inv_2
*CAP
1 *2039:A2 7.50025e-05
2 *1995:Y 7.50025e-05
3 *1994:A *2039:A2 0
4 *378:8 *2039:A2 4.22908e-05
*RES
1 *1995:Y *2039:A2 19.975 
*END

*D_NET *380 0.00197458
*CONN
*I *1602:B I *D sky130_fd_sc_hd__nor2_1
*I *1601:A2 I *D sky130_fd_sc_hd__a211o_1
*I *1603:B I *D sky130_fd_sc_hd__or2_1
*I *1600:X O *D sky130_fd_sc_hd__and2b_1
*CAP
1 *1602:B 0
2 *1601:A2 0.000432444
3 *1603:B 0
4 *1600:X 8.10001e-05
5 *380:12 0.000509136
6 *380:8 0.000157693
7 *1601:A2 *1602:A 9.90431e-05
8 *1601:A2 *1604:A2 4.08637e-05
9 *1601:A2 *1832:B1 8.02593e-05
10 *1601:A2 *412:6 3.97657e-05
11 *1601:A2 *534:118 0
12 *1601:A2 *542:141 0.000243627
13 *1601:A2 *543:42 0
14 *1601:A2 *547:12 6.05161e-06
15 *1601:A2 *547:26 0.000113073
16 *380:12 *1602:A 5.52238e-05
17 *380:12 *1604:A2 9.71197e-05
18 *1641:B1 *1601:A2 1.92789e-05
*RES
1 *1600:X *380:8 10.675 
2 *380:8 *380:12 1.78571 
3 *380:12 *1603:B 9.3 
4 *380:12 *1601:A2 27.05 
5 *380:8 *1602:B 9.3 
*END

*D_NET *381 0.00163168
*CONN
*I *1998:B1 I *D sky130_fd_sc_hd__a21oi_1
*I *1997:C I *D sky130_fd_sc_hd__and3_1
*I *1996:X O *D sky130_fd_sc_hd__xor2_1
*CAP
1 *1998:B1 6.93751e-05
2 *1997:C 0
3 *1996:X 0.000476651
4 *381:14 0.000546026
5 *1998:B1 *566:14 0.000152772
6 *381:14 *2042:B 7.15962e-05
7 *381:14 *566:14 9.50968e-06
8 *381:14 *566:35 0
9 *1997:B *381:14 4.25619e-05
10 *1998:A1 *1998:B1 0.000176619
11 *1998:A1 *381:14 1.95435e-05
12 *1998:A2 *1998:B1 5.52302e-05
13 *322:8 *381:14 1.17968e-05
*RES
1 *1996:X *381:14 24.9786 
2 *381:14 *1997:C 9.3 
3 *381:14 *1998:B1 11.8179 
*END

*D_NET *382 0.00111907
*CONN
*I *2000:B I *D sky130_fd_sc_hd__or3_1
*I *1999:A1 I *D sky130_fd_sc_hd__o21ai_1
*I *1997:X O *D sky130_fd_sc_hd__and3_1
*CAP
1 *2000:B 3.26798e-05
2 *1999:A1 0.000188606
3 *1997:X 0.000176029
4 *382:10 0.000397315
5 *1999:A1 *1999:A2 0
6 *2000:B *383:6 5.52302e-05
7 *382:10 *383:6 0.000133801
8 *382:10 *566:14 7.05178e-05
9 *1997:B *1999:A1 0
10 *2000:A *1999:A1 6.48863e-05
11 *310:12 *1999:A1 0
12 *322:8 *1999:A1 0
*RES
1 *1997:X *382:10 12.4429 
2 *382:10 *1999:A1 21.1571 
3 *382:10 *2000:B 10.2643 
*END

*D_NET *383 0.00255023
*CONN
*I *2021:A_N I *D sky130_fd_sc_hd__and2b_1
*I *1999:A2 I *D sky130_fd_sc_hd__o21ai_1
*I *2000:C I *D sky130_fd_sc_hd__or3_1
*I *1998:Y O *D sky130_fd_sc_hd__a21oi_1
*CAP
1 *2021:A_N 0.000247373
2 *1999:A2 0.000293081
3 *2000:C 2.03441e-05
4 *1998:Y 3.59736e-05
5 *383:15 0.000642585
6 *383:6 0.000158449
7 *1999:A2 *2043:A 7.04538e-05
8 *1999:A2 *2062:A 3.69047e-06
9 *1999:A2 *384:12 0.00010462
10 *2000:C *566:14 5.7661e-06
11 *2021:A_N *2021:B 0
12 *2021:A_N *2043:A 0
13 *2021:A_N *385:8 0.000114655
14 *2021:A_N *385:23 0
15 *2021:A_N *566:14 0.000130741
16 *383:6 *566:14 0.000121484
17 *383:15 *385:8 0.000105163
18 *383:15 *566:14 0.000141326
19 *1999:A1 *1999:A2 0
20 *2000:A *1999:A2 0
21 *2000:B *383:6 5.52302e-05
22 *2109:A *2021:A_N 0.000165494
23 *382:10 *383:6 0.000133801
*RES
1 *1998:Y *383:6 10.983 
2 *383:6 *2000:C 9.72857 
3 *383:6 *383:15 3.41071 
4 *383:15 *1999:A2 24.2643 
5 *383:15 *2021:A_N 24.3714 
*END

*D_NET *384 0.000985454
*CONN
*I *2001:A I *D sky130_fd_sc_hd__nand2_1
*I *2002:B I *D sky130_fd_sc_hd__and3_1
*I *1999:Y O *D sky130_fd_sc_hd__o21ai_1
*CAP
1 *2001:A 0.000119546
2 *2002:B 0
3 *1999:Y 0.000242048
4 *384:12 0.000361595
5 *2001:A *2002:C 7.32272e-05
6 *2001:A *2003:B 6.05161e-06
7 *384:12 *2062:A 7.83659e-05
8 *1999:A2 *384:12 0.00010462
9 *363:10 *384:12 0
*RES
1 *1999:Y *384:12 21.925 
2 *384:12 *2002:B 9.3 
3 *384:12 *2001:A 11.6929 
*END

*D_NET *385 0.00229762
*CONN
*I *2002:C I *D sky130_fd_sc_hd__and3_1
*I *2001:B I *D sky130_fd_sc_hd__nand2_1
*I *2021:B I *D sky130_fd_sc_hd__and2b_1
*I *2000:X O *D sky130_fd_sc_hd__or3_1
*CAP
1 *2002:C 0.000226433
2 *2001:B 0
3 *2021:B 6.3464e-05
4 *2000:X 0.000272268
5 *385:23 0.000515285
6 *385:8 0.000624584
7 *2002:C *2003:B 8.25843e-06
8 *2021:B *2043:A 5.33786e-05
9 *385:23 *2043:A 0.000240906
10 *2001:A *2002:C 7.32272e-05
11 *2021:A_N *2021:B 0
12 *2021:A_N *385:8 0.000114655
13 *2021:A_N *385:23 0
14 *2108:A *385:23 0
15 *2109:A *385:23 0
16 *383:15 *385:8 0.000105163
*RES
1 *2000:X *385:8 17.6214 
2 *385:8 *2021:B 15.1393 
3 *385:8 *385:23 10.9286 
4 *385:23 *2001:B 9.3 
5 *385:23 *2002:C 12.2821 
*END

*D_NET *386 0.00221493
*CONN
*I *2003:B I *D sky130_fd_sc_hd__xnor2_1
*I *2001:Y O *D sky130_fd_sc_hd__nand2_1
*CAP
1 *2003:B 0.000353499
2 *2001:Y 0.000353499
3 *2003:B *2043:A 0.000222885
4 *2003:B *2062:A 3.90513e-05
5 *2003:B *431:12 0.000273576
6 *2003:B *544:18 0
7 *2001:A *2003:B 6.05161e-06
8 *2002:A *2003:B 0.000924679
9 *2002:C *2003:B 8.25843e-06
10 *360:8 *2003:B 3.34295e-05
*RES
1 *2001:Y *2003:B 41.0107 
*END

*D_NET *387 0.00024054
*CONN
*I *2020:B I *D sky130_fd_sc_hd__xnor2_1
*I *2002:X O *D sky130_fd_sc_hd__and3_1
*CAP
1 *2020:B 6.54117e-05
2 *2002:X 6.54117e-05
3 *2020:B *2062:A 5.48581e-05
4 *363:10 *2020:B 5.48581e-05
*RES
1 *2002:X *2020:B 29.5464 
*END

*D_NET *388 0.00440021
*CONN
*I *2019:B1 I *D sky130_fd_sc_hd__o21ai_1
*I *2004:A I *D sky130_fd_sc_hd__xnor2_1
*I *2003:Y O *D sky130_fd_sc_hd__xnor2_1
*CAP
1 *2019:B1 0.000103932
2 *2004:A 5.50549e-05
3 *2003:Y 0.00120062
4 *388:10 0.00135961
5 *2019:B1 *389:12 7.83366e-05
6 *2019:B1 *405:12 2.89016e-05
7 *2019:B1 *431:12 0
8 *388:10 *431:12 0
9 *388:10 *527:76 0
10 *388:10 *527:89 0
11 *388:10 *544:18 5.62995e-05
12 *1914:A1 *388:10 0
13 *1916:B *388:10 6.76272e-05
14 *1944:B *388:10 0
15 *1945:B1 *388:10 0
16 *1946:A *388:10 0
17 *1947:A *388:10 1.5605e-05
18 *1947:B *388:10 2.72545e-05
19 *2004:B *2004:A 5.52238e-05
20 *260:10 *388:10 0
21 *291:8 *388:10 0
22 *292:12 *388:10 6.5185e-05
23 *295:12 *388:10 0
24 *323:14 *388:10 0
25 *325:12 *388:10 0.000148903
26 *329:8 *388:10 0.000177941
27 *329:23 *388:10 0.000383747
28 *332:12 *2019:B1 8.89385e-05
29 *332:12 *388:10 0.000187893
30 *334:6 *2019:B1 2.89016e-05
31 *360:8 *388:10 0.000270236
*RES
1 *2003:Y *388:10 40.9786 
2 *388:10 *2004:A 14.7464 
3 *388:10 *2019:B1 16.8893 
*END

*D_NET *389 0.00115038
*CONN
*I *2006:B I *D sky130_fd_sc_hd__nand2_1
*I *2005:B I *D sky130_fd_sc_hd__or2_1
*I *2004:Y O *D sky130_fd_sc_hd__xnor2_1
*CAP
1 *2006:B 0.000116554
2 *2005:B 0
3 *2004:Y 0.000144582
4 *389:12 0.000261136
5 *389:12 *2012:A2 6.05161e-06
6 *389:12 *405:12 0.000246057
7 *2006:A *2006:B 4.48152e-05
8 *2006:A *389:12 5.33005e-05
9 *2019:A1 *389:12 4.89264e-05
10 *2019:B1 *389:12 7.83366e-05
11 *334:12 *389:12 0.000150625
*RES
1 *2004:Y *389:12 23.2107 
2 *389:12 *2005:B 9.3 
3 *389:12 *2006:B 11.5143 
*END

*D_NET *390 0.000582034
*CONN
*I *2012:A2 I *D sky130_fd_sc_hd__a31o_1
*I *2005:X O *D sky130_fd_sc_hd__or2_1
*CAP
1 *2012:A2 0.000168266
2 *2005:X 0.000168266
3 *2012:A2 *2012:A3 2.49484e-05
4 *2012:A2 *405:12 7.83659e-05
5 *2012:A2 *438:16 0.00012401
6 *2006:A *2012:A2 1.21258e-05
7 *389:12 *2012:A2 6.05161e-06
*RES
1 *2005:X *2012:A2 30.6 
*END

*D_NET *391 0.00390048
*CONN
*I *1607:B1 I *D sky130_fd_sc_hd__a21oi_1
*I *1604:A1 I *D sky130_fd_sc_hd__o21bai_1
*I *1608:B1 I *D sky130_fd_sc_hd__a211o_1
*I *1601:X O *D sky130_fd_sc_hd__a211o_1
*CAP
1 *1607:B1 0.000344917
2 *1604:A1 0.000168813
3 *1608:B1 6.58477e-05
4 *1601:X 0.000104675
5 *391:16 0.000425648
6 *391:12 0.000640579
7 *1604:A1 *1590:A 0
8 *1604:A1 *1605:A1 5.52238e-05
9 *1604:A1 *1618:B 0.000186379
10 *1604:A1 *423:10 2.44318e-05
11 *1604:A1 *518:54 5.52238e-05
12 *1604:A1 *542:141 0.000178847
13 *1604:A1 *550:32 0.000148391
14 *1607:B1 *1607:A2 3.08382e-06
15 *1607:B1 *1832:B1 4.00802e-05
16 *1607:B1 *1968:A2 1.94945e-05
17 *1607:B1 *440:28 2.83129e-05
18 *1607:B1 *547:37 2.89016e-05
19 *1608:B1 *1599:A1 0.000187733
20 *1608:B1 *1608:A1 2.16719e-05
21 *1608:B1 *1618:B 0.000150618
22 *1608:B1 *516:79 1.02504e-05
23 *391:12 *1597:B 3.43988e-06
24 *391:12 *542:141 1.21955e-05
25 *391:16 *1597:B 0.00020515
26 *391:16 *1599:A1 0.000195555
27 *391:16 *1608:A1 0.000132292
28 *391:16 *542:141 0
29 *1599:A3 *1607:B1 9.59532e-06
30 *1604:B1_N *1604:A1 0.000268396
31 *1896:C1 *1607:B1 0.000140113
32 *1896:C1 *391:12 4.46202e-05
*RES
1 *1601:X *391:12 17.6779 
2 *391:12 *391:16 8.8475 
3 *391:16 *1608:B1 16.3536 
4 *391:16 *1604:A1 20.1036 
5 *391:12 *1607:B1 18.9949 
*END

*D_NET *392 0.000448096
*CONN
*I *2012:A3 I *D sky130_fd_sc_hd__a31o_1
*I *2006:Y O *D sky130_fd_sc_hd__nand2_1
*CAP
1 *2012:A3 7.6901e-05
2 *2006:Y 7.6901e-05
3 *2012:A3 *2044:A 1.98839e-05
4 *2012:A3 *2045:A 1.33343e-05
5 *2012:A3 *2045:B 5.52238e-05
6 *2012:A3 *405:12 7.83587e-05
7 *2012:A3 *431:12 0.000102545
8 *2012:A2 *2012:A3 2.49484e-05
*RES
1 *2006:Y *2012:A3 29.7786 
*END

*D_NET *393 0.000708432
*CONN
*I *2008:B2 I *D sky130_fd_sc_hd__o22a_1
*I *2007:Y O *D sky130_fd_sc_hd__a21oi_1
*CAP
1 *2008:B2 0.000166304
2 *2007:Y 0.000166304
3 *2008:B2 *1970:A1 5.83304e-05
4 *2008:B2 *2008:A1 1.02504e-05
5 *2008:B2 *537:12 9.91086e-05
6 *1970:B1 *2008:B2 8.2958e-06
7 *338:8 *2008:B2 6.09572e-05
8 *359:14 *2008:B2 0.000138881
*RES
1 *2007:Y *2008:B2 30.9036 
*END

*D_NET *394 0.00100713
*CONN
*I *2010:B1 I *D sky130_fd_sc_hd__a211o_1
*I *2008:X O *D sky130_fd_sc_hd__o22a_1
*CAP
1 *2010:B1 0.000128604
2 *2008:X 0.000128604
3 *2010:B1 *2010:C1 0.00010096
4 *2010:B1 *535:69 3.07187e-05
5 *2008:B1 *2010:B1 0.000489384
6 *2009:A3 *2010:B1 7.03393e-05
7 *2009:B1 *2010:B1 5.85189e-05
*RES
1 *2008:X *2010:B1 23.6714 
*END

*D_NET *395 0.000224162
*CONN
*I *2010:C1 I *D sky130_fd_sc_hd__a211o_1
*I *2009:X O *D sky130_fd_sc_hd__a32o_1
*CAP
1 *2010:C1 1.1121e-05
2 *2009:X 1.1121e-05
3 *2009:A3 *2010:C1 0.00010096
4 *2010:B1 *2010:C1 0.00010096
*RES
1 *2009:X *2010:C1 19.5464 
*END

*D_NET *396 0.000605697
*CONN
*I *2011:C1 I *D sky130_fd_sc_hd__a211o_1
*I *2010:X O *D sky130_fd_sc_hd__a211o_1
*CAP
1 *2011:C1 0.000129332
2 *2010:X 0.000129332
3 *2010:A2 *2011:C1 4.82391e-05
4 *196:8 *2011:C1 0.000148429
5 *205:14 *2011:C1 9.60939e-05
6 *336:12 *2011:C1 5.42698e-05
*RES
1 *2010:X *2011:C1 30.4929 
*END

*D_NET *397 0.00496819
*CONN
*I *2012:B1 I *D sky130_fd_sc_hd__a31o_1
*I *2011:X O *D sky130_fd_sc_hd__a211o_1
*CAP
1 *2012:B1 0
2 *2011:X 0.00114554
3 *397:20 0.00114554
4 *397:20 *1958:A 0.000263276
5 *397:20 *2007:A2 9.41642e-05
6 *397:20 *2050:A3 2.23987e-05
7 *397:20 *2050:C1 0.000150625
8 *397:20 *2119:A 0
9 *397:20 *438:16 0.000197984
10 *397:20 *535:22 5.52302e-05
11 *397:20 *535:61 5.52238e-05
12 *397:20 *537:6 3.14163e-05
13 *397:20 *537:12 3.32631e-05
14 *1960:A *397:20 5.62995e-05
15 *2007:B1 *397:20 0.000147217
16 *2050:A1 *397:20 0.000150625
17 *341:6 *397:20 6.44345e-05
18 *341:19 *397:20 0.000170902
19 *342:6 *397:20 5.33005e-05
20 *343:8 *397:20 9.41642e-05
21 *359:14 *397:20 0.00103659
*RES
1 *2011:X *397:20 44.2286 
2 *397:20 *2012:B1 9.3 
*END

*D_NET *398 0.00063038
*CONN
*I *2017:A I *D sky130_fd_sc_hd__xnor2_1
*I *2013:Y O *D sky130_fd_sc_hd__a21oi_1
*CAP
1 *2017:A 0.000191878
2 *2013:Y 0.000191878
3 *2017:A *2018:B 0
4 *2013:B1 *2017:A 2.61337e-05
5 *2018:A *2017:A 0.000140933
6 *355:8 *2017:A 7.95581e-05
*RES
1 *2013:Y *2017:A 31.8143 
*END

*D_NET *399 0.000704782
*CONN
*I *2016:A I *D sky130_fd_sc_hd__xnor2_1
*I *2014:Y O *D sky130_fd_sc_hd__xnor2_1
*CAP
1 *2016:A 0.000271648
2 *2014:Y 0.000271648
3 *2016:A *532:6 5.71472e-05
4 *192:97 *2016:A 0.000104339
*RES
1 *2014:Y *2016:A 23.5643 
*END

*D_NET *400 0.000369972
*CONN
*I *2016:B I *D sky130_fd_sc_hd__xnor2_1
*I *2015:X O *D sky130_fd_sc_hd__a21o_1
*CAP
1 *2016:B 0.00015035
2 *2015:X 0.00015035
3 *2016:B *2118:A 0
4 *1971:B *2016:B 4.63028e-05
5 *2015:A2 *2016:B 3.69047e-06
6 *191:72 *2016:B 1.92789e-05
*RES
1 *2015:X *2016:B 30.0821 
*END

*D_NET *401 0.000634872
*CONN
*I *1604:A2 I *D sky130_fd_sc_hd__o21bai_1
*I *1602:Y O *D sky130_fd_sc_hd__nor2_1
*CAP
1 *1604:A2 0.00015347
2 *1602:Y 0.00015347
3 *1604:A2 *518:54 0.000125724
4 *1604:A2 *543:42 6.42242e-05
5 *1601:A2 *1604:A2 4.08637e-05
6 *380:12 *1604:A2 9.71197e-05
*RES
1 *1602:Y *1604:A2 30.6 
*END

*D_NET *402 0.00205734
*CONN
*I *2017:B I *D sky130_fd_sc_hd__xnor2_1
*I *2016:Y O *D sky130_fd_sc_hd__xnor2_1
*CAP
1 *2017:B 0.000601159
2 *2016:Y 0.000601159
3 *2017:B *1971:A 2.89016e-05
4 *1971:B *2017:B 0.000276211
5 *1972:A *2017:B 9.90367e-05
6 *192:97 *2017:B 4.32253e-05
7 *353:6 *2017:B 0.00040765
*RES
1 *2016:Y *2017:B 30.3679 
*END

*D_NET *403 0.000269223
*CONN
*I *2018:B I *D sky130_fd_sc_hd__nor2_1
*I *2017:Y O *D sky130_fd_sc_hd__xnor2_1
*CAP
1 *2018:B 0.00012101
2 *2017:Y 0.00012101
3 *2018:B *2050:C1 2.27416e-05
4 *2013:B1 *2018:B 4.46186e-06
5 *2017:A *2018:B 0
*RES
1 *2017:Y *2018:B 29.7786 
*END

*D_NET *404 0.00163965
*CONN
*I *2050:C1 I *D sky130_fd_sc_hd__a311o_1
*I *2018:Y O *D sky130_fd_sc_hd__nor2_1
*CAP
1 *2050:C1 0.000548088
2 *2018:Y 0.000548088
3 *2050:C1 *2050:A3 3.34295e-05
4 op_out[7] *2050:C1 0
5 *1961:A *2050:C1 0
6 *1963:A_N *2050:C1 0
7 *1974:A1 *2050:C1 0
8 *1975:A1 *2050:C1 0
9 *1975:A3 *2050:C1 0
10 *1976:A *2050:C1 8.3068e-05
11 *2013:B1 *2050:C1 0.000101545
12 *2018:A *2050:C1 4.87953e-05
13 *2018:B *2050:C1 2.27416e-05
14 *341:19 *2050:C1 0
15 *355:8 *2050:C1 0
16 *359:14 *2050:C1 0.000103267
17 *397:20 *2050:C1 0.000150625
*RES
1 *2018:Y *2050:C1 38.2964 
*END

*D_NET *405 0.00216943
*CONN
*I *2044:A I *D sky130_fd_sc_hd__or2_1
*I *2045:A I *D sky130_fd_sc_hd__nand2_1
*I *2019:Y O *D sky130_fd_sc_hd__o21ai_1
*CAP
1 *2044:A 0.000181784
2 *2045:A 0.000142291
3 *2019:Y 0.000261451
4 *405:12 0.000585526
5 *2044:A *2044:B 5.52302e-05
6 *2044:A *2045:B 1.24315e-05
7 *2044:A *2050:A2 2.65105e-05
8 *2045:A *2045:B 4.1074e-05
9 *405:12 *431:12 0.000132058
10 *2012:A1 *2045:A 0.00010946
11 *2012:A2 *405:12 7.83659e-05
12 *2012:A3 *2044:A 1.98839e-05
13 *2012:A3 *2045:A 1.33343e-05
14 *2012:A3 *405:12 7.83587e-05
15 *2019:A1 *405:12 8.50152e-05
16 *2019:B1 *405:12 2.89016e-05
17 *196:93 *2045:A 6.01685e-05
18 *334:6 *405:12 1.15281e-05
19 *389:12 *405:12 0.000246057
*RES
1 *2019:Y *405:12 24.7464 
2 *405:12 *2045:A 12.3357 
3 *405:12 *2044:A 11.9071 
*END

*D_NET *406 0.000346242
*CONN
*I *2043:B I *D sky130_fd_sc_hd__xnor2_1
*I *2020:Y O *D sky130_fd_sc_hd__xnor2_1
*CAP
1 *2043:B 0.00010566
2 *2020:Y 0.00010566
3 *2043:B *2043:A 7.77751e-05
4 *2043:B *431:8 5.71472e-05
*RES
1 *2020:Y *2043:B 20.7964 
*END

*D_NET *407 0.000458419
*CONN
*I *2042:A I *D sky130_fd_sc_hd__xnor2_2
*I *2021:X O *D sky130_fd_sc_hd__and2b_1
*CAP
1 *2042:A 0.00022921
2 *2021:X 0.00022921
*RES
1 *2021:X *2042:A 22.4393 
*END

*D_NET *408 0.000473685
*CONN
*I *2030:A I *D sky130_fd_sc_hd__xnor2_1
*I *2022:Y O *D sky130_fd_sc_hd__nand2_1
*CAP
1 *2030:A 0.000166437
2 *2022:Y 0.000166437
3 *2030:A *2029:B 5.71472e-05
4 *2030:A *2030:B 4.87854e-05
5 *2030:A *2037:A 3.4879e-05
*RES
1 *2022:Y *2030:A 21.6179 
*END

*D_NET *409 0.000673043
*CONN
*I *2027:A I *D sky130_fd_sc_hd__and4_1
*I *2028:A1 I *D sky130_fd_sc_hd__a22o_1
*I *2023:X O *D sky130_fd_sc_hd__a22o_1
*CAP
1 *2027:A 0
2 *2028:A1 7.32952e-05
3 *2023:X 5.6583e-05
4 *409:8 0.000129878
5 *2028:A1 *1640:A1 0
6 *2028:A1 *2027:D 7.79781e-06
7 *2028:A1 *2028:B1 0.000103253
8 *2028:A1 *492:77 0.000199691
9 *2028:A1 *540:33 0
10 *409:8 *492:77 0.000102545
11 *409:8 *540:33 0
*RES
1 *2023:X *409:8 15.1393 
2 *409:8 *2028:A1 16.3536 
3 *409:8 *2027:A 13.8 
*END

*D_NET *410 0.000745747
*CONN
*I *2027:B I *D sky130_fd_sc_hd__and4_1
*I *2028:A2 I *D sky130_fd_sc_hd__a22o_1
*I *2024:Y O *D sky130_fd_sc_hd__nand4_1
*CAP
1 *2027:B 0
2 *2028:A2 0.000137897
3 *2024:Y 7.73907e-05
4 *410:8 0.000215287
5 *2028:A2 *492:77 0.00017309
6 *410:8 *492:77 0.000142082
7 *1907:C *2028:A2 0
8 *1907:C *410:8 0
*RES
1 *2024:Y *410:8 15.7464 
2 *410:8 *2028:A2 16.5857 
3 *410:8 *2027:B 13.8 
*END

*D_NET *411 0.00080397
*CONN
*I *2027:C I *D sky130_fd_sc_hd__and4_1
*I *2028:B1 I *D sky130_fd_sc_hd__a22o_1
*I *2025:X O *D sky130_fd_sc_hd__a22o_1
*CAP
1 *2027:C 0.000131313
2 *2028:B1 3.54404e-05
3 *2025:X 3.92359e-05
4 *411:6 0.000205989
5 *2027:C *2027:D 0.000177821
6 *2028:B1 *2027:D 5.56943e-05
7 *411:6 *2027:D 5.52238e-05
8 *2028:A1 *2028:B1 0.000103253
*RES
1 *2025:X *411:6 9.83571 
2 *411:6 *2028:B1 19.6393 
3 *411:6 *2027:C 11.0679 
*END

*D_NET *412 0.00282217
*CONN
*I *1607:A2 I *D sky130_fd_sc_hd__a21oi_1
*I *1608:A1 I *D sky130_fd_sc_hd__a211o_1
*I *1603:X O *D sky130_fd_sc_hd__or2_1
*CAP
1 *1607:A2 0.000259034
2 *1608:A1 0.000177264
3 *1603:X 0.000220373
4 *412:6 0.000656671
5 *1607:A2 *1597:B 0.000125724
6 *1607:A2 *1601:A1 1.24368e-05
7 *1607:A2 *1832:B1 6.57032e-05
8 *1607:A2 *547:37 2.05612e-05
9 *1608:A1 *1618:B 0.000150618
10 *1608:A1 *542:141 3.67356e-05
11 *1601:A2 *412:6 3.97657e-05
12 *1601:C1 *1607:A2 3.60088e-05
13 *1607:B1 *1607:A2 3.08382e-06
14 *1608:A2 *1608:A1 0.000218012
15 *1608:B1 *1608:A1 2.16719e-05
16 *1641:B1 *1607:A2 0.00016834
17 *1641:B1 *412:6 0.00018077
18 *337:18 *1607:A2 0.00012401
19 *369:14 *1608:A1 0.00017309
20 *391:16 *1608:A1 0.000132292
*RES
1 *1603:X *412:6 12.3 
2 *412:6 *1608:A1 24.1929 
3 *412:6 *1607:A2 23.4964 
*END

*D_NET *413 0.00398162
*CONN
*I *2028:B2 I *D sky130_fd_sc_hd__a22o_1
*I *2027:D I *D sky130_fd_sc_hd__and4_1
*I *2026:X O *D sky130_fd_sc_hd__or4b_1
*CAP
1 *2028:B2 0
2 *2027:D 0.000194697
3 *2026:X 0.00137757
4 *413:10 0.00157227
5 *2027:D *1640:A1 1.17968e-05
6 *2027:D *2025:A1 0.000128161
7 *2027:D *492:77 0
8 *2027:D *565:62 7.85933e-05
9 *413:10 *1643:A 2.9561e-05
10 *413:10 *1643:B 2.89114e-05
11 *413:10 *1644:A0 5.33433e-05
12 *413:10 *1644:A1 8.33853e-05
13 *413:10 *1644:S 7.47337e-05
14 *413:10 *477:8 5.20669e-05
15 *2027:C *2027:D 0.000177821
16 *2028:A1 *2027:D 7.79781e-06
17 *2028:B1 *2027:D 5.56943e-05
18 *411:6 *2027:D 5.52238e-05
*RES
1 *2026:X *413:10 27.8357 
2 *413:10 *2027:D 23.2464 
3 *413:10 *2028:B2 9.3 
*END

*D_NET *414 8.11463e-05
*CONN
*I *2029:A_N I *D sky130_fd_sc_hd__and2b_1
*I *2027:X O *D sky130_fd_sc_hd__and4_1
*CAP
1 *2029:A_N 3.35578e-05
2 *2027:X 3.35578e-05
3 *2029:A_N *565:62 1.40306e-05
*RES
1 *2027:X *2029:A_N 19.1357 
*END

*D_NET *415 0.000927722
*CONN
*I *2029:B I *D sky130_fd_sc_hd__and2b_1
*I *2028:X O *D sky130_fd_sc_hd__a22o_1
*CAP
1 *2029:B 0.000314989
2 *2028:X 0.000314989
3 *2029:B *519:25 0.000177941
4 *1907:C *2029:B 6.26559e-05
5 *2030:A *2029:B 5.71472e-05
*RES
1 *2028:X *2029:B 32.85 
*END

*D_NET *416 0.000479432
*CONN
*I *2030:B I *D sky130_fd_sc_hd__xnor2_1
*I *2029:X O *D sky130_fd_sc_hd__and2b_1
*CAP
1 *2030:B 0.000107735
2 *2029:X 0.000107735
3 *2030:B *1932:A3 1.76135e-05
4 *2030:B *519:25 0.000150632
5 *2030:B *521:57 4.69309e-05
6 *2030:A *2030:B 4.87854e-05
*RES
1 *2029:X *2030:B 30.4929 
*END

*D_NET *417 0.00281873
*CONN
*I *2037:A I *D sky130_fd_sc_hd__xnor2_1
*I *2030:Y O *D sky130_fd_sc_hd__xnor2_1
*CAP
1 *2037:A 0.0011865
2 *2030:Y 0.0011865
3 *2037:A *1909:B 0.00010326
4 *2037:A *1932:A2 0
5 *2037:A *1932:A3 0
6 *2037:A *1932:B1 6.26466e-05
7 *2037:A *2022:B 0.000102197
8 *2037:A *490:27 0
9 *2037:A *519:25 0
10 *2037:A *546:35 0
11 *2037:A *546:44 0
12 *2030:A *2037:A 3.4879e-05
13 *312:12 *2037:A 9.01334e-05
14 *313:24 *2037:A 5.26091e-05
*RES
1 *2030:Y *2037:A 49.5464 
*END

*D_NET *418 0.00098512
*CONN
*I *2036:A I *D sky130_fd_sc_hd__xnor2_1
*I *2031:Y O *D sky130_fd_sc_hd__o21bai_1
*CAP
1 *2036:A 0.000207629
2 *2031:Y 0.000207629
3 *2036:A *1989:B2 0.000318107
4 *2036:A *2036:B 2.44318e-05
5 *2036:A *490:10 0
6 *2036:A *490:25 0
7 *2036:A *546:35 0.000227322
8 *2036:A *552:56 0
9 *2036:A *554:23 0
*RES
1 *2031:Y *2036:A 33.3679 
*END

*D_NET *419 0.000363117
*CONN
*I *2035:A I *D sky130_fd_sc_hd__xnor2_1
*I *2032:Y O *D sky130_fd_sc_hd__nand2_1
*CAP
1 *2035:A 4.9834e-05
2 *2032:Y 4.9834e-05
3 *2035:A *2032:A 6.16082e-05
4 *2035:A *546:35 0.000188586
5 *2035:A *552:56 1.32552e-05
*RES
1 *2032:Y *2035:A 20.7964 
*END

*D_NET *420 0.000277935
*CONN
*I *2034:B I *D sky130_fd_sc_hd__xor2_1
*I *2033:Y O *D sky130_fd_sc_hd__nand2_1
*CAP
1 *2034:B 0.000123034
2 *2033:Y 0.000123034
3 *2034:B *2033:A 3.18676e-05
*RES
1 *2033:Y *2034:B 20.7786 
*END

*D_NET *421 0.000220972
*CONN
*I *2035:B I *D sky130_fd_sc_hd__xnor2_1
*I *2034:X O *D sky130_fd_sc_hd__xor2_1
*CAP
1 *2035:B 0.000110486
2 *2034:X 0.000110486
3 *2035:B *490:25 0
4 *2035:B *546:27 0
*RES
1 *2034:X *2035:B 29.2429 
*END

*D_NET *422 0.00199429
*CONN
*I *2036:B I *D sky130_fd_sc_hd__xnor2_1
*I *2035:Y O *D sky130_fd_sc_hd__xnor2_1
*CAP
1 *2036:B 0.000208442
2 *2035:Y 0.000208442
3 *2036:B *1989:B2 0.000488493
4 *2036:B *2032:A 0.000358971
5 *2036:B *552:56 0.000705512
6 *2036:A *2036:B 2.44318e-05
*RES
1 *2035:Y *2036:B 27.3679 
*END

*D_NET *423 0.00405577
*CONN
*I *1618:B I *D sky130_fd_sc_hd__nor2_1
*I *1637:B1 I *D sky130_fd_sc_hd__a21o_1
*I *1619:B I *D sky130_fd_sc_hd__or2_1
*I *1604:Y O *D sky130_fd_sc_hd__o21bai_1
*CAP
1 *1618:B 0.000490459
2 *1637:B1 8.30037e-05
3 *1619:B 6.99651e-05
4 *1604:Y 0
5 *423:10 0.000446779
6 *423:4 0.000784269
7 *1618:B *441:10 0
8 *1618:B *474:14 0
9 *1618:B *516:79 8.18706e-05
10 *1618:B *542:141 0.000136951
11 *1619:B *1619:A 6.09476e-05
12 *1619:B *519:88 3.93893e-05
13 *1637:B1 *1637:A2 5.52302e-05
14 *1637:B1 *443:16 5.5518e-05
15 *1637:B1 *515:10 0.000279852
16 *1637:B1 *515:88 1.40034e-05
17 *423:10 *1619:A 0.000357634
18 *423:10 *518:54 5.52302e-05
19 *423:10 *519:88 4.038e-06
20 *423:10 *543:42 0
21 *1604:A1 *1618:B 0.000186379
22 *1604:A1 *423:10 2.44318e-05
23 *1608:A1 *1618:B 0.000150618
24 *1608:B1 *1618:B 0.000150618
25 *1896:A2 *1637:B1 3.69047e-06
26 *2054:A *423:10 0.000524889
*RES
1 *1604:Y *423:4 9.3 
2 *423:4 *423:10 12.5536 
3 *423:10 *1619:B 15.4429 
4 *423:10 *1637:B1 16.8179 
5 *423:4 *1618:B 27.0143 
*END

*D_NET *424 0.00121637
*CONN
*I *2037:B I *D sky130_fd_sc_hd__xnor2_1
*I *2036:Y O *D sky130_fd_sc_hd__xnor2_1
*CAP
1 *2037:B 0.000587292
2 *2036:Y 0.000587292
3 *2037:B *490:27 0
4 *2037:B *546:35 4.17806e-05
*RES
1 *2036:Y *2037:B 35.1179 
*END

*D_NET *425 0.00191228
*CONN
*I *2041:A I *D sky130_fd_sc_hd__xnor2_1
*I *2037:Y O *D sky130_fd_sc_hd__xnor2_1
*CAP
1 *2041:A 0.000956138
2 *2037:Y 0.000956138
3 *2041:A *2040:A 0
*RES
1 *2037:Y *2041:A 39.225 
*END

*D_NET *426 0.00203121
*CONN
*I *2040:A I *D sky130_fd_sc_hd__xnor2_1
*I *2038:X O *D sky130_fd_sc_hd__a31o_1
*CAP
1 *2040:A 0.000761543
2 *2038:X 0.000761543
3 *2040:A *2040:B 0.000129868
4 *2040:A *566:35 0
5 *1985:A *2040:A 0
6 *1985:B *2040:A 6.75007e-05
7 *1996:B *2040:A 0
8 *2039:A1 *2040:A 4.57445e-05
9 *2041:A *2040:A 0
10 *368:12 *2040:A 0.000265009
*RES
1 *2038:X *2040:A 44.1179 
*END

*D_NET *427 0.000255084
*CONN
*I *2040:B I *D sky130_fd_sc_hd__xnor2_1
*I *2039:Y O *D sky130_fd_sc_hd__a21oi_1
*CAP
1 *2040:B 6.26081e-05
2 *2039:Y 6.26081e-05
3 *2040:A *2040:B 0.000129868
*RES
1 *2039:Y *2040:B 29.2429 
*END

*D_NET *428 0.000327083
*CONN
*I *2041:B I *D sky130_fd_sc_hd__xnor2_1
*I *2040:Y O *D sky130_fd_sc_hd__xnor2_1
*CAP
1 *2041:B 0.000163541
2 *2040:Y 0.000163541
*RES
1 *2040:Y *2041:B 21.2071 
*END

*D_NET *429 0.00113374
*CONN
*I *2042:B I *D sky130_fd_sc_hd__xnor2_2
*I *2041:Y O *D sky130_fd_sc_hd__xnor2_1
*CAP
1 *2042:B 0.000531074
2 *2041:Y 0.000531074
3 *1996:B *2042:B 0
4 *381:14 *2042:B 7.15962e-05
*RES
1 *2041:Y *2042:B 37.1357 
*END

*D_NET *430 0.00168672
*CONN
*I *2043:A I *D sky130_fd_sc_hd__xnor2_1
*I *2042:Y O *D sky130_fd_sc_hd__xnor2_2
*CAP
1 *2043:A 0.000494872
2 *2042:Y 0.000494872
3 *2043:A *2062:A 3.15739e-05
4 *2043:A *544:18 0
5 *1999:A2 *2043:A 7.04538e-05
6 *2000:A *2043:A 0
7 *2003:B *2043:A 0.000222885
8 *2021:A_N *2043:A 0
9 *2021:B *2043:A 5.33786e-05
10 *2043:B *2043:A 7.77751e-05
11 *363:10 *2043:A 0
12 *385:23 *2043:A 0.000240906
*RES
1 *2042:Y *2043:A 39.2071 
*END

*D_NET *431 0.00685768
*CONN
*I *2044:B I *D sky130_fd_sc_hd__or2_1
*I *2045:B I *D sky130_fd_sc_hd__nand2_1
*I *2043:Y O *D sky130_fd_sc_hd__xnor2_1
*CAP
1 *2044:B 1.3683e-05
2 *2045:B 0.000229949
3 *2043:Y 3.65713e-05
4 *431:12 0.00203486
5 *431:8 0.0018278
6 *2044:B *2050:A2 1.56e-05
7 *2045:B *2050:A2 0.00010096
8 *2045:B *2050:A3 5.71472e-05
9 *431:12 *544:18 0.000409029
10 *1946:A *431:12 0.000128154
11 *1951:B *431:12 5.5782e-05
12 *2003:B *431:12 0.000273576
13 *2012:A1 *2045:B 5.80489e-05
14 *2012:A3 *2045:B 5.52238e-05
15 *2012:A3 *431:12 0.000102545
16 *2019:A1 *431:12 0.000128154
17 *2019:B1 *431:12 0
18 *2043:B *431:8 5.71472e-05
19 *2044:A *2044:B 5.52302e-05
20 *2044:A *2045:B 1.24315e-05
21 *2045:A *2045:B 4.1074e-05
22 *196:93 *2045:B 0.000152209
23 *328:12 *431:12 0.000880457
24 *329:8 *431:12 0
25 *329:23 *431:12 0
26 *360:8 *431:12 0
27 *388:10 *431:12 0
28 *405:12 *431:12 0.000132058
*RES
1 *2043:Y *431:8 14.3357 
2 *431:8 *431:12 47.125 
3 *431:12 *2045:B 15.1393 
4 *431:12 *2044:B 9.83571 
*END

*D_NET *432 0.000809019
*CONN
*I *2050:A2 I *D sky130_fd_sc_hd__a311o_1
*I *2044:X O *D sky130_fd_sc_hd__or2_1
*CAP
1 *2050:A2 0.000230323
2 *2044:X 0.000230323
3 *2050:A2 *2119:A 0.000115169
4 *2050:A2 *438:16 9.01334e-05
5 *2044:A *2050:A2 2.65105e-05
6 *2044:B *2050:A2 1.56e-05
7 *2045:B *2050:A2 0.00010096
*RES
1 *2044:X *2050:A2 32.85 
*END

*D_NET *433 0.000972934
*CONN
*I *2050:A3 I *D sky130_fd_sc_hd__a311o_1
*I *2045:Y O *D sky130_fd_sc_hd__nand2_1
*CAP
1 *2050:A3 0.000316077
2 *2045:Y 0.000316077
3 *2050:A3 *2120:A 1.97695e-05
4 *2050:A3 *438:16 5.33005e-05
5 *1963:B *2050:A3 0
6 *2045:B *2050:A3 5.71472e-05
7 *2050:A1 *2050:A3 0.000154736
8 *2050:C1 *2050:A3 3.34295e-05
9 *397:20 *2050:A3 2.23987e-05
*RES
1 *2045:Y *2050:A3 33.4036 
*END

*D_NET *434 0.00729208
*CONN
*I *1968:A2 I *D sky130_fd_sc_hd__a31o_1
*I *1623:B2 I *D sky130_fd_sc_hd__a22o_1
*I *1637:A1 I *D sky130_fd_sc_hd__a21o_1
*I *1606:A I *D sky130_fd_sc_hd__inv_2
*I *1605:Y O *D sky130_fd_sc_hd__a211oi_2
*CAP
1 *1968:A2 0.000454756
2 *1623:B2 2.04425e-05
3 *1637:A1 6.83961e-05
4 *1606:A 0.000288629
5 *1605:Y 0.000183948
6 *434:29 0.000841836
7 *434:10 0.00129777
8 *434:8 0.000894852
9 *1606:A *1616:B 0
10 *1606:A *1617:A 4.1331e-06
11 *1606:A *1622:A2 0
12 *1606:A *449:23 0
13 *1606:A *454:10 0
14 *1606:A *554:58 9.27592e-05
15 *1606:A *554:75 5.10027e-05
16 *1623:B2 *523:39 5.33005e-05
17 *1623:B2 *552:25 2.59355e-05
18 *1637:A1 *518:54 0.000222163
19 *1637:A1 *519:88 0.000219373
20 *1968:A2 *440:28 4.15183e-05
21 *1968:A2 *524:107 0.000146976
22 *1968:A2 *540:18 0
23 *1968:A2 *547:45 0.00048485
24 *1968:A2 *547:65 0.000287707
25 *1968:A2 *554:75 0.000123962
26 *434:8 *550:32 0.000269422
27 *434:10 *1968:A3 0
28 *434:10 *554:75 0.000151569
29 *434:29 *454:18 0.000930531
30 *434:29 *518:54 1.24469e-05
31 *434:29 *519:88 1.94945e-05
32 *1599:A3 *1968:A2 5.89052e-05
33 *1607:B1 *1968:A2 1.94945e-05
34 *326:86 *1968:A2 2.06178e-05
35 *348:10 *1968:A2 5.28368e-06
*RES
1 *1605:Y *434:8 16.3893 
2 *434:8 *434:10 5.4375 
3 *434:10 *1606:A 19.4696 
4 *434:10 *434:29 9.16165 
5 *434:29 *1637:A1 16.6571 
6 *434:29 *1623:B2 14.3357 
7 *434:8 *1968:A2 25.1571 
*END

*D_NET *435 0.000692817
*CONN
*I *2047:B2 I *D sky130_fd_sc_hd__o22a_1
*I *2046:Y O *D sky130_fd_sc_hd__a21oi_1
*CAP
1 *2047:B2 0.00013033
2 *2046:Y 0.00013033
3 *188:71 *2047:B2 5.03772e-05
4 *199:89 *2047:B2 0.000218012
5 *205:26 *2047:B2 5.52302e-05
6 *326:68 *2047:B2 0.000108538
*RES
1 *2046:Y *2047:B2 31.4036 
*END

*D_NET *436 0.000534416
*CONN
*I *2049:B1 I *D sky130_fd_sc_hd__a211o_1
*I *2047:X O *D sky130_fd_sc_hd__o22a_1
*CAP
1 *2049:B1 0.000164271
2 *2047:X 0.000164271
3 *2049:B1 *2049:A1 7.15575e-05
4 *2049:B1 *438:16 5.33005e-05
5 *2049:B1 *497:52 2.77143e-05
6 *2047:B1 *2049:B1 5.33005e-05
*RES
1 *2047:X *2049:B1 21.6179 
*END

*D_NET *437 0.000420183
*CONN
*I *2049:C1 I *D sky130_fd_sc_hd__a211o_1
*I *2048:X O *D sky130_fd_sc_hd__a32o_1
*CAP
1 *2049:C1 9.80216e-05
2 *2048:X 9.80216e-05
3 *2049:C1 *497:52 2.59355e-05
4 *188:22 *2049:C1 5.03626e-05
5 *190:14 *2049:C1 0.000147841
*RES
1 *2048:X *2049:C1 30.0821 
*END

*D_NET *438 0.00542726
*CONN
*I *2050:B1 I *D sky130_fd_sc_hd__a311o_1
*I *2049:X O *D sky130_fd_sc_hd__a211o_1
*CAP
1 *2050:B1 0
2 *2049:X 0.00206576
3 *438:16 0.00206576
4 *438:16 *1964:A1 0.000431864
5 *438:16 *1964:A2 1.74352e-05
6 *438:16 *2049:A1 0.000145985
7 *438:16 *490:48 8.56851e-05
8 *2012:A2 *438:16 0.00012401
9 *2047:B1 *438:16 4.27437e-05
10 *2049:B1 *438:16 5.33005e-05
11 *2050:A1 *438:16 5.33005e-05
12 *2050:A2 *438:16 9.01334e-05
13 *2050:A3 *438:16 5.33005e-05
14 *397:20 *438:16 0.000197984
*RES
1 *2049:X *438:16 46.05 
2 *438:16 *2050:B1 9.3 
*END

*D_NET *439 0.00522371
*CONN
*I *1638:C1 I *D sky130_fd_sc_hd__a211o_2
*I *1624:C1 I *D sky130_fd_sc_hd__a211o_1
*I *1629:A1 I *D sky130_fd_sc_hd__o21ai_1
*I *1630:A I *D sky130_fd_sc_hd__or4_4
*I *1606:Y O *D sky130_fd_sc_hd__inv_2
*CAP
1 *1638:C1 0
2 *1624:C1 0
3 *1629:A1 5.86716e-05
4 *1630:A 0
5 *1606:Y 0.000295965
6 *439:20 0.000655998
7 *439:14 0.000739838
8 *439:10 0.000438477
9 *1629:A1 *1629:A2 4.52782e-05
10 *1629:A1 *1629:B1 9.7049e-06
11 *1629:A1 *1630:B 0.000185643
12 *1629:A1 *453:14 0.000183726
13 *439:10 *1617:C 0.000226507
14 *439:10 *1622:B1 0
15 *439:10 *444:30 3.30237e-05
16 *439:10 *449:38 2.14757e-05
17 *439:10 *450:10 0.000310292
18 *439:10 *453:8 7.91281e-05
19 *439:14 *1617:A 0
20 *439:14 *453:8 0.000164547
21 *439:20 *1635:A 0.000212627
22 *439:20 *1660:C1 1.41029e-05
23 *439:20 *453:8 1.02504e-05
24 *439:20 *453:14 0.00128563
25 *439:20 *466:10 0.000193125
26 *38:19 *439:10 5.96963e-05
*RES
1 *1606:Y *439:10 21.1036 
2 *439:10 *439:14 2.78571 
3 *439:14 *439:20 20.8571 
4 *439:20 *1630:A 9.3 
5 *439:20 *1629:A1 11.9071 
6 *439:14 *1624:C1 13.8 
7 *439:10 *1638:C1 13.8 
*END

*D_NET *440 0.0072512
*CONN
*I *2011:A2 I *D sky130_fd_sc_hd__a211o_1
*I *1607:Y O *D sky130_fd_sc_hd__a21oi_1
*CAP
1 *2011:A2 0
2 *1607:Y 0.00312093
3 *440:28 0.00312093
4 *440:28 *1832:B1 5.52238e-05
5 *440:28 *2072:A 0.000162359
6 *1599:A3 *440:28 2.1398e-05
7 *1607:B1 *440:28 2.83129e-05
8 *1896:C1 *440:28 0.000264117
9 *1968:A2 *440:28 4.15183e-05
10 *190:14 *440:28 0.00012384
11 *197:22 *440:28 0.000157115
12 *205:26 *440:28 0.000155461
*RES
1 *1607:Y *440:28 41.2612 
2 *440:28 *2011:A2 9.3 
*END

*D_NET *441 0.00232665
*CONN
*I *1609:C I *D sky130_fd_sc_hd__and3_1
*I *1611:A1 I *D sky130_fd_sc_hd__a21o_1
*I *2129:A I *D sky130_fd_sc_hd__buf_1
*I *1623:A2 I *D sky130_fd_sc_hd__a22o_1
*I *1608:X O *D sky130_fd_sc_hd__a211o_1
*CAP
1 *1609:C 1.3615e-05
2 *1611:A1 0
3 *2129:A 0.000138321
4 *1623:A2 4.78562e-05
5 *1608:X 6.70511e-05
6 *441:25 0.000215602
7 *441:14 0.000215365
8 *441:10 0.000170894
9 *1609:C *523:39 3.03221e-06
10 *1623:A2 *1609:A 1.98839e-05
11 *1623:A2 *523:39 0.000181796
12 *1623:A2 *552:34 7.48091e-05
13 *2129:A *1610:C 4.58194e-05
14 *2129:A *474:14 0.00017309
15 *2129:A *552:38 1.02504e-05
16 *2129:A *552:46 8.5662e-05
17 *441:10 *474:14 2.18262e-05
18 *441:14 *1609:A 6.61042e-05
19 *441:14 *523:39 0.000171283
20 *441:25 *474:14 0.000216937
21 *441:25 *552:38 0.000206686
22 *1618:B *441:10 0
23 *38:19 *2129:A 0.00018077
*RES
1 *1608:X *441:10 19.3357 
2 *441:10 *441:14 2.5 
3 *441:14 *1623:A2 11.0679 
4 *441:14 *441:25 7.35714 
5 *441:25 *2129:A 17.8179 
6 *441:25 *1611:A1 13.8 
7 *441:10 *1609:C 9.49643 
*END

*D_NET *442 0.000916112
*CONN
*I *1621:C1 I *D sky130_fd_sc_hd__a211o_1
*I *1620:C1 I *D sky130_fd_sc_hd__a211oi_2
*I *1609:X O *D sky130_fd_sc_hd__and3_1
*CAP
1 *1621:C1 0
2 *1620:C1 8.08753e-05
3 *1609:X 9.34749e-05
4 *442:10 0.00017435
5 *1620:C1 *1620:B1 9.24491e-05
6 *1620:C1 *443:16 0.000175526
7 *442:10 *1609:B 3.25078e-05
8 *442:10 *1620:B1 5.80706e-06
9 *442:10 *443:16 7.29667e-05
10 *442:10 *451:10 7.57773e-05
11 *442:10 *516:66 5.52302e-05
12 *38:19 *1620:C1 5.71472e-05
*RES
1 *1609:X *442:10 16.2821 
2 *442:10 *1620:C1 16.5857 
3 *442:10 *1621:C1 13.8 
*END

*D_NET *443 0.00417798
*CONN
*I *1638:A1 I *D sky130_fd_sc_hd__a211o_2
*I *1617:A I *D sky130_fd_sc_hd__nand3_1
*I *1622:A1 I *D sky130_fd_sc_hd__a21o_1
*I *1610:Y O *D sky130_fd_sc_hd__nand3_1
*CAP
1 *1638:A1 0
2 *1617:A 0.000193954
3 *1622:A1 0
4 *1610:Y 0.000907796
5 *443:20 0.000338256
6 *443:16 0.0010521
7 *1617:A *1622:A2 0.000217298
8 *1617:A *519:58 0
9 *1617:A *544:28 3.67142e-05
10 *1617:A *554:58 0
11 *443:16 *1609:B 0.0001353
12 *443:16 *1621:B1 0
13 *443:16 *1622:B1 0
14 *443:16 *1624:A1 1.02504e-05
15 *443:16 *1637:A2 1.58163e-05
16 *443:16 *444:8 2.51343e-06
17 *443:16 *450:10 0.000145753
18 *443:16 *453:8 0.000169939
19 *443:16 *456:16 0.000107365
20 *443:16 *515:10 4.46231e-06
21 *443:16 *515:110 2.28698e-05
22 *443:20 *1622:B1 5.71472e-05
23 *443:20 *1624:A2 0.000182694
24 *443:20 *1638:B1 5.45515e-05
25 *443:20 *544:28 8.00346e-05
26 *1606:A *1617:A 4.1331e-06
27 *1620:C1 *443:16 0.000175526
28 *1637:B1 *443:16 5.5518e-05
29 *1896:A2 *443:16 0.000135028
30 *439:14 *1617:A 0
31 *442:10 *443:16 7.29667e-05
*RES
1 *1610:Y *443:16 32.7821 
2 *443:16 *443:20 3.83929 
3 *443:20 *1622:A1 9.3 
4 *443:20 *1617:A 22.4071 
5 *443:16 *1638:A1 9.3 
*END

*D_NET *444 0.00215044
*CONN
*I *1617:B I *D sky130_fd_sc_hd__nand3_1
*I *1622:A2 I *D sky130_fd_sc_hd__a21o_1
*I *1620:A1 I *D sky130_fd_sc_hd__a211oi_2
*I *1621:A2 I *D sky130_fd_sc_hd__a211o_1
*I *1611:X O *D sky130_fd_sc_hd__a21o_1
*CAP
1 *1617:B 2.28304e-05
2 *1622:A2 0.000118594
3 *1620:A1 0
4 *1621:A2 0
5 *1611:X 0.000165118
6 *444:30 0.000198538
7 *444:21 0.000222693
8 *444:8 0.000330698
9 *1617:B *1617:C 4.27437e-05
10 *1622:A2 *1622:B1 0.000108538
11 *1622:A2 *449:23 1.52978e-05
12 *444:8 *1611:B1 0
13 *444:8 *1621:A1 7.15487e-05
14 *444:21 *1616:A 8.50152e-05
15 *444:21 *1620:B1 0
16 *444:21 *1621:A1 4.87854e-05
17 *444:21 *1622:B1 5.80706e-06
18 *444:21 *449:23 8.0089e-05
19 *444:30 *1617:C 2.54619e-05
20 *444:30 *449:38 5.52302e-05
21 *1606:A *1622:A2 0
22 *1617:A *1622:A2 0.000217298
23 *38:19 *1617:B 9.90431e-05
24 *38:19 *444:30 0.000201572
25 *439:10 *444:30 3.30237e-05
26 *443:16 *444:8 2.51343e-06
*RES
1 *1611:X *444:8 11.9071 
2 *444:8 *1621:A2 9.3 
3 *444:8 *444:21 12.1964 
4 *444:21 *1620:A1 9.3 
5 *444:21 *444:30 2.19643 
6 *444:30 *1622:A2 21.4607 
7 *444:30 *1617:B 10.2464 
*END

*D_NET *445 0.000511386
*CONN
*I *1655:A I *D sky130_fd_sc_hd__nand2_1
*I *1654:A I *D sky130_fd_sc_hd__and2_1
*I *1612:X O *D sky130_fd_sc_hd__or2_1
*CAP
1 *1655:A 0
2 *1654:A 7.34995e-06
3 *1612:X 4.3714e-05
4 *445:8 5.1064e-05
5 *1654:A *1654:B 2.44318e-05
6 *1654:A *1657:C1 5.71472e-05
7 *445:8 *1654:B 0.000202287
8 *445:8 *1655:B 0.00010096
9 *445:8 *1657:C1 2.44318e-05
*RES
1 *1612:X *445:8 11.4964 
2 *445:8 *1654:A 9.83571 
3 *445:8 *1655:A 9.3 
*END

*D_NET *446 0.00738707
*CONN
*I *1634:B1 I *D sky130_fd_sc_hd__a31o_1
*I *1648:A I *D sky130_fd_sc_hd__xnor2_1
*I *1649:A I *D sky130_fd_sc_hd__xor2_1
*I *1613:Y O *D sky130_fd_sc_hd__nor2_1
*CAP
1 *1634:B1 0.00084125
2 *1648:A 0
3 *1649:A 0.000142951
4 *1613:Y 0.00091226
5 *446:16 0.000358026
6 *446:10 0.00196859
7 *1634:B1 *1634:A2 3.37729e-05
8 *1634:B1 *1651:A0 4.73454e-05
9 *1634:B1 *1651:A1 0.000186669
10 *1634:B1 *1651:S 9.22103e-06
11 *1634:B1 *464:14 0.000317344
12 *1649:A *1648:B 0.000146591
13 *1649:A *480:12 5.71472e-05
14 *446:10 *1613:A 2.89114e-05
15 *446:10 *1613:B 0.00033905
16 *446:10 *1650:S 0
17 *446:10 *1651:A1 1.17968e-05
18 *446:10 *1664:A 0
19 *446:10 *475:12 0
20 *446:10 *493:23 0.00145185
21 *446:10 *517:14 0.000139378
22 *446:10 *517:25 3.87755e-05
23 *446:10 *551:25 7.80714e-06
24 *446:16 *1647:B 0
25 *446:16 *1650:A1 6.97972e-05
26 *446:16 *1650:S 0
27 *446:16 *1651:A1 0.000142327
28 *446:16 *480:12 0
29 *1660:A1 *446:10 1.3142e-05
30 *1896:A2 *446:10 1.32552e-05
31 *2026:B *446:10 0.000109809
*RES
1 *1613:Y *446:10 39.1571 
2 *446:10 *446:16 9.41071 
3 *446:16 *1649:A 12.7107 
4 *446:16 *1648:A 9.3 
5 *446:10 *1634:B1 25.7464 
*END

*D_NET *447 0.000629861
*CONN
*I *1630:B I *D sky130_fd_sc_hd__or4_4
*I *1614:Y O *D sky130_fd_sc_hd__nor2_1
*CAP
1 *1630:B 0.000149129
2 *1614:Y 0.000149129
3 *1630:B *1629:A2 1.74352e-05
4 *1630:B *1629:B1 3.18676e-05
5 *1630:B *1630:C 7.41811e-05
6 *1630:B *551:74 2.24763e-05
7 *1629:A1 *1630:B 0.000185643
*RES
1 *1614:Y *1630:B 22.0107 
*END

*D_NET *448 0.00352702
*CONN
*I *1630:C I *D sky130_fd_sc_hd__or4_4
*I *1934:C I *D sky130_fd_sc_hd__and3_1
*I *1935:B1 I *D sky130_fd_sc_hd__a21oi_1
*I *1988:C I *D sky130_fd_sc_hd__and3_1
*I *1615:X O *D sky130_fd_sc_hd__and2_1
*CAP
1 *1630:C 0.000114338
2 *1934:C 6.60874e-05
3 *1935:B1 0
4 *1988:C 0.000270479
5 *1615:X 0.000163809
6 *448:33 0.000208192
7 *448:14 0.000577611
8 *448:8 0.000443174
9 *1630:C *462:10 3.0285e-05
10 *1630:C *518:33 7.6644e-05
11 *1630:C *551:41 0
12 *1934:C *1934:A 4.18895e-05
13 *1988:C *1988:A 9.25014e-06
14 *1988:C *1989:B1 3.38136e-05
15 *1988:C *549:92 0.000116882
16 *1988:C *549:107 7.79781e-06
17 *1988:C *554:23 0
18 *1988:C *554:36 0
19 *448:8 *462:10 1.65558e-05
20 *448:8 *551:41 0
21 *448:8 *554:36 0
22 *448:14 *462:14 1.32552e-05
23 *448:14 *464:14 9.90431e-05
24 *448:14 *518:33 0.000487473
25 *448:33 *1934:A 9.20022e-05
26 *448:33 *1935:A2 0.000183726
27 *448:33 *518:33 0.000216829
28 *1630:B *1630:C 7.41811e-05
29 *1990:A *1988:C 1.95435e-05
30 *313:8 *1934:C 1.3701e-05
31 *314:8 *1934:C 0.000126698
32 *314:8 *448:33 2.37575e-05
*RES
1 *1615:X *448:8 16.05 
2 *448:8 *448:14 9.57143 
3 *448:14 *1988:C 24.0857 
4 *448:14 *448:33 4.78571 
5 *448:33 *1935:B1 9.3 
6 *448:33 *1934:C 11.2821 
7 *448:8 *1630:C 15.8804 
*END

*D_NET *449 0.00245948
*CONN
*I *1620:A2 I *D sky130_fd_sc_hd__a211oi_2
*I *1617:C I *D sky130_fd_sc_hd__nand3_1
*I *1622:B1 I *D sky130_fd_sc_hd__a21o_1
*I *1621:A1 I *D sky130_fd_sc_hd__a211o_1
*I *1616:X O *D sky130_fd_sc_hd__or2_1
*CAP
1 *1620:A2 0
2 *1617:C 8.58796e-05
3 *1622:B1 0.000155318
4 *1621:A1 0.000163122
5 *1616:X 6.26742e-05
6 *449:38 9.88596e-05
7 *449:23 0.000294232
8 *449:6 0.000351731
9 *1621:A1 *1611:B1 0
10 *1621:A1 *1616:A 2.95726e-05
11 *1621:A1 *454:10 0.00010096
12 *1622:B1 *544:28 2.89016e-05
13 *449:6 *1616:A 5.04705e-05
14 *449:6 *1616:B 0.000186669
15 *449:6 *454:10 1.33343e-05
16 *449:23 *1616:A 9.11365e-06
17 *449:23 *1616:B 3.51442e-05
18 *1606:A *449:23 0
19 *1617:B *1617:C 4.27437e-05
20 *1622:A2 *1622:B1 0.000108538
21 *1622:A2 *449:23 1.52978e-05
22 *38:19 *1617:C 3.48705e-05
23 *439:10 *1617:C 0.000226507
24 *439:10 *1622:B1 0
25 *439:10 *449:38 2.14757e-05
26 *443:16 *1622:B1 0
27 *443:20 *1622:B1 5.71472e-05
28 *444:8 *1621:A1 7.15487e-05
29 *444:21 *1621:A1 4.87854e-05
30 *444:21 *1622:B1 5.80706e-06
31 *444:21 *449:23 8.0089e-05
32 *444:30 *1617:C 2.54619e-05
33 *444:30 *449:38 5.52302e-05
*RES
1 *1616:X *449:6 11.4786 
2 *449:6 *1621:A1 13.1571 
3 *449:6 *449:23 7.48214 
4 *449:23 *1622:B1 17.1929 
5 *449:23 *449:38 5.03571 
6 *449:38 *1617:C 12.3357 
7 *449:38 *1620:A2 9.3 
*END

*D_NET *450 0.00181151
*CONN
*I *1638:A2 I *D sky130_fd_sc_hd__a211o_2
*I *1624:A1 I *D sky130_fd_sc_hd__a211o_1
*I *1617:Y O *D sky130_fd_sc_hd__nand3_1
*CAP
1 *1638:A2 0
2 *1624:A1 5.63901e-05
3 *1617:Y 0.000419017
4 *450:10 0.000475407
5 *1624:A1 *1624:A2 0.000128146
6 *1624:A1 *453:8 8.31218e-05
7 *1624:A1 *453:14 5.80706e-06
8 *1624:A1 *456:16 2.58997e-05
9 *450:10 *456:16 6.73313e-05
10 *38:19 *450:10 8.40933e-05
11 *439:10 *450:10 0.000310292
12 *443:16 *1624:A1 1.02504e-05
13 *443:16 *450:10 0.000145753
*RES
1 *1617:Y *450:10 20.3893 
2 *450:10 *1624:A1 16.05 
3 *450:10 *1638:A2 13.8 
*END

*D_NET *451 0.000906772
*CONN
*I *1620:B1 I *D sky130_fd_sc_hd__a211oi_2
*I *1621:B1 I *D sky130_fd_sc_hd__a211o_1
*I *1618:Y O *D sky130_fd_sc_hd__nor2_1
*CAP
1 *1620:B1 0.000121861
2 *1621:B1 3.08012e-05
3 *1618:Y 0.000127484
4 *451:10 0.000280146
5 *1620:B1 *1616:A 9.69119e-06
6 *451:10 *1616:A 5.03787e-05
7 *451:10 *516:66 5.52302e-05
8 *1620:C1 *1620:B1 9.24491e-05
9 *38:19 *1620:B1 5.71472e-05
10 *442:10 *1620:B1 5.80706e-06
11 *442:10 *451:10 7.57773e-05
12 *443:16 *1621:B1 0
13 *444:21 *1620:B1 0
*RES
1 *1618:Y *451:10 16.2821 
2 *451:10 *1621:B1 14.3357 
3 *451:10 *1620:B1 16.5857 
*END

*D_NET *452 0.00125108
*CONN
*I *1638:B1 I *D sky130_fd_sc_hd__a211o_2
*I *1619:X O *D sky130_fd_sc_hd__or2_1
*CAP
1 *1638:B1 0.00020365
2 *1619:X 0.00020365
3 *1638:B1 *1624:A2 2.61099e-05
4 *1638:B1 *471:6 0.00018372
5 *1638:B1 *474:14 6.09572e-05
6 *1638:B1 *544:28 0.000391006
7 *1638:B1 *552:46 0.000127439
8 *443:20 *1638:B1 5.45515e-05
*RES
1 *1619:X *1638:B1 33.4929 
*END

*D_NET *453 0.00459372
*CONN
*I *1624:B1 I *D sky130_fd_sc_hd__a211o_1
*I *1629:A2 I *D sky130_fd_sc_hd__o21ai_1
*I *1630:D I *D sky130_fd_sc_hd__or4_4
*I *1620:Y O *D sky130_fd_sc_hd__a211oi_2
*CAP
1 *1624:B1 0
2 *1629:A2 3.83004e-05
3 *1630:D 0
4 *1620:Y 0.000138716
5 *453:14 0.000605407
6 *453:8 0.000705823
7 *1629:A2 *1614:A 0
8 *1629:A2 *1629:B1 5.7661e-06
9 *1629:A2 *551:74 0.00010096
10 *453:14 *1627:A2 1.87955e-05
11 *453:14 *1636:B1 0.000387432
12 *453:14 *1643:A 0
13 *453:14 *1643:B 6.44542e-05
14 *453:14 *1657:C1 6.8646e-06
15 *453:14 *1660:C1 0.000123288
16 *453:14 *456:16 0
17 *453:14 *457:25 3.0285e-05
18 *453:14 *460:14 0
19 *453:14 *518:33 0.000307343
20 *453:14 *551:74 1.5424e-05
21 *1624:A1 *453:8 8.31218e-05
22 *1624:A1 *453:14 5.80706e-06
23 *1629:A1 *1629:A2 4.52782e-05
24 *1629:A1 *453:14 0.000183726
25 *1630:B *1629:A2 1.74352e-05
26 *439:10 *453:8 7.91281e-05
27 *439:14 *453:8 0.000164547
28 *439:20 *453:8 1.02504e-05
29 *439:20 *453:14 0.00128563
30 *443:16 *453:8 0.000169939
*RES
1 *1620:Y *453:8 18.175 
2 *453:8 *453:14 22.6071 
3 *453:14 *1630:D 9.3 
4 *453:14 *1629:A2 11.1036 
5 *453:8 *1624:B1 13.8 
*END

*D_NET *454 0.0066833
*CONN
*I *1968:A3 I *D sky130_fd_sc_hd__a31o_1
*I *1623:B1 I *D sky130_fd_sc_hd__a22o_1
*I *1637:A2 I *D sky130_fd_sc_hd__a21o_1
*I *1621:X O *D sky130_fd_sc_hd__a211o_1
*CAP
1 *1968:A3 0.000702171
2 *1623:B1 2.04426e-05
3 *1637:A2 0.000104505
4 *1621:X 0.000207149
5 *454:18 0.000535844
6 *454:10 0.00132022
7 *1623:B1 *523:39 2.59355e-05
8 *1623:B1 *552:25 5.33005e-05
9 *1637:A2 *519:88 0.000240131
10 *1968:A3 *1597:B 6.82701e-05
11 *1968:A3 *1618:A 6.75242e-05
12 *1968:A3 *538:24 0.000219711
13 *1968:A3 *540:18 0.000339117
14 *1968:A3 *540:22 0.000123288
15 *1968:A3 *542:141 0
16 *1968:A3 *543:76 9.9784e-05
17 *454:10 *1616:A 3.5707e-05
18 *454:10 *1616:B 9.25014e-06
19 *454:10 *1618:A 2.9995e-05
20 *454:10 *516:79 1.30731e-05
21 *454:18 *519:88 3.39147e-05
22 *1605:B1 *1968:A3 0.000220448
23 *1606:A *454:10 0
24 *1621:A1 *454:10 0.00010096
25 *1637:B1 *1637:A2 5.52302e-05
26 *2054:A *1637:A2 0.000240785
27 *2054:A *454:18 4.00349e-05
28 *302:14 *1968:A3 0.000110029
29 *337:16 *1968:A3 0.000534911
30 *337:18 *1968:A3 0.000171893
31 *434:10 *1968:A3 0
32 *434:29 *454:18 0.000930531
33 *443:16 *1637:A2 1.58163e-05
34 *449:6 *454:10 1.33343e-05
*RES
1 *1621:X *454:10 17.4518 
2 *454:10 *454:18 8.88869 
3 *454:18 *1637:A2 17.4964 
4 *454:18 *1623:B1 14.3357 
5 *454:10 *1968:A3 32.0411 
*END

*D_NET *455 0.000936321
*CONN
*I *1624:A2 I *D sky130_fd_sc_hd__a211o_1
*I *1622:X O *D sky130_fd_sc_hd__a21o_1
*CAP
1 *1624:A2 0.000234751
2 *1622:X 0.000234751
3 *1624:A2 *456:16 0.000129868
4 *1624:A1 *1624:A2 0.000128146
5 *1638:B1 *1624:A2 2.61099e-05
6 *443:20 *1624:A2 0.000182694
*RES
1 *1622:X *1624:A2 31.8321 
*END

*D_NET *456 0.00336242
*CONN
*I *1627:A1 I *D sky130_fd_sc_hd__a21oi_1
*I *1625:A I *D sky130_fd_sc_hd__nand2_1
*I *1626:A I *D sky130_fd_sc_hd__and3_1
*I *1623:X O *D sky130_fd_sc_hd__a22o_1
*CAP
1 *1627:A1 0
2 *1625:A 8.52268e-05
3 *1626:A 0.000163005
4 *1623:X 0.000560847
5 *456:18 0.000252425
6 *456:16 0.00056504
7 *1625:A *1625:B 5.7661e-06
8 *1625:A *1644:A0 5.20146e-05
9 *1626:A *1644:A0 2.77258e-05
10 *456:16 *1609:B 0.000198691
11 *456:16 *1627:A2 5.7616e-05
12 *456:16 *457:25 9.0573e-05
13 *456:16 *460:14 8.07879e-05
14 *456:16 *474:14 0.000534268
15 *456:16 *516:66 0.000177815
16 *456:16 *519:58 0.000101545
17 *1624:A1 *456:16 2.58997e-05
18 *1624:A2 *456:16 0.000129868
19 *1627:B1 *1626:A 7.8613e-05
20 *443:16 *456:16 0.000107365
21 *450:10 *456:16 6.73313e-05
22 *453:14 *456:16 0
*RES
1 *1623:X *456:16 32.6929 
2 *456:16 *456:18 0.428571 
3 *456:18 *1626:A 12.0321 
4 *456:18 *1625:A 11.1393 
5 *456:16 *1627:A1 9.3 
*END

*D_NET *457 0.00220557
*CONN
*I *1625:B I *D sky130_fd_sc_hd__nand2_1
*I *1627:A2 I *D sky130_fd_sc_hd__a21oi_1
*I *1626:C I *D sky130_fd_sc_hd__and3_1
*I *1624:X O *D sky130_fd_sc_hd__a211o_1
*CAP
1 *1625:B 7.17343e-05
2 *1627:A2 2.67701e-05
3 *1626:C 0.000525404
4 *1624:X 0
5 *457:25 0.000235939
6 *457:4 0.000662838
7 *1625:B *1644:A0 9.90431e-05
8 *1625:B *565:62 0.000140933
9 *1626:C *1640:A2 0
10 *1626:C *565:62 1.21258e-05
11 *1625:A *1625:B 5.7661e-06
12 *1627:B1 *1626:C 0.00012377
13 *294:47 *1626:C 7.05375e-05
14 *294:55 *1626:C 3.34366e-05
15 *453:14 *1627:A2 1.87955e-05
16 *453:14 *457:25 3.0285e-05
17 *456:16 *1627:A2 5.7616e-05
18 *456:16 *457:25 9.0573e-05
*RES
1 *1624:X *457:4 9.3 
2 *457:4 *1626:C 25.5857 
3 *457:4 *457:25 6.78571 
4 *457:25 *1627:A2 14.5321 
5 *457:25 *1625:B 15.8893 
*END

*D_NET *458 0.00154351
*CONN
*I *1644:A0 I *D sky130_fd_sc_hd__mux2_4
*I *1625:Y O *D sky130_fd_sc_hd__nand2_1
*CAP
1 *1644:A0 0.000218922
2 *1625:Y 0.000218922
3 *1644:A0 *1644:A1 9.71197e-05
4 *1644:A0 *459:16 7.83659e-05
5 *1644:A0 *460:14 5.33005e-05
6 *1644:A0 *552:46 0.000216304
7 *1644:A0 *565:62 0.000169656
8 *1625:A *1644:A0 5.20146e-05
9 *1625:B *1644:A0 9.90431e-05
10 *1626:A *1644:A0 2.77258e-05
11 *1627:B1 *1644:A0 0.000181796
12 *294:47 *1644:A0 1.76135e-05
13 *294:55 *1644:A0 5.9378e-05
14 *413:10 *1644:A0 5.33433e-05
*RES
1 *1625:Y *1644:A0 35.225 
*END

*D_NET *459 0.00294098
*CONN
*I *1628:A I *D sky130_fd_sc_hd__nor2_1
*I *1640:B1_N I *D sky130_fd_sc_hd__o21ba_4
*I *1636:C1 I *D sky130_fd_sc_hd__a211o_4
*I *1626:X O *D sky130_fd_sc_hd__and3_1
*CAP
1 *1628:A 1.97835e-05
2 *1640:B1_N 2.46213e-05
3 *1636:C1 0.000217703
4 *1626:X 0.000235253
5 *459:29 4.44049e-05
6 *459:16 0.000452956
7 *1628:A *1640:A1 9.71197e-05
8 *1628:A *517:33 8.46829e-05
9 *1636:C1 *1635:B 6.76272e-05
10 *1636:C1 *1636:A2 0.000142856
11 *1636:C1 *1636:B1 0
12 *1636:C1 *1657:C1 5.52302e-05
13 *1636:C1 *1660:C1 0.000201057
14 *1636:C1 *467:10 1.19402e-05
15 *1636:C1 *469:6 3.69047e-06
16 *1636:C1 *474:14 7.60306e-05
17 *1636:C1 *552:46 0.000387432
18 *1640:B1_N *1640:A1 9.60875e-05
19 *1640:B1_N *517:33 9.60875e-05
20 *459:16 *1644:A1 6.86693e-05
21 *459:16 *474:14 0.000140021
22 *459:16 *552:46 0.000259278
23 *1644:A0 *459:16 7.83659e-05
24 *294:55 *459:16 8.00806e-05
*RES
1 *1626:X *459:16 28.6571 
2 *459:16 *1636:C1 21.3714 
3 *459:16 *459:29 4.5 
4 *459:29 *1640:B1_N 10.2464 
5 *459:29 *1628:A 10.2464 
*END

*D_NET *460 0.00253724
*CONN
*I *1636:B1 I *D sky130_fd_sc_hd__a211o_4
*I *1628:B I *D sky130_fd_sc_hd__nor2_1
*I *1627:Y O *D sky130_fd_sc_hd__a21oi_1
*CAP
1 *1636:B1 0.000218178
2 *1628:B 0
3 *1627:Y 0.000232489
4 *460:14 0.000450666
5 *1636:B1 *1635:B 0
6 *1636:B1 *1640:A1 0.000139907
7 *1636:B1 *1643:B 6.42242e-05
8 *1636:B1 *474:14 0
9 *1636:B1 *517:33 0.000126572
10 *460:14 *1640:A1 5.52302e-05
11 *460:14 *1643:A 0.000150618
12 *460:14 *1643:B 3.67452e-05
13 *460:14 *474:14 0.000430646
14 *460:14 *517:33 5.71472e-05
15 *460:14 *565:62 5.33005e-05
16 *1636:C1 *1636:B1 0
17 *1644:A0 *460:14 5.33005e-05
18 *453:14 *1636:B1 0.000387432
19 *453:14 *460:14 0
20 *456:16 *460:14 8.07879e-05
*RES
1 *1627:Y *460:14 24.9607 
2 *460:14 *1628:B 9.3 
3 *460:14 *1636:B1 24.6393 
*END

*D_NET *461 0.000598548
*CONN
*I *1643:A I *D sky130_fd_sc_hd__xnor2_1
*I *1628:Y O *D sky130_fd_sc_hd__nor2_1
*CAP
1 *1643:A 0.00011785
2 *1628:Y 0.00011785
3 *1643:A *1643:B 0.000182669
4 *413:10 *1643:A 2.9561e-05
5 *453:14 *1643:A 0
6 *460:14 *1643:A 0.000150618
*RES
1 *1628:Y *1643:A 30.9036 
*END

*D_NET *462 0.00155774
*CONN
*I *1631:A I *D sky130_fd_sc_hd__nand2_1
*I *1633:A1 I *D sky130_fd_sc_hd__a21o_1
*I *1634:A2 I *D sky130_fd_sc_hd__a31o_1
*I *1629:Y O *D sky130_fd_sc_hd__o21ai_1
*CAP
1 *1631:A 0
2 *1633:A1 0
3 *1634:A2 0.000264429
4 *1629:Y 9.10677e-05
5 *462:14 0.000416818
6 *462:10 0.000243457
7 *1634:A2 *1633:B1 8.75724e-05
8 *1634:A2 *1634:A1 1.39841e-05
9 *1634:A2 *463:27 0.000185643
10 *462:10 *554:36 5.16759e-05
11 *462:14 *1631:B 2.28598e-05
12 *462:14 *463:27 6.89249e-05
13 *462:14 *464:14 1.74352e-05
14 *1630:C *462:10 3.0285e-05
15 *1634:B1 *1634:A2 3.37729e-05
16 *448:8 *462:10 1.65558e-05
17 *448:14 *462:14 1.32552e-05
*RES
1 *1629:Y *462:10 20.2464 
2 *462:10 *462:14 2.5 
3 *462:14 *1634:A2 13.4429 
4 *462:14 *1633:A1 9.3 
5 *462:10 *1631:A 9.3 
*END

*D_NET *463 0.00148356
*CONN
*I *1631:B I *D sky130_fd_sc_hd__nand2_1
*I *1633:A2 I *D sky130_fd_sc_hd__a21o_1
*I *1634:A1 I *D sky130_fd_sc_hd__a31o_1
*I *1630:X O *D sky130_fd_sc_hd__or4_4
*CAP
1 *1631:B 1.22324e-05
2 *1633:A2 0
3 *1634:A1 3.95015e-05
4 *1630:X 6.03096e-05
5 *463:27 0.000166297
6 *463:8 0.000253876
7 *1631:B *464:14 5.52302e-05
8 *1634:A1 *1633:B1 5.42784e-05
9 *1634:A1 *464:14 0.000139907
10 *463:8 *1660:C1 6.09572e-05
11 *463:8 *466:10 7.83659e-05
12 *463:8 *551:41 1.09026e-05
13 *463:27 *1633:B1 0.000113476
14 *463:27 *1660:C1 0
15 *463:27 *464:14 5.92321e-05
16 *463:27 *466:10 3.16801e-05
17 *463:27 *549:23 0
18 *463:27 *551:41 5.59013e-05
19 *1634:A2 *1634:A1 1.39841e-05
20 *1634:A2 *463:27 0.000185643
21 *462:14 *1631:B 2.28598e-05
22 *462:14 *463:27 6.89249e-05
*RES
1 *1630:X *463:8 15.4429 
2 *463:8 *1634:A1 15.1571 
3 *463:8 *463:27 8.78571 
4 *463:27 *1633:A2 9.3 
5 *463:27 *1631:B 9.83571 
*END

*D_NET *464 0.00463059
*CONN
*I *1632:A I *D sky130_fd_sc_hd__inv_2
*I *1647:B I *D sky130_fd_sc_hd__xnor2_1
*I *1651:A0 I *D sky130_fd_sc_hd__mux2_4
*I *1631:Y O *D sky130_fd_sc_hd__nand2_1
*CAP
1 *1632:A 0
2 *1647:B 0.000417557
3 *1651:A0 5.10218e-05
4 *1631:Y 0.000540939
5 *464:25 0.000487631
6 *464:14 0.000662035
7 *1647:B *1647:A 0.000677066
8 *1647:B *1650:A1 0
9 *1647:B *1650:S 1.52978e-05
10 *1647:B *494:14 0.000235697
11 *1651:A0 *1651:S 9.86146e-05
12 *464:14 *1633:B1 0.000121702
13 *464:14 *467:10 0.000275377
14 *464:14 *518:33 2.28499e-05
15 *464:25 *1647:A 0.000103275
16 *464:25 *1650:S 0.000185993
17 *1631:B *464:14 5.52302e-05
18 *1634:A1 *464:14 0.000139907
19 *1634:B1 *1651:A0 4.73454e-05
20 *1634:B1 *464:14 0.000317344
21 *446:16 *1647:B 0
22 *448:14 *464:14 9.90431e-05
23 *462:14 *464:14 1.74352e-05
24 *463:27 *464:14 5.92321e-05
*RES
1 *1631:Y *464:14 23.675 
2 *464:14 *1651:A0 10.6571 
3 *464:14 *464:25 7.05357 
4 *464:25 *1647:B 24.55 
5 *464:25 *1632:A 13.8 
*END

*D_NET *465 0.000528427
*CONN
*I *1650:A0 I *D sky130_fd_sc_hd__mux2_1
*I *1632:Y O *D sky130_fd_sc_hd__inv_2
*CAP
1 *1650:A0 7.81988e-05
2 *1632:Y 7.81988e-05
3 *1650:A0 *1650:S 9.90367e-05
4 *1650:A0 *546:27 0.000272993
*RES
1 *1632:Y *1650:A0 21.1893 
*END

*D_NET *466 0.00165782
*CONN
*I *1635:A I *D sky130_fd_sc_hd__nand2_1
*I *1636:A1 I *D sky130_fd_sc_hd__a211o_4
*I *1633:X O *D sky130_fd_sc_hd__a21o_1
*CAP
1 *1635:A 0.000226373
2 *1636:A1 0
3 *1633:X 0.000177004
4 *466:10 0.000403378
5 *1635:A *1656:C1 0.000221628
6 *466:10 *1660:C1 1.5942e-05
7 *466:10 *551:41 9.76928e-05
8 *439:20 *1635:A 0.000212627
9 *439:20 *466:10 0.000193125
10 *463:8 *466:10 7.83659e-05
11 *463:27 *466:10 3.16801e-05
*RES
1 *1633:X *466:10 18.4071 
2 *466:10 *1636:A1 13.8 
3 *466:10 *1635:A 18.8357 
*END

*D_NET *467 0.00220254
*CONN
*I *1635:B I *D sky130_fd_sc_hd__nand2_1
*I *1636:A2 I *D sky130_fd_sc_hd__a211o_4
*I *1634:X O *D sky130_fd_sc_hd__a31o_1
*CAP
1 *1635:B 0.000116352
2 *1636:A2 0.000170577
3 *1634:X 0.000409281
4 *467:10 0.00069621
5 *1636:A2 *1657:C1 0.000108525
6 *467:10 *1657:C1 7.2754e-05
7 *467:10 *1660:C1 0
8 *467:10 *552:46 0.000131038
9 *1636:B1 *1635:B 0
10 *1636:C1 *1635:B 6.76272e-05
11 *1636:C1 *1636:A2 0.000142856
12 *1636:C1 *467:10 1.19402e-05
13 *464:14 *467:10 0.000275377
*RES
1 *1634:X *467:10 21.175 
2 *467:10 *1636:A2 17.2107 
3 *467:10 *1635:B 16.3536 
*END

*D_NET *468 0.00072124
*CONN
*I *1643:B I *D sky130_fd_sc_hd__xnor2_1
*I *1635:Y O *D sky130_fd_sc_hd__nand2_1
*CAP
1 *1643:B 0.000152246
2 *1635:Y 0.000152246
3 *1643:B *474:14 3.9745e-05
4 *1636:B1 *1643:B 6.42242e-05
5 *1643:A *1643:B 0.000182669
6 *413:10 *1643:B 2.89114e-05
7 *453:14 *1643:B 6.44542e-05
8 *460:14 *1643:B 3.67452e-05
*RES
1 *1635:Y *1643:B 32.2071 
*END

*D_NET *469 0.00206506
*CONN
*I *1656:A1 I *D sky130_fd_sc_hd__a211o_1
*I *1657:A1 I *D sky130_fd_sc_hd__a211o_1
*I *1642:A2 I *D sky130_fd_sc_hd__a21oi_4
*I *1636:X O *D sky130_fd_sc_hd__a211o_4
*CAP
1 *1656:A1 4.38939e-05
2 *1657:A1 0.000113688
3 *1642:A2 0.00015989
4 *1636:X 0.000200448
5 *469:17 0.000157582
6 *469:6 0.000360338
7 *1642:A2 *1642:A1 9.90367e-05
8 *1642:A2 *1660:C1 8.86413e-05
9 *1656:A1 *473:10 1.02504e-05
10 *1656:A1 *473:12 0.000142082
11 *1657:A1 *1657:A2 0.000170654
12 *1657:A1 *473:12 8.07951e-05
13 *469:6 *1660:C1 4.05276e-05
14 *1636:C1 *469:6 3.69047e-06
15 *294:55 *1656:A1 0.000150618
16 *294:55 *1657:A1 0.00024292
*RES
1 *1636:X *469:6 11.4786 
2 *469:6 *1642:A2 12.6214 
3 *469:6 *469:17 4.5 
4 *469:17 *1657:A1 16.9607 
5 *469:17 *1656:A1 15.7464 
*END

*D_NET *470 0.00136961
*CONN
*I *1639:A I *D sky130_fd_sc_hd__and2_1
*I *1668:A I *D sky130_fd_sc_hd__or2_1
*I *1637:X O *D sky130_fd_sc_hd__a21o_1
*CAP
1 *1639:A 0
2 *1668:A 0.000106808
3 *1637:X 0.000163853
4 *470:12 0.000270661
5 *1668:A *1587:A 0
6 *1668:A *1668:B 2.89016e-05
7 *1668:A *471:10 7.41056e-05
8 *1668:A *544:28 0.000139019
9 *470:12 *1587:A 0.000196269
10 *470:12 *1610:C 2.56694e-05
11 *470:12 *1924:A2 0
12 *470:12 *515:12 5.33005e-05
13 *470:12 *515:88 0.000311028
*RES
1 *1637:X *470:12 22.9071 
2 *470:12 *1668:A 12.3179 
3 *470:12 *1639:A 9.3 
*END

*D_NET *471 0.0195243
*CONN
*I *1639:B I *D sky130_fd_sc_hd__and2_1
*I *1669:A1 I *D sky130_fd_sc_hd__a21oi_1
*I *1672:B I *D sky130_fd_sc_hd__and3_1
*I *1694:A1 I *D sky130_fd_sc_hd__a21o_1
*I *1738:B1 I *D sky130_fd_sc_hd__o21ai_1
*I *1762:A1 I *D sky130_fd_sc_hd__a21oi_1
*I *1763:B I *D sky130_fd_sc_hd__and3_1
*I *1693:B I *D sky130_fd_sc_hd__and3_1
*I *1638:X O *D sky130_fd_sc_hd__a211o_2
*CAP
1 *1639:B 0
2 *1669:A1 0
3 *1672:B 0
4 *1694:A1 6.12225e-05
5 *1738:B1 0
6 *1762:A1 0.000141159
7 *1763:B 0.000154438
8 *1693:B 3.92213e-05
9 *1638:X 0.000295827
10 *471:71 0.00355425
11 *471:49 0.00356808
12 *471:41 0.000605328
13 *471:26 0.000684554
14 *471:20 0.000918809
15 *471:10 0.00142712
16 *471:6 0.0012148
17 *1762:A1 *1762:B1 1.69115e-05
18 *1763:B *1763:A 1.28171e-05
19 *1763:B *531:6 1.07719e-05
20 *471:6 *544:28 0.000177729
21 *471:10 *1587:A 4.85245e-06
22 *471:10 *1668:B 5.52238e-05
23 *471:10 *544:28 1.36858e-05
24 *471:20 *1692:A1 9.25014e-06
25 *471:20 *539:104 0.00010687
26 *471:20 *546:121 0.00019384
27 *471:20 *556:10 7.90803e-05
28 *471:20 *556:21 0.00012401
29 *471:26 *1673:B 0.000100566
30 *471:26 *1673:C 4.59075e-05
31 *471:26 *531:74 2.56694e-05
32 *471:41 *531:74 1.9643e-05
33 *471:41 *539:68 5.86416e-05
34 *471:49 *1591:A 2.14757e-05
35 *471:49 *1645:A 1.98839e-05
36 *471:49 *1738:A2 5.52302e-05
37 *471:49 *536:20 0.000584867
38 *471:49 *536:22 2.16719e-05
39 *471:49 *565:54 0.000254549
40 *471:71 *1762:B1 0.000103558
41 *471:71 *2051:A 0
42 *471:71 *497:27 1.90936e-05
43 *471:71 *512:12 3.19941e-05
44 *471:71 *512:25 1.10632e-05
45 *471:71 *531:25 0.00119004
46 *1638:B1 *471:6 0.00018372
47 *1668:A *471:10 7.41056e-05
48 *1674:D *471:26 6.74911e-05
49 *1677:B1 *471:20 6.57032e-05
50 *1689:A1 *471:10 5.52238e-05
51 *1689:A2 *471:10 8.41032e-05
52 *1694:A2 *1694:A1 9.71197e-05
53 *1694:A2 *471:41 0.000181796
54 *1716:A1 *471:26 4.78056e-05
55 *1716:A1 *471:41 6.09572e-05
56 *1762:A2 *1762:A1 0.000150103
57 *1763:C *1762:A1 6.61827e-06
58 *1763:C *1763:B 8.47289e-06
59 *1789:B *471:71 0
60 *1799:B2 *471:71 0.000484571
61 *2112:A *471:20 0.00014183
62 *2112:A *471:26 8.66063e-05
63 *43:6 *471:10 0.000188008
64 *43:6 *471:20 1.21258e-05
65 *43:12 *471:20 1.21258e-05
66 *48:6 *471:26 0.000139907
67 *64:24 *1693:B 5.52302e-05
68 *113:6 *471:49 6.05161e-06
69 *136:14 *471:71 0
70 *140:12 *1762:A1 9.97164e-05
71 *140:12 *471:71 0.000244478
72 *161:8 *471:71 0
73 *283:8 *471:49 0.000230475
74 *283:12 *471:26 5.25326e-05
75 *283:12 *471:41 2.1527e-05
76 *283:12 *471:49 0.000632233
77 *304:12 *471:71 0
*RES
1 *1638:X *471:6 15.5857 
2 *471:6 *471:10 11.9464 
3 *471:10 *471:20 17.1429 
4 *471:20 *471:26 12.4821 
5 *471:26 *1693:B 14.3357 
6 *471:26 *471:41 8.82143 
7 *471:41 *471:49 21.6607 
8 *471:49 *471:71 42.8528 
9 *471:71 *1763:B 11.0679 
10 *471:71 *1762:A1 21.1929 
11 *471:49 *1738:B1 9.3 
12 *471:41 *1694:A1 10.2464 
13 *471:20 *1672:B 9.3 
14 *471:10 *1669:A1 9.3 
15 *471:6 *1639:B 9.3 
*END

*D_NET *472 0.0014947
*CONN
*I *1640:A2 I *D sky130_fd_sc_hd__o21ba_4
*I *1639:X O *D sky130_fd_sc_hd__and2_1
*CAP
1 *1640:A2 0.000372137
2 *1639:X 0.000372137
3 *1640:A2 *518:54 0.000750422
4 *1640:A2 *552:46 0
5 *1626:C *1640:A2 0
6 *294:55 *1640:A2 0
*RES
1 *1639:X *1640:A2 37.1357 
*END

*D_NET *473 0.00141139
*CONN
*I *1656:A2 I *D sky130_fd_sc_hd__a211o_1
*I *1642:A1 I *D sky130_fd_sc_hd__a21oi_4
*I *1657:A2 I *D sky130_fd_sc_hd__a211o_1
*I *1640:X O *D sky130_fd_sc_hd__o21ba_4
*CAP
1 *1656:A2 0
2 *1642:A1 1.645e-05
3 *1657:A2 0.000105341
4 *1640:X 0.00011005
5 *473:12 0.000236264
6 *473:10 0.000224522
7 *1642:A1 *1660:C1 9.90367e-05
8 *1657:A2 *518:10 0
9 *473:10 *517:33 5.52302e-05
10 *473:10 *518:10 0
11 *473:10 *518:54 0
12 *473:12 *518:10 0
13 *1642:A2 *1642:A1 9.90367e-05
14 *1656:A1 *473:10 1.02504e-05
15 *1656:A1 *473:12 0.000142082
16 *1657:A1 *1657:A2 0.000170654
17 *1657:A1 *473:12 8.07951e-05
18 *294:55 *473:10 6.16744e-05
*RES
1 *1640:X *473:10 15.9786 
2 *473:10 *473:12 2.85714 
3 *473:12 *1657:A2 16.05 
4 *473:12 *1642:A1 14.7464 
5 *473:10 *1656:A2 13.8 
*END

*D_NET *474 0.00549369
*CONN
*I *1656:B1 I *D sky130_fd_sc_hd__a211o_1
*I *1642:B1 I *D sky130_fd_sc_hd__a21oi_4
*I *1657:B1 I *D sky130_fd_sc_hd__a211o_1
*I *1641:X O *D sky130_fd_sc_hd__a21o_1
*CAP
1 *1656:B1 0
2 *1642:B1 0
3 *1657:B1 6.89735e-05
4 *1641:X 0.00111558
5 *474:18 0.000134765
6 *474:14 0.00118137
7 *1657:B1 *551:37 0.00012501
8 *1657:B1 *552:46 0
9 *474:14 *1619:A 0
10 *474:14 *1656:C1 0.0001065
11 *474:14 *516:79 0
12 *474:14 *519:58 0.00010326
13 *474:14 *542:141 0
14 *474:14 *543:42 0.000164018
15 *474:14 *551:37 8.25843e-06
16 *474:14 *552:38 1.95625e-05
17 *474:14 *552:46 0.000194191
18 *474:18 *551:37 0.000150611
19 *474:18 *552:46 4.13573e-05
20 *1608:A2 *474:14 0
21 *1618:B *474:14 0
22 *1636:B1 *474:14 0
23 *1636:C1 *474:14 7.60306e-05
24 *1638:B1 *474:14 6.09572e-05
25 *1643:B *474:14 3.9745e-05
26 *2129:A *474:14 0.00017309
27 *294:55 *1657:B1 0.000172375
28 *294:55 *474:18 0.000214335
29 *441:10 *474:14 2.18262e-05
30 *441:25 *474:14 0.000216937
31 *456:16 *474:14 0.000534268
32 *459:16 *474:14 0.000140021
33 *460:14 *474:14 0.000430646
*RES
1 *1641:X *474:14 46.5321 
2 *474:14 *474:18 7.35714 
3 *474:18 *1657:B1 16.05 
4 *474:18 *1642:B1 13.8 
5 *474:14 *1656:B1 9.3 
*END

*D_NET *475 0.0118425
*CONN
*I *1644:S I *D sky130_fd_sc_hd__mux2_4
*I *1924:A2 I *D sky130_fd_sc_hd__a211oi_1
*I *1668:B I *D sky130_fd_sc_hd__or2_1
*I *1658:A2 I *D sky130_fd_sc_hd__o21ai_1
*I *1660:A2 I *D sky130_fd_sc_hd__o211ai_2
*I *1659:A2 I *D sky130_fd_sc_hd__o211a_1
*I *1651:S I *D sky130_fd_sc_hd__mux2_4
*I *1650:S I *D sky130_fd_sc_hd__mux2_1
*I *1642:Y O *D sky130_fd_sc_hd__a21oi_4
*CAP
1 *1644:S 0.000204506
2 *1924:A2 0.00107525
3 *1668:B 1.40568e-05
4 *1658:A2 0.000148549
5 *1660:A2 0.00015511
6 *1659:A2 4.70923e-05
7 *1651:S 0.000143639
8 *1650:S 0.000229598
9 *1642:Y 0.000372388
10 *475:83 0.00129911
11 *475:81 0.000604415
12 *475:68 0.000456722
13 *475:51 0.000304925
14 *475:12 0.000500512
15 *475:10 0.000224803
16 *475:8 0.000454574
17 *1644:S *477:8 0.000142004
18 *1650:S *1647:A 6.8646e-06
19 *1650:S *1650:A1 0
20 *1651:S *1651:A1 4.59429e-05
21 *1658:A2 *1658:A1 5.52238e-05
22 *1659:A2 *517:8 4.56427e-05
23 *1659:A2 *518:33 0
24 *1660:A2 *1660:C1 2.59355e-05
25 *1924:A2 *1587:A 7.72708e-05
26 *1924:A2 *1590:A 2.49484e-05
27 *1924:A2 *1596:C 0.000181796
28 *1924:A2 *1610:C 0.000104974
29 *1924:A2 *1613:B 0.000213293
30 *1924:A2 *1869:A1 0.000875237
31 *1924:A2 *2084:A 7.36061e-05
32 *1924:A2 *493:23 0
33 *1924:A2 *515:20 0.000136188
34 *1924:A2 *515:88 0
35 *1924:A2 *552:10 0
36 *1924:A2 *552:12 0
37 *475:8 *1660:C1 0.00051967
38 *475:10 *515:88 3.0285e-05
39 *475:12 *1647:A 5.9483e-05
40 *475:12 *515:88 7.79781e-06
41 *475:51 *515:88 2.66026e-05
42 *475:68 *2057:A 4.32309e-05
43 *475:68 *515:88 5.60152e-05
44 *475:81 *515:88 0
45 *475:83 *1613:B 0.000194556
46 *475:83 *2084:A 0.000116627
47 *475:83 *515:88 0
48 *1634:B1 *1651:S 9.22103e-06
49 *1647:B *1650:S 1.52978e-05
50 *1650:A0 *1650:S 9.90367e-05
51 *1651:A0 *1651:S 9.86146e-05
52 *1658:B1 *1658:A2 8.86413e-05
53 *1659:B1 *475:10 9.15804e-05
54 *1659:B1 *475:12 3.34295e-05
55 *1659:B1 *475:51 7.05447e-05
56 *1659:B1 *475:68 0.000161705
57 *1660:B1 *1659:A2 9.60875e-05
58 *1668:A *1668:B 2.89016e-05
59 *1781:C1 *1924:A2 0.00010326
60 *1867:B1 *1924:A2 3.2746e-05
61 *31:6 *1658:A2 6.05161e-06
62 *241:16 *1644:S 1.33343e-05
63 *241:16 *1924:A2 9.25014e-06
64 *241:16 *475:83 0.000487
65 *241:28 *1660:A2 0.000100625
66 *241:28 *475:68 3.53786e-05
67 *241:28 *475:81 0.000354002
68 *243:14 *1924:A2 0.000293408
69 *413:10 *1644:S 7.47337e-05
70 *446:10 *1650:S 0
71 *446:10 *475:12 0
72 *446:16 *1650:S 0
73 *464:25 *1650:S 0.000185993
74 *470:12 *1924:A2 0
75 *471:10 *1668:B 5.52238e-05
*RES
1 *1642:Y *475:8 18.8536 
2 *475:8 *475:10 1.33929 
3 *475:10 *475:12 2.55357 
4 *475:12 *1650:S 18.5679 
5 *475:12 *1651:S 16.7107 
6 *475:10 *1659:A2 15.175 
7 *475:8 *475:51 1.03571 
8 *475:51 *1660:A2 16.8179 
9 *475:51 *475:68 3.51786 
10 *475:68 *1658:A2 16.4071 
11 *475:68 *475:81 4.67857 
12 *475:81 *475:83 6.80357 
13 *475:83 *1668:B 14.3357 
14 *475:83 *1924:A2 40.6393 
15 *475:81 *1644:S 17.7464 
*END

*D_NET *476 0.000656185
*CONN
*I *1644:A1 I *D sky130_fd_sc_hd__mux2_4
*I *1643:Y O *D sky130_fd_sc_hd__xnor2_1
*CAP
1 *1644:A1 0.000203506
2 *1643:Y 0.000203506
3 *1644:A0 *1644:A1 9.71197e-05
4 *413:10 *1644:A1 8.33853e-05
5 *459:16 *1644:A1 6.86693e-05
*RES
1 *1643:Y *1644:A1 22.7429 
*END

*D_NET *477 0.00305563
*CONN
*I *1646:B I *D sky130_fd_sc_hd__xnor2_2
*I *1645:B I *D sky130_fd_sc_hd__nor2_1
*I *1688:B1 I *D sky130_fd_sc_hd__a21oi_1
*I *1644:X O *D sky130_fd_sc_hd__mux2_4
*CAP
1 *1646:B 0
2 *1645:B 0
3 *1688:B1 0.000182845
4 *1644:X 0.000347554
5 *477:10 0.000249029
6 *477:8 0.000413738
7 *1688:B1 *479:10 5.71472e-05
8 *1688:B1 *539:104 9.41642e-05
9 *477:10 *479:10 4.38128e-05
10 *1644:S *477:8 0.000142004
11 *1689:A2 *1688:B1 0.000388153
12 *1689:B1 *1688:B1 0.000102435
13 *2026:C *477:8 0.000296836
14 *45:56 *1688:B1 0.000118352
15 *241:16 *477:8 1.5424e-05
16 *241:28 *477:8 5.33005e-05
17 *283:67 *1688:B1 5.52302e-05
18 *283:67 *477:8 0.000214082
19 *283:67 *477:10 0.000229456
20 *413:10 *477:8 5.20669e-05
*RES
1 *1644:X *477:8 17.2464 
2 *477:8 *477:10 2.17857 
3 *477:10 *1688:B1 24.7643 
4 *477:10 *1645:B 9.3 
5 *477:8 *1646:B 9.3 
*END

*D_NET *478 0.00145188
*CONN
*I *1671:C1 I *D sky130_fd_sc_hd__a311o_1
*I *1670:C1 I *D sky130_fd_sc_hd__a311oi_2
*I *1645:Y O *D sky130_fd_sc_hd__nor2_1
*CAP
1 *1671:C1 0
2 *1670:C1 0.000122803
3 *1645:Y 0.000154799
4 *478:10 0.000277602
5 *478:10 *479:10 7.32272e-05
6 *1670:B1 *1670:C1 0.000207051
7 *1689:A2 *1670:C1 5.83304e-05
8 *1689:A2 *478:10 0.000148189
9 *1706:B1 *1670:C1 0.000186669
10 *44:10 *1670:C1 1.02504e-05
11 *44:10 *478:10 0.00013966
12 *45:12 *1670:C1 7.32955e-05
*RES
1 *1645:Y *478:10 17.1036 
2 *478:10 *1670:C1 17.9429 
3 *478:10 *1671:C1 13.8 
*END

*D_NET *479 0.00266043
*CONN
*I *1687:A I *D sky130_fd_sc_hd__xnor2_1
*I *1671:A1 I *D sky130_fd_sc_hd__a311o_1
*I *1670:A1 I *D sky130_fd_sc_hd__a311oi_2
*I *1646:Y O *D sky130_fd_sc_hd__xnor2_2
*CAP
1 *1687:A 0.000329508
2 *1671:A1 0
3 *1670:A1 7.66452e-05
4 *1646:Y 0.000159605
5 *479:12 0.000104904
6 *479:10 0.000517372
7 *1670:A1 *546:73 0.000170661
8 *1687:A *556:10 0.000137983
9 *479:10 *1645:A 0.000178847
10 *479:10 *546:73 6.73939e-05
11 *479:10 *546:121 5.83304e-05
12 *479:12 *546:73 6.81083e-05
13 *1687:B *1687:A 8.11942e-05
14 *1688:B1 *479:10 5.71472e-05
15 *1698:A2 *1687:A 1.3701e-05
16 *1706:B1 *1670:A1 2.59355e-05
17 *2121:A *1687:A 2.44318e-05
18 *45:12 *1670:A1 5.52238e-05
19 *46:6 *1687:A 0
20 *46:10 *1687:A 2.30823e-05
21 *241:39 *1670:A1 0.00017309
22 *241:39 *479:10 0.000126439
23 *241:39 *479:12 7.83587e-05
24 *283:67 *479:10 1.5424e-05
25 *477:10 *479:10 4.38128e-05
26 *478:10 *479:10 7.32272e-05
*RES
1 *1646:Y *479:10 18.4429 
2 *479:10 *479:12 1.03571 
3 *479:12 *1670:A1 16.5857 
4 *479:12 *1671:A1 13.8 
5 *479:10 *1687:A 18.9071 
*END

*D_NET *480 0.000894157
*CONN
*I *1648:B I *D sky130_fd_sc_hd__xnor2_1
*I *1649:B I *D sky130_fd_sc_hd__xor2_1
*I *1647:Y O *D sky130_fd_sc_hd__xnor2_1
*CAP
1 *1648:B 0.000109412
2 *1649:B 0
3 *1647:Y 0.0001344
4 *480:12 0.000243812
5 *1648:B *1651:A1 0.000144773
6 *480:12 *493:10 5.80217e-05
7 *1649:A *1648:B 0.000146591
8 *1649:A *480:12 5.71472e-05
9 *446:16 *480:12 0
*RES
1 *1647:Y *480:12 21.1929 
2 *480:12 *1649:B 9.3 
3 *480:12 *1648:B 12.7464 
*END

*D_NET *481 0.000206275
*CONN
*I *1650:A1 I *D sky130_fd_sc_hd__mux2_1
*I *1648:Y O *D sky130_fd_sc_hd__xnor2_1
*CAP
1 *1650:A1 6.82389e-05
2 *1648:Y 6.82389e-05
3 *1647:B *1650:A1 0
4 *1650:S *1650:A1 0
5 *446:16 *1650:A1 6.97972e-05
*RES
1 *1648:Y *1650:A1 29.2429 
*END

*D_NET *482 0.0013617
*CONN
*I *1651:A1 I *D sky130_fd_sc_hd__mux2_4
*I *1649:X O *D sky130_fd_sc_hd__xor2_1
*CAP
1 *1651:A1 0.000415098
2 *1649:X 0.000415098
3 *1634:B1 *1651:A1 0.000186669
4 *1648:B *1651:A1 0.000144773
5 *1651:S *1651:A1 4.59429e-05
6 *446:10 *1651:A1 1.17968e-05
7 *446:16 *1651:A1 0.000142327
*RES
1 *1649:X *1651:A1 35.7429 
*END

*D_NET *483 0.00176926
*CONN
*I *1652:B I *D sky130_fd_sc_hd__nand2_1
*I *1696:B I *D sky130_fd_sc_hd__xnor2_1
*I *1650:X O *D sky130_fd_sc_hd__mux2_1
*CAP
1 *1652:B 0
2 *1696:B 0.000127119
3 *1650:X 0.000289077
4 *483:8 0.000416195
5 *1696:B *1652:A 5.30479e-05
6 *1696:B *485:12 2.95641e-05
7 *483:8 *1652:A 9.90431e-05
8 *483:8 *546:27 0.00065425
9 *1696:A *1696:B 0.00010096
*RES
1 *1650:X *483:8 17.1393 
2 *483:8 *1696:B 12.3179 
3 *483:8 *1652:B 9.3 
*END

*D_NET *484 0.00459291
*CONN
*I *1698:B1 I *D sky130_fd_sc_hd__a21o_1
*I *1666:A1 I *D sky130_fd_sc_hd__a221o_1
*I *1651:X O *D sky130_fd_sc_hd__mux2_4
*CAP
1 *1698:B1 0.000556375
2 *1666:A1 5.70506e-05
3 *1651:X 0.000604288
4 *484:10 0.00121771
5 *1698:B1 *1709:B1 0
6 *1698:B1 *485:12 8.85798e-05
7 *1698:B1 *546:73 3.24051e-05
8 *484:10 *546:73 9.87983e-06
9 *1666:A2 *1666:A1 1.46576e-05
10 *1666:A2 *1698:B1 1.08359e-05
11 *1666:A2 *484:10 2.61337e-05
12 *1671:A2 *1698:B1 2.24646e-05
13 *1687:B *1698:B1 0.000175512
14 *1696:A *484:10 6.74815e-05
15 *1699:A *1698:B1 0.000195131
16 *1699:C *1698:B1 5.71472e-05
17 *1705:B *1666:A1 9.7049e-06
18 *1706:B1 *1698:B1 0.000479652
19 *1707:C *1698:B1 0
20 *34:8 *1666:A1 0.000137983
21 *35:10 *1698:B1 1.78353e-05
22 *39:10 *1666:A1 6.88949e-05
23 *41:8 *1698:B1 0.000128154
24 *41:19 *1698:B1 0.000209483
25 *45:12 *1698:B1 0.000224583
26 *283:26 *1698:B1 0.000180962
*RES
1 *1651:X *484:10 23.9786 
2 *484:10 *1666:A1 15.5857 
3 *484:10 *1698:B1 38.1036 
*END

*D_NET *485 0.00303704
*CONN
*I *1671:A3 I *D sky130_fd_sc_hd__a311o_1
*I *1670:A2 I *D sky130_fd_sc_hd__a311oi_2
*I *1667:A I *D sky130_fd_sc_hd__nand2_1
*I *1652:Y O *D sky130_fd_sc_hd__nand2_1
*CAP
1 *1671:A3 6.06221e-05
2 *1670:A2 2.04425e-05
3 *1667:A 0
4 *1652:Y 0.000283811
5 *485:25 0.000235931
6 *485:12 0.000438677
7 *1671:A3 *546:73 0.000170661
8 *485:12 *1652:A 1.33343e-05
9 *485:25 *546:73 0.000196269
10 *1665:A1 *485:12 0.000106403
11 *1666:A2 *485:12 6.98302e-05
12 *1667:B *485:25 5.33005e-05
13 *1671:A2 *1671:A3 0.000137931
14 *1671:A2 *485:25 1.02504e-05
15 *1687:B *1671:A3 9.11365e-06
16 *1696:A *485:12 0.000301567
17 *1696:B *485:12 2.95641e-05
18 *1698:B1 *485:12 8.85798e-05
19 *1706:B1 *1670:A2 2.59355e-05
20 *35:10 *485:12 0.000177234
21 *35:10 *485:25 0.000180764
22 *35:12 *485:12 0.000175526
23 *41:19 *485:25 0.000197991
24 *45:12 *1670:A2 5.33005e-05
*RES
1 *1652:Y *485:12 26.1571 
2 *485:12 *1667:A 9.3 
3 *485:12 *485:25 9.25 
4 *485:25 *1670:A2 14.3357 
5 *485:25 *1671:A3 16.05 
*END

*D_NET *486 0.00180878
*CONN
*I *1908:A1 I *D sky130_fd_sc_hd__a21oi_2
*I *1654:B I *D sky130_fd_sc_hd__and2_1
*I *1655:B I *D sky130_fd_sc_hd__nand2_1
*I *1653:Y O *D sky130_fd_sc_hd__nand2_1
*CAP
1 *1908:A1 0.000141854
2 *1654:B 0.000208657
3 *1655:B 5.90509e-05
4 *1653:Y 0
5 *486:8 0.000334844
6 *486:4 0.00020899
7 *1654:B *1657:C1 3.48705e-05
8 *1655:B *1653:A 1.04232e-05
9 *1655:B *549:107 5.03772e-05
10 *1908:A1 *1907:B 5.982e-05
11 *1908:A1 *517:58 9.24299e-05
12 *486:8 *1653:A 0.00014183
13 *486:8 *1653:B 2.44318e-05
14 *486:8 *549:107 8.43535e-06
15 *1654:A *1654:B 2.44318e-05
16 *1908:A2 *486:8 0.000100625
17 *1908:B1 *1908:A1 4.46186e-06
18 *445:8 *1654:B 0.000202287
19 *445:8 *1655:B 0.00010096
*RES
1 *1653:Y *486:4 9.3 
2 *486:4 *486:8 2.60714 
3 *486:8 *1655:B 11.0857 
4 *486:8 *1654:B 13.8714 
5 *486:4 *1908:A1 21.4964 
*END

*D_NET *487 0.00178886
*CONN
*I *1656:C1 I *D sky130_fd_sc_hd__a211o_1
*I *1654:X O *D sky130_fd_sc_hd__and2_1
*CAP
1 *1656:C1 0.000663264
2 *1654:X 0.000663264
3 *1656:C1 *551:37 6.05161e-06
4 *1656:C1 *554:58 0.000128154
5 *1635:A *1656:C1 0.000221628
6 *474:14 *1656:C1 0.0001065
*RES
1 *1654:X *1656:C1 39.6536 
*END

*D_NET *488 0.0023701
*CONN
*I *1657:C1 I *D sky130_fd_sc_hd__a211o_1
*I *1655:Y O *D sky130_fd_sc_hd__nand2_1
*CAP
1 *1657:C1 0.000771149
2 *1655:Y 0.000771149
3 *1657:C1 *1660:C1 0.000155761
4 *1657:C1 *518:33 0.000312215
5 *1636:A2 *1657:C1 0.000108525
6 *1636:C1 *1657:C1 5.52302e-05
7 *1654:A *1657:C1 5.71472e-05
8 *1654:B *1657:C1 3.48705e-05
9 *445:8 *1657:C1 2.44318e-05
10 *453:14 *1657:C1 6.8646e-06
11 *467:10 *1657:C1 7.2754e-05
*RES
1 *1655:Y *1657:C1 42.1179 
*END

*D_NET *489 0.00588911
*CONN
*I *1814:A I *D sky130_fd_sc_hd__nand2_2
*I *1822:D I *D sky130_fd_sc_hd__and4b_2
*I *1813:A_N I *D sky130_fd_sc_hd__and4b_2
*I *1824:D I *D sky130_fd_sc_hd__and4bb_2
*I *1816:A I *D sky130_fd_sc_hd__or4b_4
*I *1831:A_N I *D sky130_fd_sc_hd__and4bb_2
*I *1594:A I *D sky130_fd_sc_hd__nor2_1
*I *2091:X O *D sky130_fd_sc_hd__dlymetal6s2s_1
*CAP
1 *1814:A 4.70372e-05
2 *1822:D 0
3 *1813:A_N 0
4 *1824:D 0
5 *1816:A 0.000182848
6 *1831:A_N 6.49602e-05
7 *1594:A 9.66478e-05
8 *2091:X 0
9 *489:45 0.000349751
10 *489:41 0.000545193
11 *489:35 0.000857645
12 *489:23 0.00053614
13 *489:21 0.000324725
14 *489:4 0.00025259
15 *1594:A *1594:B 5.52302e-05
16 *1594:A *511:51 0.000320024
17 *1814:A *1816:D_N 0
18 *1816:A *1824:C 3.25078e-05
19 *1816:A *2114:A 9.49939e-05
20 *1816:A *500:10 0
21 *1816:A *511:70 1.85914e-05
22 *1831:A_N *500:25 0.000181803
23 *489:21 *1594:B 0
24 *489:21 *1595:A_N 0
25 *489:21 *511:51 1.21289e-05
26 *489:21 *530:17 4.49293e-05
27 *489:23 *530:17 0.000151892
28 *489:35 *1813:B 5.71472e-05
29 *489:35 *1815:C_N 4.18895e-05
30 *489:35 *530:17 1.02504e-05
31 *489:35 *530:19 0.000258971
32 *489:35 *530:23 5.71472e-05
33 *489:41 *1586:A 9.60939e-05
34 *489:41 *1824:C 5.33433e-05
35 *489:41 *2089:A 6.13757e-06
36 *489:45 *1824:B_N 2.21972e-05
37 *489:45 *1824:C 0.000100969
38 *1815:A *489:35 3.39921e-05
39 *1817:D_N *1814:A 6.33738e-05
40 *1818:B2 *489:23 0
41 *1818:B2 *489:35 1.31235e-05
42 *1820:C *489:35 2.44318e-05
43 *1820:C *489:41 0.00010096
44 *1826:A3 *489:35 0
45 *1827:C *1816:A 5.52302e-05
46 *1827:C *489:45 8.41284e-06
47 *2091:A *1594:A 7.17136e-05
48 *2105:A *489:21 2.89016e-05
49 *189:10 *1814:A 2.28499e-05
50 *191:8 *1816:A 6.28483e-05
51 *191:8 *489:45 2.94103e-05
52 *191:14 *489:45 9.97648e-05
53 *191:72 *1831:A_N 5.03772e-05
54 *192:24 *489:41 8.27184e-06
55 *199:18 *489:45 9.25014e-06
56 *230:6 *489:41 2.44318e-05
57 *230:13 *489:41 6.58597e-05
58 *315:8 *489:21 0
59 *315:23 *1814:A 9.60875e-05
60 *326:18 *1594:A 4.69993e-05
61 *326:18 *489:21 9.90367e-05
62 *326:56 *489:23 0
*RES
1 *2091:X *489:4 9.3 
2 *489:4 *1594:A 13.4607 
3 *489:4 *489:21 7.69643 
4 *489:21 *489:23 2.25 
5 *489:23 *489:35 11.9464 
6 *489:35 *489:41 6.83929 
7 *489:41 *489:45 7.66071 
8 *489:45 *1831:A_N 15.5679 
9 *489:45 *1816:A 17.1929 
10 *489:41 *1824:D 9.3 
11 *489:35 *1813:A_N 9.3 
12 *489:23 *1822:D 13.8 
13 *489:21 *1814:A 15.175 
*END

*D_NET *490 0.0193934
*CONN
*I *1964:A1 I *D sky130_fd_sc_hd__a21oi_1
*I *2009:B2 I *D sky130_fd_sc_hd__a32o_1
*I *1965:A1 I *D sky130_fd_sc_hd__o22a_1
*I *1966:A1 I *D sky130_fd_sc_hd__a32o_1
*I *2090:A I *D sky130_fd_sc_hd__buf_6
*I *2092:X O *D sky130_fd_sc_hd__clkbuf_2
*CAP
1 *1964:A1 0.00011418
2 *2009:B2 0.000294899
3 *1965:A1 1.90917e-05
4 *1966:A1 9.73692e-05
5 *2090:A 0
6 *2092:X 0.00160683
7 *490:61 0.000429065
8 *490:48 0.000460657
9 *490:29 0.000518949
10 *490:27 0.00246417
11 *490:25 0.00413651
12 *490:10 0.00327918
13 *1964:A1 *1964:A2 9.16173e-05
14 *1964:A1 *537:46 6.42095e-05
15 *1964:A1 *537:52 5.74499e-06
16 *1965:A1 *497:52 2.95131e-05
17 *1966:A1 *1966:A2 5.33005e-05
18 *1966:A1 *2048:B1 0
19 *2009:B2 *1956:A1 0.000337637
20 *2009:B2 *2049:A1 0.00047729
21 *2009:B2 *2118:A 0.000109182
22 *2009:B2 *537:42 0
23 *490:27 *1878:B 6.5185e-05
24 *490:27 *1909:B 0.000234974
25 *490:27 *1979:A2 0
26 *490:27 *1983:A 0
27 *490:27 *525:92 0
28 *490:27 *527:34 1.87955e-05
29 *490:27 *527:45 0.000173634
30 *490:27 *527:109 2.18733e-05
31 *490:27 *542:141 0.000173804
32 *490:27 *545:33 0
33 *490:27 *563:14 0.000327744
34 *490:27 *563:69 0.000302068
35 *490:48 *1919:A2 8.47076e-05
36 *490:48 *1966:A2 0.000304387
37 *490:48 *2049:A1 0.000137983
38 *490:48 *2118:A 6.09903e-05
39 *490:48 *497:52 1.69961e-05
40 *490:48 *535:22 8.01613e-05
41 *490:48 *537:52 4.98055e-06
42 *490:48 *537:69 9.69119e-06
43 *1861:B *490:27 0.000148189
44 *1863:B *490:27 0.000329057
45 *1866:B2 *490:27 4.00349e-05
46 *1906:A1 *490:27 0.000150618
47 *1909:A *490:27 0.000141375
48 *1939:A *490:27 0
49 *1956:B1 *2009:B2 0.000158268
50 *1965:B1 *1964:A1 5.33005e-05
51 *1966:B1 *1966:A1 2.28499e-05
52 *1985:A *490:27 0
53 *2035:B *490:25 0
54 *2036:A *490:10 0
55 *2036:A *490:25 0
56 *2037:A *490:27 0
57 *2037:B *490:27 0
58 *2096:A *490:10 2.89114e-05
59 *2110:A *490:10 2.89114e-05
60 *190:27 *490:27 0
61 *196:12 *490:27 0
62 *196:14 *490:27 0.000240938
63 *196:46 *490:27 6.59118e-05
64 *199:95 *490:27 0.00012401
65 *257:12 *490:27 0.000225314
66 *311:10 *490:27 0
67 *313:24 *490:27 0.00015134
68 *317:12 *490:27 6.95112e-05
69 *317:34 *490:27 9.36523e-05
70 *351:22 *490:27 0.000196269
71 *366:12 *490:27 0
72 *438:16 *1964:A1 0.000431864
73 *438:16 *490:48 8.56851e-05
*RES
1 *2092:X *490:10 39.9964 
2 *490:10 *2090:A 13.8 
3 *490:10 *490:25 10.4021 
4 *490:25 *490:27 57.3482 
5 *490:27 *490:29 4.5 
6 *490:29 *1966:A1 10.675 
7 *490:29 *490:48 17.2321 
8 *490:48 *1965:A1 10.1036 
9 *490:48 *490:61 0.428571 
10 *490:61 *2009:B2 27.5321 
11 *490:61 *1964:A1 13.5321 
*END

*D_NET *491 0.010309
*CONN
*I *2089:A I *D sky130_fd_sc_hd__clkbuf_2
*I *2088:A I *D sky130_fd_sc_hd__buf_2
*I *2093:X O *D sky130_fd_sc_hd__buf_1
*CAP
1 *2089:A 0.00109825
2 *2088:A 0.000469807
3 *2093:X 0.0017022
4 *491:26 0.00327025
5 *2088:A *1825:A1 5.10822e-05
6 *2088:A *524:64 0
7 *2088:A *524:78 0
8 *2088:A *529:63 4.95787e-05
9 *2088:A *554:75 9.24491e-05
10 *2088:A *554:88 3.22834e-05
11 *2089:A *1586:A 1.21258e-05
12 *2089:A *1815:B 0.000271345
13 *2089:A *530:66 8.41911e-05
14 *491:26 *1586:A 2.53429e-05
15 *491:26 *2113:A 0
16 *491:26 *2114:A 9.60875e-05
17 *491:26 *2117:A 1.92905e-05
18 *491:26 *511:66 4.58194e-05
19 *491:26 *511:70 3.78555e-05
20 op_out[1] *491:26 0.000140234
21 op_out[3] *491:26 2.02508e-05
22 op_out[4] *491:26 1.72894e-05
23 *1811:A *2088:A 0.000150625
24 *1811:B *2088:A 0.00015234
25 *1812:A1 *2088:A 0.000477097
26 *1812:A1 *491:26 0.000120708
27 *1813:C *2089:A 5.33005e-05
28 *1815:A *2089:A 0.000388883
29 *1827:A *491:26 4.00229e-05
30 *1827:C *2088:A 0.000200221
31 *1827:C *491:26 8.96776e-05
32 *183:12 *2088:A 0
33 *186:8 *2088:A 2.90421e-05
34 *189:14 *2089:A 6.2589e-06
35 *192:24 *2088:A 8.6229e-06
36 *192:24 *491:26 1.04707e-05
37 *199:18 *2088:A 0
38 *205:14 *491:26 2.26327e-05
39 *211:16 *2088:A 5.71472e-05
40 *230:6 *2089:A 4.58194e-05
41 *230:13 *2089:A 0.000253488
42 *326:18 *491:26 0.000660795
43 *489:41 *2089:A 6.13757e-06
*RES
1 *2093:X *491:26 47.6393 
2 *491:26 *2088:A 27.2107 
3 *491:26 *2089:A 40.7821 
*END

*D_NET *492 0.0190451
*CONN
*I *2014:A I *D sky130_fd_sc_hd__xnor2_1
*I *2010:A1 I *D sky130_fd_sc_hd__a211o_1
*I *2046:A1 I *D sky130_fd_sc_hd__a21oi_1
*I *2048:A1 I *D sky130_fd_sc_hd__a32o_1
*I *1599:B1 I *D sky130_fd_sc_hd__o41ai_4
*I *2033:B I *D sky130_fd_sc_hd__nand2_1
*I *1589:A I *D sky130_fd_sc_hd__inv_2
*I *1809:C I *D sky130_fd_sc_hd__or4_1
*I *2047:A1 I *D sky130_fd_sc_hd__o22a_1
*I *2094:X O *D sky130_fd_sc_hd__clkbuf_4
*CAP
1 *2014:A 0
2 *2010:A1 1.47912e-05
3 *2046:A1 0
4 *2048:A1 0
5 *1599:B1 5.70358e-05
6 *2033:B 0.000330053
7 *1589:A 2.04425e-05
8 *1809:C 0.000625268
9 *2047:A1 4.97403e-05
10 *2094:X 0.00019811
11 *492:77 0.00247703
12 *492:67 0.00265373
13 *492:56 0.000716159
14 *492:50 0.000402606
15 *492:35 0.000877423
16 *492:33 0.000324825
17 *492:20 0.000675096
18 *492:14 0.000782088
19 *492:12 0.000569322
20 *1589:A *550:67 5.33005e-05
21 *1599:B1 *547:82 0.000140933
22 *1809:C *1818:A1 1.95846e-05
23 *1809:C *1818:A2 7.13226e-06
24 *1809:C *518:82 5.52238e-05
25 *1809:C *518:105 0.00038843
26 *1809:C *529:51 1.33343e-05
27 *2033:B *1988:A 0
28 *2033:B *1989:A1 0.000156874
29 *2033:B *2033:A 1.97901e-05
30 *2033:B *552:56 0
31 *2033:B *554:23 2.59093e-05
32 *492:12 *2118:A 0
33 *492:12 *511:10 0.000120624
34 *492:12 *511:12 1.01487e-05
35 *492:12 *511:45 0.000100831
36 *492:14 *1815:B 0.000103285
37 *492:14 *2118:A 0
38 *492:14 *511:12 8.2971e-05
39 *492:14 *553:10 0
40 *492:20 *2009:A2 0
41 *492:20 *2072:A 6.27272e-06
42 *492:20 *535:22 0
43 *492:20 *535:65 0
44 *492:50 *532:16 0.000196269
45 *492:50 *532:18 0.000156402
46 *492:56 *532:18 9.54798e-06
47 *492:56 *532:24 0.000146992
48 *492:56 *550:67 8.17274e-05
49 *492:56 *550:95 0.000178847
50 *492:67 *528:22 0.000194577
51 *492:67 *528:34 5.46971e-05
52 *492:67 *538:24 0.000145579
53 *492:67 *550:54 7.57965e-05
54 *492:67 *550:65 0.000124979
55 *492:77 *1853:A1 8.58088e-05
56 *492:77 *1855:B 0
57 *492:77 *1989:A1 0.000315165
58 *492:77 *1989:B1 0.000198698
59 *492:77 *1989:B2 6.05161e-06
60 *492:77 *2023:A1 0
61 *492:77 *2025:A1 0
62 *492:77 *517:58 8.8194e-05
63 *492:77 *517:62 9.45668e-05
64 *492:77 *518:33 0
65 *492:77 *521:89 0
66 *492:77 *538:24 1.65558e-05
67 *492:77 *540:33 0
68 *492:77 *549:92 0.000226751
69 *492:77 *549:107 0.000175786
70 *492:77 *550:43 6.19181e-05
71 *492:77 *550:54 1.08359e-05
72 *492:77 *551:89 0.000100831
73 *492:77 *554:58 0
74 *492:77 *554:75 0
75 *1818:B1 *1809:C 0.000112307
76 *1835:B1 *492:67 0.000138164
77 *1835:B2 *492:67 4.28249e-05
78 *1836:A2 *492:67 0.000215495
79 *1865:B1 *492:67 4.00485e-05
80 *1907:C *492:77 0
81 *1908:A2 *492:77 0.000129868
82 *1956:A2 *1589:A 2.59355e-05
83 *1956:A2 *2047:A1 6.42145e-05
84 *1956:A2 *492:20 0.000142317
85 *1956:A2 *492:56 0.000310987
86 *1990:B *492:77 0.000101545
87 *2008:B1 *2010:A1 2.89016e-05
88 *2009:A3 *2010:A1 5.52238e-05
89 *2027:D *492:77 0
90 *2028:A1 *492:77 0.000199691
91 *2028:A2 *492:77 0.00017309
92 *2031:A1 *492:77 2.77173e-05
93 *2031:B1_N *2033:B 5.7616e-05
94 *2034:A *2033:B 0
95 *190:54 *1809:C 0.000137983
96 *190:54 *492:33 9.41642e-05
97 *190:54 *492:35 0.000137983
98 *190:61 *492:33 0.000207274
99 *196:8 *492:14 0
100 *197:16 *2010:A1 1.33343e-05
101 *197:22 *492:20 0.000163649
102 *197:28 *2047:A1 0.000125717
103 *197:28 *492:20 0.000255611
104 *197:46 *492:67 0.000178339
105 *199:51 *492:67 1.18064e-05
106 *205:26 *492:50 0.000115474
107 *205:28 *492:50 0.000167878
108 *205:47 *492:50 3.074e-05
109 *205:47 *492:56 7.30047e-05
110 *211:16 *492:67 0.000145753
111 *227:12 *492:77 6.97972e-05
112 *326:78 *492:56 0.000181075
113 *409:8 *492:77 0.000102545
114 *410:8 *492:77 0.000142082
*RES
1 *2094:X *492:12 17.6214 
2 *492:12 *492:14 7.10714 
3 *492:14 *492:20 8.98214 
4 *492:20 *2047:A1 15.4429 
5 *492:20 *492:33 7.5 
6 *492:33 *492:35 1.35714 
7 *492:35 *1809:C 19.3179 
8 *492:35 *492:50 9.17857 
9 *492:50 *492:56 12.3214 
10 *492:56 *1589:A 9.83571 
11 *492:56 *492:67 17.0714 
12 *492:67 *492:77 49.4821 
13 *492:77 *2033:B 24.6036 
14 *492:67 *1599:B1 15.1571 
15 *492:50 *2048:A1 13.8 
16 *492:33 *2046:A1 9.3 
17 *492:14 *2010:A1 14.3357 
18 *492:12 *2014:A 13.8 
*END

*D_NET *493 0.0175756
*CONN
*I *1825:A1 I *D sky130_fd_sc_hd__a32o_1
*I *1838:A I *D sky130_fd_sc_hd__nand2_1
*I *1846:A1 I *D sky130_fd_sc_hd__o21a_1
*I *2087:A I *D sky130_fd_sc_hd__buf_4
*I *2095:X O *D sky130_fd_sc_hd__clkbuf_2
*CAP
1 *1825:A1 0.00134128
2 *1838:A 9.94354e-05
3 *1846:A1 2.9238e-05
4 *2087:A 0
5 *2095:X 0.00128446
6 *493:34 0.0017413
7 *493:23 0.00153766
8 *493:21 0.00134539
9 *493:10 0.00142202
10 *1825:A1 *1825:A2 5.71472e-05
11 *1825:A1 *526:94 0.000323874
12 *1825:A1 *529:63 0.000957432
13 *1825:A1 *544:34 3.75159e-05
14 *1838:A *1795:A2 0
15 *1838:A *526:98 7.02611e-05
16 *1846:A1 *536:70 5.33005e-05
17 *493:10 *1664:A 5.35516e-05
18 *493:10 *495:12 0
19 *493:10 *546:10 0
20 *493:10 *546:73 0
21 *493:10 *551:25 0
22 *493:21 *551:6 7.48091e-05
23 *493:21 *551:25 0.000172536
24 *493:23 *1590:A 0
25 *493:23 *1613:B 0
26 *493:23 *544:34 0.000383399
27 *493:23 *551:107 0.000541898
28 *493:23 *551:120 0.000796094
29 *493:34 *543:104 1.37292e-05
30 *493:34 *544:34 1.37022e-05
31 *1660:A1 *493:23 0.000311014
32 *1664:B *493:10 0
33 *1825:A3 *1825:A1 9.90431e-05
34 *1826:B1 *1825:A1 0.000144773
35 *1838:B *493:34 0.000175526
36 *1839:B *1838:A 1.24368e-05
37 *1846:B1 *493:34 0.000171368
38 *1924:A2 *493:23 0
39 *1925:A1 *1825:A1 0.000135028
40 *2088:A *1825:A1 5.10822e-05
41 *35:10 *493:21 0.000531267
42 *191:24 *493:34 0.000437934
43 *199:18 *1825:A1 0.000183713
44 *219:10 *493:23 0.00010326
45 *219:25 *493:23 0.000963968
46 *219:25 *493:34 0.000151333
47 *221:12 *1825:A1 4.19172e-05
48 *221:12 *493:34 0.000202016
49 *243:14 *493:34 0
50 *446:10 *493:23 0.00145185
51 *480:12 *493:10 5.80217e-05
*RES
1 *2095:X *493:10 41.8 
2 *493:10 *2087:A 9.3 
3 *493:10 *493:21 9.98214 
4 *493:21 *493:23 41.1071 
5 *493:23 *1846:A1 14.3357 
6 *493:23 *493:34 10.4464 
7 *493:34 *1838:A 15.5857 
8 *493:34 *1825:A1 49.9964 
*END

*D_NET *494 0.0108245
*CONN
*I *2085:A I *D sky130_fd_sc_hd__buf_2
*I *2084:A I *D sky130_fd_sc_hd__buf_2
*I *2096:X O *D sky130_fd_sc_hd__buf_1
*CAP
1 *2085:A 0.000400993
2 *2084:A 0.00257511
3 *2096:X 0.000722414
4 *494:14 0.00369852
5 *2084:A *1647:A 0.00011926
6 *2084:A *2057:A 0.00100152
7 *2084:A *515:88 0.000441408
8 *2084:A *518:54 0.000165869
9 *2084:A *552:12 0.000210207
10 *2085:A *1647:A 0
11 *2085:A *1987:B 4.04277e-05
12 *494:14 *1647:A 0.000213232
13 *494:14 *2057:A 0.000402314
14 *1647:B *494:14 0.000235697
15 *1896:A2 *2084:A 0.000113064
16 *1924:A2 *2084:A 7.36061e-05
17 *241:16 *2084:A 0.000126169
18 *294:43 *2084:A 0.000168051
19 *475:83 *2084:A 0.000116627
*RES
1 *2096:X *494:14 32.1118 
2 *494:14 *2084:A 33.1509 
3 *494:14 *2085:A 19.9512 
*END

*D_NET *495 0.00365117
*CONN
*I *2082:A I *D sky130_fd_sc_hd__buf_2
*I *2097:X O *D sky130_fd_sc_hd__clkbuf_1
*CAP
1 *2082:A 0
2 *2097:X 0.00178478
3 *495:12 0.00178478
4 *495:12 *546:10 5.33978e-05
5 *495:12 *546:73 2.82057e-05
6 *1696:A *495:12 0
7 *493:10 *495:12 0
*RES
1 *2097:X *495:12 45.6929 
2 *495:12 *2082:A 9.3 
*END

*D_NET *496 0.000423242
*CONN
*I *2079:A I *D sky130_fd_sc_hd__clkbuf_4
*I *2098:X O *D sky130_fd_sc_hd__clkbuf_1
*CAP
1 *2079:A 0.000181602
2 *2098:X 0.000181602
3 *2079:A *1748:A 6.0038e-05
4 *1749:C *2079:A 0
*RES
1 *2098:X *2079:A 30.4929 
*END

*D_NET *497 0.0235809
*CONN
*I *2075:A I *D sky130_fd_sc_hd__buf_6
*I *1956:A1 I *D sky130_fd_sc_hd__o21a_1
*I *1920:A2 I *D sky130_fd_sc_hd__o22a_1
*I *2052:A I *D sky130_fd_sc_hd__clkbuf_1
*I *1922:A2 I *D sky130_fd_sc_hd__a32o_1
*I *2076:A I *D sky130_fd_sc_hd__buf_2
*I *2099:X O *D sky130_fd_sc_hd__buf_6
*CAP
1 *2075:A 0.000205793
2 *1956:A1 0.000203167
3 *1920:A2 0.000282895
4 *2052:A 0.000821632
5 *1922:A2 0.000230256
6 *2076:A 0.000295141
7 *2099:X 0
8 *497:56 0.00126292
9 *497:52 0.00147536
10 *497:44 0.00153703
11 *497:29 0.00230854
12 *497:27 0.002665
13 *497:4 0.00109929
14 *1920:A2 *1921:A 0
15 *1920:A2 *534:147 8.359e-05
16 *1922:A2 *518:54 9.54798e-06
17 *1922:A2 *518:67 0.000638171
18 *1922:A2 *519:105 0.000211997
19 *1956:A1 *2049:A1 2.26424e-05
20 *1956:A1 *2118:A 4.038e-06
21 *1956:A1 *537:42 0
22 *2052:A *524:25 2.26424e-05
23 *2052:A *524:52 9.13502e-05
24 *2052:A *535:22 0.000207085
25 *2052:A *537:69 9.14032e-05
26 *2052:A *540:97 0.000344027
27 *2052:A *563:8 1.74352e-05
28 *2075:A *1872:A 0
29 *2075:A *1899:A 7.50697e-05
30 *2075:A *1955:A1 0.000220455
31 *2075:A *538:12 0
32 *2076:A *2073:A 1.17968e-05
33 *2076:A *534:27 6.607e-06
34 *2076:A *539:12 5.52238e-05
35 *497:27 *1772:S 9.60875e-05
36 *497:27 *1787:A2 0.000194888
37 *497:27 *510:85 0.000400867
38 *497:27 *531:25 1.08524e-05
39 *497:29 *516:112 5.38209e-05
40 *497:29 *552:10 9.68482e-05
41 *497:44 *552:10 0.000103553
42 *497:52 *1872:A 0
43 *497:52 *1899:A 4.35131e-05
44 *497:52 *2047:A2 0.000432883
45 *497:52 *2049:A1 0.000817351
46 *497:52 *537:52 9.71197e-05
47 *497:52 *552:10 0.00057113
48 *497:52 *552:110 0.000353066
49 *497:56 *1895:A1 3.57163e-05
50 *497:56 *1921:A 0
51 *497:56 *2118:A 7.79781e-06
52 *497:56 *518:105 4.32258e-05
53 *497:56 *537:52 6.00199e-05
54 *497:56 *537:69 6.75007e-05
55 *1723:A *497:29 0.000135028
56 *1749:C *2076:A 0.000389854
57 *1767:A *2076:A 0.000168698
58 *1767:B *2076:A 0.000563403
59 *1771:A *497:27 0.000161947
60 *1771:B *497:27 5.33005e-05
61 *1787:A1 *497:29 5.65955e-05
62 *1787:B1 *497:27 0.00015234
63 *1861:B *2052:A 6.87245e-05
64 *1863:B *2052:A 5.33005e-05
65 *1864:B2 *2052:A 0.000263372
66 *1892:B1 *2052:A 8.19957e-05
67 *1919:B1 *1956:A1 0.00019384
68 *1919:B1 *497:56 0.000170654
69 *1920:B2 *1920:A2 5.52238e-05
70 *1921:B *1920:A2 0.000269422
71 *1923:A3 *1920:A2 9.16173e-05
72 *1923:B1 *1920:A2 9.91086e-05
73 *1955:B1 *2075:A 5.59013e-05
74 *1965:A1 *497:52 2.95131e-05
75 *1967:B1 *1920:A2 0.000268396
76 *1967:B1 *497:56 0
77 *1967:B2 *1920:A2 2.89016e-05
78 *1967:C1 *1920:A2 1.19309e-05
79 *2009:B2 *1956:A1 0.000337637
80 *2049:B1 *497:52 2.77143e-05
81 *2049:C1 *497:52 2.59355e-05
82 *2100:A *2076:A 0.000139739
83 *147:10 *497:27 5.71472e-05
84 *197:63 *1922:A2 4.19535e-05
85 *197:67 *1922:A2 3.27359e-05
86 *199:95 *1920:A2 8.57023e-05
87 *199:95 *2052:A 0.000227539
88 *211:16 *497:52 0.000910862
89 *234:12 *2052:A 5.59013e-05
90 *234:16 *2052:A 5.33005e-05
91 *283:93 *497:27 0.00013921
92 *471:71 *497:27 1.90936e-05
93 *490:48 *497:52 1.69961e-05
*RES
1 *2099:X *497:4 9.3 
2 *497:4 *2076:A 28.3714 
3 *497:4 *497:27 24.4286 
4 *497:27 *497:29 27.2321 
5 *497:29 *1922:A2 26.6214 
6 *497:29 *497:44 8.32143 
7 *497:44 *497:52 35.625 
8 *497:52 *497:56 8.57143 
9 *497:56 *2052:A 38.0857 
10 *497:56 *1920:A2 26.1393 
11 *497:52 *1956:A1 19.0857 
12 *497:44 *2075:A 18.4786 
*END

*D_NET *498 0.0189844
*CONN
*I *2074:A I *D sky130_fd_sc_hd__buf_2
*I *2051:A I *D sky130_fd_sc_hd__clkbuf_1
*I *2073:A I *D sky130_fd_sc_hd__buf_6
*I *2100:X O *D sky130_fd_sc_hd__clkbuf_2
*CAP
1 *2074:A 0.00296667
2 *2051:A 0.00102166
3 *2073:A 0.000179244
4 *2100:X 0
5 *498:23 0.00539605
6 *498:4 0.00158697
7 *2051:A *2072:A 7.57607e-05
8 *2051:A *536:16 0
9 *2073:A *499:8 2.89016e-05
10 *2073:A *534:27 0.000270958
11 *2074:A *1824:B_N 0
12 *2074:A *2072:A 0.00548886
13 *2074:A *530:43 0
14 *2074:A *537:12 2.01359e-05
15 *498:23 *1773:A 8.66063e-05
16 *498:23 *536:16 0
17 *498:23 *539:12 0.00042994
18 *498:23 *565:73 0.000134539
19 *1787:A1 *2051:A 1.94879e-05
20 *1787:B1 *2051:A 0
21 *1789:A_N *2051:A 1.6363e-05
22 *1789:A_N *498:23 7.69867e-05
23 *1798:B1 *2051:A 0.000122935
24 *1805:C *498:23 7.6644e-05
25 *1805:D *498:23 0.000270236
26 *2076:A *2073:A 1.17968e-05
27 *2100:A *2073:A 3.51442e-05
28 *136:14 *2051:A 0.000416144
29 *136:14 *498:23 2.50556e-05
30 *161:8 *2051:A 0.000184502
31 *338:8 *2074:A 4.28249e-05
32 *471:71 *2051:A 0
*RES
1 *2100:X *498:4 9.3 
2 *498:4 *2073:A 22.3 
3 *498:4 *498:23 23.7411 
4 *498:23 *2051:A 39.4444 
5 *498:23 *2074:A 30.7602 
*END

*D_NET *499 0.0168009
*CONN
*I *2072:A I *D sky130_fd_sc_hd__clkbuf_2
*I *2071:A I *D sky130_fd_sc_hd__buf_4
*I *2101:X O *D sky130_fd_sc_hd__buf_1
*CAP
1 *2072:A 0.00423729
2 *2071:A 0.000109931
3 *2101:X 0.00052049
4 *499:8 0.00486771
5 *2072:A *529:63 0.000105158
6 *2072:A *535:22 2.11419e-05
7 *2072:A *536:14 0
8 *2072:A *539:16 0.000140361
9 *2072:A *539:18 0.000234463
10 *1765:C *2071:A 5.52238e-05
11 *1768:A0 *2072:A 0.000248493
12 *1769:B *2072:A 6.09572e-05
13 *1775:C *2072:A 0.00015234
14 *1800:A *2071:A 5.52238e-05
15 *2051:A *2072:A 7.57607e-05
16 *2073:A *499:8 2.89016e-05
17 *2074:A *2072:A 0.00548886
18 *117:27 *2072:A 2.04825e-05
19 *135:18 *2071:A 3.0285e-05
20 *135:18 *2072:A 0
21 *144:12 *2072:A 0.000175526
22 *145:16 *499:8 3.69047e-06
23 *149:10 *2072:A 0
24 *440:28 *2072:A 0.000162359
25 *492:20 *2072:A 6.27272e-06
*RES
1 *2101:X *499:8 19.675 
2 *499:8 *2071:A 15.9786 
3 *499:8 *2072:A 41.0293 
*END

*D_NET *500 0.0060304
*CONN
*I *1831:D I *D sky130_fd_sc_hd__and4bb_2
*I *1813:B I *D sky130_fd_sc_hd__and4b_2
*I *1814:B I *D sky130_fd_sc_hd__nand2_2
*I *1816:D_N I *D sky130_fd_sc_hd__or4b_4
*I *1594:B I *D sky130_fd_sc_hd__nor2_1
*I *1822:A_N I *D sky130_fd_sc_hd__and4b_2
*I *1824:A_N I *D sky130_fd_sc_hd__and4bb_2
*I *2102:X O *D sky130_fd_sc_hd__dlymetal6s2s_1
*CAP
1 *1831:D 0
2 *1813:B 0.000145072
3 *1814:B 0
4 *1816:D_N 8.73782e-05
5 *1594:B 0.000148656
6 *1822:A_N 0
7 *1824:A_N 0.000155422
8 *2102:X 0.000310017
9 *500:48 0.000303003
10 *500:46 0.000159758
11 *500:35 0.000444632
12 *500:25 0.000324398
13 *500:10 0.000583065
14 *1594:B *1586:A 1.65758e-05
15 *1594:B *511:51 4.53124e-05
16 *1813:B *530:19 1.7606e-05
17 *1816:D_N *1816:C 6.87574e-05
18 *1816:D_N *2114:A 3.18676e-05
19 *1816:D_N *511:66 9.90367e-05
20 *1824:A_N *524:78 5.52238e-05
21 *500:10 *2113:A 0.000171368
22 *500:25 *2114:A 3.8274e-05
23 *500:35 *1831:B_N 0.000108284
24 *500:48 *1816:C 8.43535e-06
25 op_out[1] *1816:D_N 2.95726e-05
26 *1594:A *1594:B 5.52302e-05
27 *1812:A2 *500:35 5.33005e-05
28 *1812:B1 *1813:B 4.58194e-05
29 *1812:B1 *500:35 3.8556e-05
30 *1812:D1 *1594:B 5.48376e-05
31 *1812:D1 *500:35 5.62995e-05
32 *1812:D1 *500:46 2.03917e-05
33 *1814:A *1816:D_N 0
34 *1815:A *1813:B 5.52302e-05
35 *1816:A *500:10 0
36 *1831:A_N *500:25 0.000181803
37 *1845:A *1824:A_N 0.000115072
38 *1845:A *500:10 1.52978e-05
39 *1845:A *500:25 9.71197e-05
40 *2091:A *1594:B 7.28437e-05
41 *189:10 *500:46 8.79825e-05
42 *189:14 *1813:B 0.000192776
43 *189:14 *500:46 8.08022e-05
44 *191:8 *500:10 0
45 *191:72 *1813:B 4.13496e-05
46 *191:72 *500:25 3.80079e-05
47 *191:72 *500:35 0.00049612
48 *192:24 *500:46 0.00014559
49 *192:24 *500:48 2.59355e-05
50 *205:14 *500:25 0.000222666
51 *205:14 *500:35 1.5424e-05
52 *230:19 *1813:B 0.000171375
53 *315:8 *1594:B 9.22948e-05
54 *315:23 *500:48 5.03772e-05
55 *326:18 *500:10 9.90367e-05
56 *489:21 *1594:B 0
57 *489:35 *1813:B 5.71472e-05
*RES
1 *2102:X *500:10 19.425 
2 *500:10 *1824:A_N 17.1929 
3 *500:10 *500:25 8.32143 
4 *500:25 *500:35 6.46429 
5 *500:35 *1822:A_N 9.3 
6 *500:35 *500:46 11.5536 
7 *500:46 *500:48 1.35714 
8 *500:48 *1594:B 21.6929 
9 *500:48 *1816:D_N 11.9071 
10 *500:46 *1814:B 9.3 
11 *500:35 *1813:B 22.6393 
12 *500:25 *1831:D 9.3 
*END

*D_NET *501 0.0119539
*CONN
*I *2069:A I *D sky130_fd_sc_hd__buf_6
*I *2070:A I *D sky130_fd_sc_hd__clkbuf_2
*I *2103:X O *D sky130_fd_sc_hd__buf_1
*CAP
1 *2069:A 0.000792634
2 *2070:A 0.00230118
3 *2103:X 0.000140606
4 *501:8 0.00323442
5 *2069:A *1841:A 0.000643754
6 *2069:A *534:139 0.000100368
7 *2070:A *1824:B_N 0
8 *2070:A *1841:A 4.43081e-05
9 *2070:A *2118:A 1.80461e-05
10 *2070:A *530:43 0
11 *2070:A *534:139 0.00405225
12 *501:8 *1841:A 2.09413e-05
13 *1806:A2 *2069:A 0.000107774
14 *1806:B1 *2069:A 8.49125e-05
15 *1827:B *2069:A 0.000212642
16 *1844:A1 *501:8 0
17 *1868:A2 *2070:A 1.88175e-05
18 *1868:A2 *501:8 1.38247e-05
19 *136:18 *2069:A 1.58163e-05
20 *192:24 *2070:A 7.64611e-05
21 *215:10 *2069:A 5.52302e-05
22 *326:18 *2069:A 1.98839e-05
*RES
1 *2103:X *501:8 16.05 
2 *501:8 *2070:A 28.3137 
3 *501:8 *2069:A 30.4071 
*END

*D_NET *502 0.0011585
*CONN
*I *2113:A I *D sky130_fd_sc_hd__buf_8
*I *1827:X O *D sky130_fd_sc_hd__or3_4
*CAP
1 *2113:A 0.00027863
2 *1827:X 0.00027863
3 *2113:A *511:70 0
4 op_out[0] *2113:A 0.000176285
5 op_out[1] *2113:A 0
6 *1827:A *2113:A 7.17136e-05
7 *1827:B *2113:A 0.000105163
8 *1827:C *2113:A 5.52302e-05
9 *2102:A *2113:A 0
10 *326:18 *2113:A 2.14757e-05
11 *491:26 *2113:A 0
12 *500:10 *2113:A 0.000171368
*RES
1 *1827:X *2113:A 34.5107 
*END

*D_NET *503 0.0016598
*CONN
*I *2114:A I *D sky130_fd_sc_hd__buf_2
*I *1845:X O *D sky130_fd_sc_hd__or2_1
*CAP
1 *2114:A 0.000359382
2 *1845:X 0.000359382
3 *2114:A *1824:C 9.25014e-06
4 *2114:A *511:66 2.05873e-05
5 *2114:A *511:70 8.57438e-05
6 op_out[1] *2114:A 0.000139907
7 *1816:A *2114:A 9.49939e-05
8 *1816:D_N *2114:A 3.18676e-05
9 *1827:A *2114:A 0.000135028
10 *1827:C *2114:A 9.41642e-05
11 *1845:A *2114:A 5.52238e-05
12 *205:14 *2114:A 0.000139913
13 *491:26 *2114:A 9.60875e-05
14 *500:25 *2114:A 3.8274e-05
*RES
1 *1845:X *2114:A 34.9571 
*END

*D_NET *504 0.000471055
*CONN
*I *2115:A I *D sky130_fd_sc_hd__buf_2
*I *1868:X O *D sky130_fd_sc_hd__a21o_1
*CAP
1 *2115:A 0.000158743
2 *1868:X 0.000158743
3 *2115:A *2117:A 5.26091e-05
4 *1827:B *2115:A 0.00010096
5 *2093:A *2115:A 0
*RES
1 *1868:X *2115:A 30.4929 
*END

*D_NET *505 0.000701002
*CONN
*I *2116:A I *D sky130_fd_sc_hd__buf_2
*I *1897:Y O *D sky130_fd_sc_hd__nand2b_1
*CAP
1 *2116:A 0.000162877
2 *1897:Y 0.000162877
3 *2116:A *2117:A 0
4 *1827:B *2116:A 0.000186662
5 *2102:A *2116:A 0
6 *326:18 *2116:A 0.000188586
*RES
1 *1897:Y *2116:A 31.6179 
*END

*D_NET *506 0.00237975
*CONN
*I *2117:A I *D sky130_fd_sc_hd__buf_4
*I *1925:Y O *D sky130_fd_sc_hd__o31ai_1
*CAP
1 *2117:A 0.000612403
2 *1925:Y 0.000612403
3 *1850:A *2117:A 4.92005e-05
4 *1874:B *2117:A 0.00012401
5 *1875:B1 *2117:A 7.15783e-05
6 *1897:B *2117:A 0.000121291
7 *1925:A1 *2117:A 0
8 *2115:A *2117:A 5.26091e-05
9 *2116:A *2117:A 0
10 *248:12 *2117:A 0
11 *274:20 *2117:A 0.000716966
12 *491:26 *2117:A 1.92905e-05
*RES
1 *1925:Y *2117:A 42.225 
*END

*D_NET *507 0.00355905
*CONN
*I *2118:A I *D sky130_fd_sc_hd__clkbuf_4
*I *1969:X O *D sky130_fd_sc_hd__or3_1
*CAP
1 *2118:A 0.0011172
2 *1969:X 0.0011172
3 *2118:A *1919:A2 1.90936e-05
4 *2118:A *2049:A1 0.000522941
5 *2118:A *535:22 0
6 *2118:A *537:52 7.83659e-05
7 *2118:A *553:10 0.000148189
8 *2118:A *553:16 0.000259913
9 *1956:A1 *2118:A 4.038e-06
10 *1956:B1 *2118:A 0
11 *1969:B *2118:A 9.60939e-05
12 *1971:B *2118:A 0
13 *2009:B2 *2118:A 0.000109182
14 *2016:B *2118:A 0
15 *2070:A *2118:A 1.80461e-05
16 *191:76 *2118:A 0
17 *352:10 *2118:A 0
18 *490:48 *2118:A 6.09903e-05
19 *492:12 *2118:A 0
20 *492:14 *2118:A 0
21 *497:56 *2118:A 7.79781e-06
*RES
1 *1969:X *2118:A 49.9214 
*END

*D_NET *508 0.00062966
*CONN
*I *2119:A I *D sky130_fd_sc_hd__clkbuf_4
*I *2012:X O *D sky130_fd_sc_hd__a31o_1
*CAP
1 *2119:A 0.000238272
2 *2012:X 0.000238272
3 op_out[6] *2119:A 0
4 op_out[7] *2119:A 3.79467e-05
5 *2050:A2 *2119:A 0.000115169
6 *397:20 *2119:A 0
*RES
1 *2012:X *2119:A 31.9036 
*END

*D_NET *509 0.000156796
*CONN
*I *2120:A I *D sky130_fd_sc_hd__buf_2
*I *2050:X O *D sky130_fd_sc_hd__a311o_1
*CAP
1 *2120:A 6.85132e-05
2 *2050:X 6.85132e-05
3 *2050:A3 *2120:A 1.97695e-05
*RES
1 *2050:X *2120:A 19.8679 
*END

*D_NET *510 0.0177872
*CONN
*I *1781:A2 I *D sky130_fd_sc_hd__o211a_1
*I *1787:A2 I *D sky130_fd_sc_hd__o211a_1
*I *1768:S I *D sky130_fd_sc_hd__mux2_1
*I *1844:A2 I *D sky130_fd_sc_hd__a22o_1
*I *1792:S I *D sky130_fd_sc_hd__mux2_2
*I *1772:S I *D sky130_fd_sc_hd__mux2_1
*I *1760:A1 I *D sky130_fd_sc_hd__a31o_1
*I *1756:B I *D sky130_fd_sc_hd__nor2_1
*I *1780:A2 I *D sky130_fd_sc_hd__o211a_1
*I *1761:C I *D sky130_fd_sc_hd__or3_1
*I *2053:X O *D sky130_fd_sc_hd__buf_6
*CAP
1 *1781:A2 0
2 *1787:A2 0.000217686
3 *1768:S 0.000265837
4 *1844:A2 0.00027028
5 *1792:S 0.000149014
6 *1772:S 2.46213e-05
7 *1760:A1 6.04612e-05
8 *1756:B 0.000173461
9 *1780:A2 0
10 *1761:C 0.000253519
11 *2053:X 0.000174026
12 *510:95 0.00106716
13 *510:89 0.00114321
14 *510:85 0.000538042
15 *510:76 0.000615043
16 *510:52 0.000368008
17 *510:50 0.0014216
18 *510:39 0.000969194
19 *510:20 0.000748519
20 *510:12 0.000487776
21 *1756:B *1737:A 3.18676e-05
22 *1756:B *534:27 0
23 *1761:C *512:36 4.16984e-05
24 *1761:C *531:72 0.000199256
25 *1761:C *542:63 0.000139777
26 *1768:S *1774:A 9.90431e-05
27 *1768:S *536:14 0.000482601
28 *1768:S *565:73 7.252e-05
29 *1792:S *1793:B 9.86279e-05
30 *1792:S *526:111 3.34295e-05
31 *510:12 *2080:A 0
32 *510:39 *531:70 2.01359e-05
33 *510:39 *531:72 7.05143e-06
34 *510:76 *539:22 0.000782205
35 *510:76 *565:12 0
36 *510:76 *565:73 0
37 *510:89 *531:25 0
38 *510:89 *565:73 0.000221102
39 *1733:A *510:12 3.18676e-05
40 *1733:A *510:39 0
41 *1733:A *510:50 0
42 *1733:B *510:20 2.66513e-05
43 *1737:B *1756:B 5.52238e-05
44 *1751:A *510:52 0
45 *1751:B *510:52 0
46 *1751:B *510:76 0
47 *1760:B1 *1756:B 0.000170523
48 *1761:A *1761:C 9.71197e-05
49 *1771:A *1772:S 9.60875e-05
50 *1771:A *510:76 0
51 *1771:A *510:85 0.000259934
52 *1777:B *510:12 0.000186522
53 *1777:B *510:20 2.06178e-05
54 *1778:B2 *510:39 6.62299e-06
55 *1779:A1 *510:50 0
56 *1780:A1 *1761:C 0.000112935
57 *1780:A1 *510:39 0.000338541
58 *1780:B1 *510:39 3.57366e-05
59 *1780:B1 *510:50 1.21258e-05
60 *1788:B *510:39 3.25078e-05
61 *1796:B1 *1792:S 8.34882e-05
62 *1796:B1 *510:95 0.00075137
63 *1798:A1 *510:95 8.71761e-05
64 *1798:C1 *510:95 0.000221641
65 *1799:B2 *510:95 0.000143375
66 *1804:D1 *510:95 0.000360894
67 *1805:D *510:95 0.000492333
68 *1839:A *1844:A2 0
69 *1839:B *1844:A2 0
70 *1840:B *1844:A2 5.03694e-05
71 *1842:A *1844:A2 0.000258564
72 *1844:A1 *1844:A2 1.02504e-05
73 *1844:B2 *1844:A2 0
74 *2053:A *510:39 2.59355e-05
75 *105:10 *510:12 0
76 *117:10 *1756:B 0.000212841
77 *117:23 *1756:B 1.17968e-05
78 *117:23 *510:52 0.000129185
79 *117:23 *510:76 7.6021e-05
80 *118:8 *1760:A1 7.77652e-05
81 *118:12 *1756:B 0
82 *118:12 *510:52 0
83 *126:6 *510:50 0.000110117
84 *126:15 *510:50 0.000520326
85 *126:26 *510:50 0.000226867
86 *130:8 *510:39 6.57032e-05
87 *130:8 *510:50 2.13481e-06
88 *130:14 *510:39 5.66157e-05
89 *178:17 *1844:A2 0.000270943
90 *178:17 *510:95 8.57023e-05
91 *283:93 *1787:A2 0.000104135
92 *497:27 *1772:S 9.60875e-05
93 *497:27 *1787:A2 0.000194888
94 *497:27 *510:85 0.000400867
*RES
1 *2053:X *510:12 17.425 
2 *510:12 *510:20 7.72032 
3 *510:20 *1761:C 20.8089 
4 *510:20 *510:39 9.40179 
5 *510:39 *1780:A2 9.3 
6 *510:39 *510:50 15.2143 
7 *510:50 *510:52 3.16071 
8 *510:52 *1756:B 19.6214 
9 *510:52 *1760:A1 15.1571 
10 *510:50 *510:76 16.1607 
11 *510:76 *1772:S 10.2464 
12 *510:76 *510:85 3.82143 
13 *510:85 *510:89 9.78571 
14 *510:89 *510:95 26.375 
15 *510:95 *1792:S 16.9607 
16 *510:95 *1844:A2 20.9071 
17 *510:89 *1768:S 20.3893 
18 *510:85 *1787:A2 13.9964 
19 *510:12 *1781:A2 13.8 
*END

*D_NET *511 0.00917254
*CONN
*I *1595:C I *D sky130_fd_sc_hd__and3b_2
*I *1816:B I *D sky130_fd_sc_hd__or4b_4
*I *1831:C I *D sky130_fd_sc_hd__and4bb_2
*I *1824:C I *D sky130_fd_sc_hd__and4bb_2
*I *1586:A I *D sky130_fd_sc_hd__inv_2
*I *1817:A I *D sky130_fd_sc_hd__or4b_4
*I *1821:A I *D sky130_fd_sc_hd__nor3_4
*I *1815:B I *D sky130_fd_sc_hd__or3b_4
*I *2104:X O *D sky130_fd_sc_hd__buf_2
*CAP
1 *1595:C 0
2 *1816:B 0
3 *1831:C 0
4 *1824:C 0.000170885
5 *1586:A 0.000304924
6 *1817:A 0.000130486
7 *1821:A 0
8 *1815:B 0.000185237
9 *2104:X 0.000249096
10 *511:70 0.000259908
11 *511:66 0.000184473
12 *511:51 0.00110563
13 *511:45 0.00102028
14 *511:12 0.000317413
15 *511:10 0.000328304
16 *511:8 0.000629761
17 *1586:A *530:66 0.000212206
18 *1817:A *532:14 0.000313241
19 *511:8 *522:10 9.60939e-05
20 *511:10 *522:10 0
21 *511:12 *1821:B 0
22 *511:12 *522:10 0
23 *511:45 *522:10 0
24 *511:66 *1816:C 0.000269428
25 op_out[1] *1586:A 0
26 op_out[1] *511:51 0
27 op_out[5] *511:8 1.03968e-05
28 op_out[5] *511:45 4.46186e-06
29 *1594:A *511:51 0.000320024
30 *1594:B *1586:A 1.65758e-05
31 *1594:B *511:51 4.53124e-05
32 *1812:A2 *1586:A 0.000187305
33 *1812:D1 *1586:A 0
34 *1816:A *1824:C 3.25078e-05
35 *1816:A *511:70 1.85914e-05
36 *1816:D_N *511:66 9.90367e-05
37 *1827:C *1824:C 0.000266743
38 *1827:C *511:66 2.59355e-05
39 *1827:C *511:70 0.00011765
40 *2089:A *1586:A 1.21258e-05
41 *2089:A *1815:B 0.000271345
42 *2091:A *511:51 9.72012e-05
43 *2094:A *511:45 5.52302e-05
44 *2104:A *511:8 9.77274e-05
45 *2105:A *511:45 0.000158231
46 *2105:A *511:51 0.000429612
47 *2113:A *511:70 0
48 *2114:A *1824:C 9.25014e-06
49 *2114:A *511:66 2.05873e-05
50 *2114:A *511:70 8.57438e-05
51 *192:24 *1824:C 4.35306e-05
52 *196:8 *1815:B 6.95299e-05
53 *196:8 *511:12 2.00751e-05
54 *199:18 *1824:C 6.05161e-06
55 *205:14 *1586:A 2.16719e-05
56 *230:6 *1586:A 5.33005e-05
57 *326:18 *511:51 1.00073e-05
58 *489:21 *511:51 1.21289e-05
59 *489:41 *1586:A 9.60939e-05
60 *489:41 *1824:C 5.33433e-05
61 *489:45 *1824:C 0.000100969
62 *491:26 *1586:A 2.53429e-05
63 *491:26 *511:66 4.58194e-05
64 *491:26 *511:70 3.78555e-05
65 *492:12 *511:10 0.000120624
66 *492:12 *511:12 1.01487e-05
67 *492:12 *511:45 0.000100831
68 *492:14 *1815:B 0.000103285
69 *492:14 *511:12 8.2971e-05
*RES
1 *2104:X *511:8 17.2107 
2 *511:8 *511:10 1.64286 
3 *511:10 *511:12 2.55357 
4 *511:12 *1815:B 18.9429 
5 *511:12 *1821:A 13.8 
6 *511:10 *1817:A 16.8 
7 *511:8 *511:45 9.51339 
8 *511:45 *511:51 15.7366 
9 *511:51 *1586:A 20.3357 
10 *511:51 *511:66 7.5 
11 *511:66 *511:70 6.75 
12 *511:70 *1824:C 18.6214 
13 *511:70 *1831:C 13.8 
14 *511:66 *1816:B 9.3 
15 *511:45 *1595:C 9.3 
*END

*D_NET *512 0.00580718
*CONN
*I *1867:A2 I *D sky130_fd_sc_hd__a211o_1
*I *1728:S I *D sky130_fd_sc_hd__mux2_4
*I *1722:S I *D sky130_fd_sc_hd__mux2_1
*I *1761:B I *D sky130_fd_sc_hd__or3_1
*I *1738:A2 I *D sky130_fd_sc_hd__o21ai_1
*I *2111:X O *D sky130_fd_sc_hd__buf_6
*CAP
1 *1867:A2 0.000221852
2 *1728:S 0
3 *1722:S 2.23854e-05
4 *1761:B 0
5 *1738:A2 2.52056e-05
6 *2111:X 0.000307374
7 *512:51 0.000631085
8 *512:36 0.00101101
9 *512:25 0.000722503
10 *512:12 0.000475689
11 *1867:A2 *543:23 0.000476709
12 *1867:A2 *546:121 0
13 *1867:A2 *548:38 0.000175512
14 *512:25 *531:72 4.038e-06
15 *512:25 *534:50 0
16 *512:51 *546:121 0
17 *512:51 *548:18 9.25014e-06
18 *512:51 *548:38 7.56271e-05
19 *1695:A_N *512:12 1.21258e-05
20 *1721:B *512:51 2.14757e-05
21 *1722:A1 *512:36 3.05446e-05
22 *1722:A1 *512:51 3.15101e-05
23 *1728:A1 *512:51 5.52238e-05
24 *1731:B *1867:A2 0
25 *1761:A *512:25 9.97744e-05
26 *1761:A *512:36 2.14658e-05
27 *1761:C *512:36 4.16984e-05
28 *1781:C1 *1867:A2 0.000561392
29 *2111:A *512:12 6.05161e-06
30 *60:8 *512:51 0.00010096
31 *67:32 *512:12 0.000179053
32 *67:32 *512:25 4.46186e-06
33 *97:10 *512:36 0.000270326
34 *136:14 *512:25 3.17148e-05
35 *136:14 *512:36 5.33005e-05
36 *243:14 *1867:A2 2.95726e-05
37 *471:49 *1738:A2 5.52302e-05
38 *471:71 *512:12 3.19941e-05
39 *471:71 *512:25 1.10632e-05
*RES
1 *2111:X *512:12 19.55 
2 *512:12 *1738:A2 14.3357 
3 *512:12 *512:25 7.66071 
4 *512:25 *1761:B 9.3 
5 *512:25 *512:36 9.30357 
6 *512:36 *1722:S 9.72857 
7 *512:36 *512:51 11.9286 
8 *512:51 *1728:S 13.8 
9 *512:51 *1867:A2 21.5143 
*END

*D_NET *513 0.00177444
*CONN
*I *1677:A2 I *D sky130_fd_sc_hd__a21o_1
*I *1692:A2 I *D sky130_fd_sc_hd__a21o_1
*I *1688:A2 I *D sky130_fd_sc_hd__a21oi_1
*I *2112:X O *D sky130_fd_sc_hd__buf_1
*CAP
1 *1677:A2 0
2 *1692:A2 0.000148797
3 *1688:A2 0.000130605
4 *2112:X 0
5 *513:23 0.000227498
6 *513:4 0.000209307
7 *1688:A2 *1688:A1 9.41642e-05
8 *1688:A2 *2123:A 5.52238e-05
9 *1688:A2 *539:85 1.40034e-05
10 *1688:A2 *539:104 0.000114276
11 *1692:A2 *1692:A1 0.000217992
12 *513:23 *1677:A1 6.05161e-06
13 *513:23 *1692:A1 2.49484e-05
14 *513:23 *539:85 6.42242e-05
15 *513:23 *556:21 3.92757e-05
16 *1692:B1 *1692:A2 0.000138777
17 *43:12 *1692:A2 0.000180777
18 *43:12 *513:23 5.52238e-05
19 *49:8 *1692:A2 5.33005e-05
*RES
1 *2112:X *513:4 9.3 
2 *513:4 *1688:A2 12.3357 
3 *513:4 *513:23 11.1786 
4 *513:23 *1692:A2 13.5321 
5 *513:23 *1677:A2 9.3 
*END

*D_NET *514 0.00162886
*CONN
*I *2048:B1 I *D sky130_fd_sc_hd__a32o_1
*I *2131:X O *D sky130_fd_sc_hd__clkbuf_1
*CAP
1 *2048:B1 0.00063022
2 *2131:X 0.00063022
3 *2048:B1 *1966:B2 7.434e-05
4 *1966:A1 *2048:B1 0
5 *197:46 *2048:B1 0.000294079
*RES
1 *2131:X *2048:B1 26.6625 
*END

*D_NET *515 0.0184203
*CONN
*I *1609:B I *D sky130_fd_sc_hd__and3_1
*I *1611:B1 I *D sky130_fd_sc_hd__a21o_1
*I *1659:C1 I *D sky130_fd_sc_hd__o211a_1
*I *1647:A I *D sky130_fd_sc_hd__xnor2_1
*I *1610:B I *D sky130_fd_sc_hd__nand3_1
*I *1796:A1 I *D sky130_fd_sc_hd__a21o_1
*I *1795:A2 I *D sky130_fd_sc_hd__o211a_1
*I *1794:A I *D sky130_fd_sc_hd__nor2_1
*I *1730:A I *D sky130_fd_sc_hd__and2_1
*I *1680:A I *D sky130_fd_sc_hd__and2_1
*I *2054:X O *D sky130_fd_sc_hd__buf_2
*CAP
1 *1609:B 0.000145545
2 *1611:B1 3.82418e-05
3 *1659:C1 2.5443e-05
4 *1647:A 0.000732362
5 *1610:B 0
6 *1796:A1 0.000380674
7 *1795:A2 0.000414165
8 *1794:A 7.65047e-05
9 *1730:A 0
10 *1680:A 9.72221e-05
11 *2054:X 0
12 *515:110 0.000421379
13 *515:88 0.00154254
14 *515:44 0.00049067
15 *515:42 0.00110643
16 *515:33 0.00100309
17 *515:20 0.00131235
18 *515:12 0.000982333
19 *515:10 0.00112992
20 *515:4 0.000538241
21 *1609:B *516:66 5.52302e-05
22 *1647:A *518:10 4.46186e-06
23 *1659:C1 *517:8 5.20669e-05
24 *1795:A2 *1792:A0 4.43256e-05
25 *1795:A2 *526:98 3.4855e-05
26 *1795:A2 *526:100 2.87584e-05
27 *1796:A1 *1793:B 4.03318e-05
28 *515:20 *1610:A 0.000271958
29 *515:20 *1610:C 5.80706e-06
30 *515:20 *552:12 9.30093e-05
31 *515:33 *1645:A 0.000250201
32 *515:33 *546:121 0.000142903
33 *515:42 *1732:B 0
34 *515:42 *1793:B 8.27217e-05
35 *515:42 *546:121 0.000117191
36 *515:88 *1587:A 1.43864e-05
37 *515:88 *1610:A 1.02504e-05
38 *515:88 *1610:C 0
39 *515:88 *2057:A 2.06827e-05
40 *515:88 *518:10 0.000213886
41 *515:88 *518:54 0.000307629
42 *1621:A1 *1611:B1 0
43 *1637:B1 *515:10 0.000279852
44 *1637:B1 *515:88 1.40034e-05
45 *1647:B *1647:A 0.000677066
46 *1650:S *1647:A 6.8646e-06
47 *1660:B1 *1659:C1 5.20669e-05
48 *1679:A *515:33 0.0002253
49 *1683:A *515:20 5.33005e-05
50 *1721:A *515:20 1.40415e-05
51 *1722:A0 *515:33 0
52 *1722:A1 *515:33 7.83587e-05
53 *1776:A *515:42 7.79757e-05
54 *1792:A1 *1795:A2 0.000221634
55 *1794:B *1794:A 5.25248e-05
56 *1794:B *1795:A2 1.3701e-05
57 *1796:A2 *1796:A1 0.000353066
58 *1796:B1 *1796:A1 1.74352e-05
59 *1804:A2 *1796:A1 4.08637e-05
60 *1838:A *1795:A2 0
61 *1839:B *1795:A2 1.33343e-05
62 *1896:A2 *515:10 2.15613e-05
63 *1896:A2 *515:12 3.17684e-05
64 *1924:A2 *515:20 0.000136188
65 *1924:A2 *515:88 0
66 *2084:A *1647:A 0.00011926
67 *2084:A *515:88 0.000441408
68 *2085:A *1647:A 0
69 *53:10 *515:33 3.34366e-05
70 *107:10 *515:42 0.000145301
71 *107:12 *515:42 2.19778e-05
72 *167:25 *1794:A 2.65563e-06
73 *167:25 *1796:A1 7.6644e-05
74 *241:16 *515:88 0.000179538
75 *273:27 *1796:A1 2.04866e-05
76 *273:27 *515:33 1.76135e-05
77 *273:27 *515:42 0.000802638
78 *294:43 *515:88 0.000695769
79 *294:55 *1647:A 0
80 *442:10 *1609:B 3.25078e-05
81 *443:16 *1609:B 0.0001353
82 *443:16 *515:10 4.46231e-06
83 *443:16 *515:110 2.28698e-05
84 *444:8 *1611:B1 0
85 *456:16 *1609:B 0.000198691
86 *464:25 *1647:A 0.000103275
87 *470:12 *515:12 5.33005e-05
88 *470:12 *515:88 0.000311028
89 *475:10 *515:88 3.0285e-05
90 *475:12 *1647:A 5.9483e-05
91 *475:12 *515:88 7.79781e-06
92 *475:51 *515:88 2.66026e-05
93 *475:68 *515:88 5.60152e-05
94 *475:81 *515:88 0
95 *475:83 *515:88 0
96 *494:14 *1647:A 0.000213232
*RES
1 *2054:X *515:4 9.3 
2 *515:4 *515:10 4.375 
3 *515:10 *515:12 0.946429 
4 *515:12 *515:20 25.1964 
5 *515:20 *1680:A 10.675 
6 *515:20 *515:33 12.2143 
7 *515:33 *1730:A 13.8 
8 *515:33 *515:42 19.8571 
9 *515:42 *515:44 4.5 
10 *515:44 *1794:A 10.6571 
11 *515:44 *1795:A2 15.6571 
12 *515:42 *1796:A1 19.675 
13 *515:12 *1610:B 9.3 
14 *515:10 *515:88 26.6071 
15 *515:88 *1647:A 30.3357 
16 *515:88 *1659:C1 14.7464 
17 *515:4 *515:110 2.58929 
18 *515:110 *1611:B1 10.0321 
19 *515:110 *1609:B 21.925 
*END

*D_NET *516 0.0138174
*CONN
*I *1803:A I *D sky130_fd_sc_hd__nor2_1
*I *1790:A I *D sky130_fd_sc_hd__nand2_1
*I *1684:A I *D sky130_fd_sc_hd__nor2_1
*I *1599:A1 I *D sky130_fd_sc_hd__o41ai_4
*I *1608:C1 I *D sky130_fd_sc_hd__a211o_1
*I *1616:A I *D sky130_fd_sc_hd__or2_1
*I *1613:A I *D sky130_fd_sc_hd__nor2_1
*I *1663:A I *D sky130_fd_sc_hd__nor2_4
*I *1726:A I *D sky130_fd_sc_hd__nand2_1
*I *1685:A I *D sky130_fd_sc_hd__or2_1
*I *2055:X O *D sky130_fd_sc_hd__clkbuf_4
*CAP
1 *1803:A 0.000213582
2 *1790:A 0
3 *1684:A 0
4 *1599:A1 0.000119196
5 *1608:C1 0
6 *1616:A 0.000267275
7 *1613:A 0.00013112
8 *1663:A 9.37039e-05
9 *1726:A 3.0906e-05
10 *1685:A 5.19042e-05
11 *2055:X 0.000103802
12 *516:112 0.00105318
13 *516:79 0.000227121
14 *516:66 0.00114697
15 *516:42 0.000313452
16 *516:40 0.000891259
17 *516:38 0.00022484
18 *516:23 0.000325402
19 *516:17 0.000940116
20 *516:6 0.000155707
21 *1599:A1 *1597:B 0.00016384
22 *1599:A1 *1618:A 3.34295e-05
23 *1599:A1 *543:76 0.000189455
24 *1616:A *1616:B 0
25 *1663:A *1682:A 0
26 *1663:A *544:34 0.000175519
27 *1685:A *1685:B 6.05161e-06
28 *1685:A *548:10 5.33005e-05
29 *1803:A *526:111 0.000100492
30 *1803:A *529:80 0.000137983
31 *516:6 *1685:B 2.28598e-05
32 *516:6 *548:10 0.000309273
33 *516:23 *1685:B 0.000143804
34 *516:23 *523:52 9.25014e-06
35 *516:23 *544:34 1.50087e-05
36 *516:23 *548:18 3.0911e-05
37 *516:38 *523:52 0.000343217
38 *516:38 *544:34 0.000367396
39 *516:38 *548:18 0
40 *516:40 *1682:A 0
41 *516:40 *544:34 5.83304e-05
42 *516:40 *548:18 0
43 *516:42 *1682:A 0
44 *516:42 *544:34 0.000173812
45 *516:66 *523:39 0.00137532
46 *516:79 *1618:A 0.000171813
47 *516:112 *1732:B 0.000133797
48 *516:112 *526:111 5.80706e-06
49 *516:112 *543:125 7.6021e-05
50 *516:112 *544:34 0.000570331
51 *516:112 *548:18 4.98055e-06
52 *516:112 *548:38 0.000206001
53 *516:112 *548:53 0.000158426
54 *1608:B1 *1599:A1 0.000187733
55 *1608:B1 *516:79 1.02504e-05
56 *1609:B *516:66 5.52302e-05
57 *1618:B *516:79 8.18706e-05
58 *1620:B1 *1616:A 9.69119e-06
59 *1621:A1 *1616:A 2.95726e-05
60 *1689:A1 *1663:A 0
61 *1727:B *516:23 0.000128154
62 *1728:A1 *516:112 0.000148189
63 *1783:A *516:112 0
64 *1791:A *1803:A 4.1331e-06
65 *1791:A *516:112 4.60833e-05
66 *1792:A1 *1803:A 0.000175512
67 *1795:B1 *1803:A 0
68 *1796:B1 *1803:A 0.000287639
69 *1839:B *1803:A 3.64727e-05
70 *1847:B *516:112 0.000148189
71 *1896:A2 *1613:A 0.000137437
72 *2055:A *516:6 4.87854e-05
73 *45:56 *1663:A 0
74 *51:8 *1663:A 0
75 *60:8 *1685:A 0
76 *219:40 *516:112 0.000146163
77 *391:16 *1599:A1 0.000195555
78 *442:10 *516:66 5.52302e-05
79 *444:21 *1616:A 8.50152e-05
80 *446:10 *1613:A 2.89114e-05
81 *449:6 *1616:A 5.04705e-05
82 *449:23 *1616:A 9.11365e-06
83 *451:10 *1616:A 5.03787e-05
84 *451:10 *516:66 5.52302e-05
85 *454:10 *1616:A 3.5707e-05
86 *454:10 *516:79 1.30731e-05
87 *456:16 *516:66 0.000177815
88 *474:14 *516:79 0
89 *497:29 *516:112 5.38209e-05
*RES
1 *2055:X *516:6 12.3 
2 *516:6 *1685:A 10.2643 
3 *516:6 *516:17 4.5 
4 *516:17 *516:23 7.58929 
5 *516:23 *1726:A 9.83571 
6 *516:23 *516:38 10.5536 
7 *516:38 *516:40 0.732143 
8 *516:40 *516:42 2.25 
9 *516:42 *1663:A 16.05 
10 *516:42 *1613:A 16.3893 
11 *516:40 *516:66 24.7321 
12 *516:66 *1616:A 18.9429 
13 *516:66 *516:79 2.85714 
14 *516:79 *1608:C1 13.8 
15 *516:79 *1599:A1 18.7821 
16 *516:38 *1684:A 13.8 
17 *516:17 *516:112 30.5536 
18 *516:112 *1790:A 13.8 
19 *516:112 *1803:A 20.1393 
*END

*D_NET *517 0.0103411
*CONN
*I *1659:A1 I *D sky130_fd_sc_hd__o211a_1
*I *1613:B I *D sky130_fd_sc_hd__nor2_1
*I *1588:A I *D sky130_fd_sc_hd__inv_2
*I *1907:A I *D sky130_fd_sc_hd__and3_1
*I *1653:B I *D sky130_fd_sc_hd__nand2_1
*I *1612:B I *D sky130_fd_sc_hd__or2_1
*I *1935:A1 I *D sky130_fd_sc_hd__a21oi_1
*I *1934:A I *D sky130_fd_sc_hd__and3_1
*I *2025:A1 I *D sky130_fd_sc_hd__a22o_1
*I *1658:A1 I *D sky130_fd_sc_hd__o21ai_1
*I *2056:X O *D sky130_fd_sc_hd__buf_2
*CAP
1 *1659:A1 0
2 *1613:B 0.000480838
3 *1588:A 0
4 *1907:A 3.42096e-05
5 *1653:B 3.89258e-05
6 *1612:B 0
7 *1935:A1 0
8 *1934:A 8.57425e-05
9 *2025:A1 0.000264545
10 *1658:A1 1.1624e-05
11 *2056:X 9.71444e-05
12 *517:78 3.89258e-05
13 *517:62 0.000311922
14 *517:58 0.000429335
15 *517:54 0.000443554
16 *517:33 0.00150773
17 *517:29 0.00108881
18 *517:25 0.000603701
19 *517:14 0.000269649
20 *517:8 0.000284128
21 *1653:B *1653:A 5.52302e-05
22 *1653:B *1879:B 3.57366e-05
23 *1653:B *549:107 0.000142856
24 *2025:A1 *1640:A1 0.000233532
25 *2025:A1 *554:58 0
26 *2025:A1 *565:62 1.40415e-05
27 *517:33 *1640:A1 0.000601495
28 *517:58 *1907:B 0
29 *517:62 *1934:B 0
30 *517:62 *518:33 2.88424e-05
31 *517:62 *551:89 5.01213e-05
32 *1628:A *517:33 8.46829e-05
33 *1636:B1 *517:33 0.000126572
34 *1640:B1_N *517:33 9.60875e-05
35 *1658:A2 *1658:A1 5.52238e-05
36 *1658:B1 *1658:A1 5.52238e-05
37 *1659:A2 *517:8 4.56427e-05
38 *1659:B1 *517:14 3.97273e-05
39 *1659:C1 *517:8 5.20669e-05
40 *1660:B1 *517:8 1.60655e-05
41 *1660:B1 *517:14 0.000137304
42 *1907:C *517:58 2.8266e-06
43 *1908:A1 *517:58 9.24299e-05
44 *1908:A2 *1653:B 1.32552e-05
45 *1908:A2 *517:58 6.74911e-05
46 *1908:B1 *517:58 0
47 *1924:A2 *1613:B 0.000213293
48 *1934:C *1934:A 4.18895e-05
49 *2026:B *1613:B 0.000144512
50 *2026:B *517:25 5.83304e-05
51 *2027:D *2025:A1 0.000128161
52 *241:28 *1613:B 0.000118339
53 *241:28 *517:14 7.2754e-05
54 *241:28 *517:25 8.68665e-05
55 *251:6 *517:29 2.89114e-05
56 *294:55 *517:8 0.000270078
57 *294:55 *517:14 1.74352e-05
58 *446:10 *1613:B 0.00033905
59 *446:10 *517:14 0.000139378
60 *446:10 *517:25 3.87755e-05
61 *448:33 *1934:A 9.20022e-05
62 *460:14 *517:33 5.71472e-05
63 *473:10 *517:33 5.52302e-05
64 *475:83 *1613:B 0.000194556
65 *486:8 *1653:B 2.44318e-05
66 *492:77 *2025:A1 0
67 *492:77 *517:58 8.8194e-05
68 *492:77 *517:62 9.45668e-05
69 *493:23 *1613:B 0
*RES
1 *2056:X *517:8 12.6214 
2 *517:8 *517:14 10.0179 
3 *517:14 *1658:A1 14.3357 
4 *517:14 *517:25 2.25 
5 *517:25 *517:29 5.44643 
6 *517:29 *517:33 19.0357 
7 *517:33 *2025:A1 24.6036 
8 *517:33 *517:54 3 
9 *517:54 *517:58 9.48214 
10 *517:58 *517:62 9.17857 
11 *517:62 *1934:A 11.0857 
12 *517:62 *1935:A1 9.3 
13 *517:58 *517:78 4.5 
14 *517:78 *1612:B 9.3 
15 *517:78 *1653:B 11.0857 
16 *517:54 *1907:A 9.83571 
17 *517:29 *1588:A 9.3 
18 *517:25 *1613:B 28.4964 
19 *517:8 *1659:A1 9.3 
*END

*D_NET *518 0.0259681
*CONN
*I *1955:A1 I *D sky130_fd_sc_hd__a21o_1
*I *1919:A1 I *D sky130_fd_sc_hd__a21oi_1
*I *1920:A1 I *D sky130_fd_sc_hd__o22a_1
*I *1967:A1 I *D sky130_fd_sc_hd__a221o_1
*I *1895:A1 I *D sky130_fd_sc_hd__a221o_1
*I *1809:B I *D sky130_fd_sc_hd__or4_1
*I *1900:A I *D sky130_fd_sc_hd__xnor2_1
*I *1922:A1 I *D sky130_fd_sc_hd__a32o_1
*I *1986:A I *D sky130_fd_sc_hd__nand2_1
*I *2056:A I *D sky130_fd_sc_hd__buf_2
*I *2057:X O *D sky130_fd_sc_hd__clkbuf_4
*CAP
1 *1955:A1 0.000117557
2 *1919:A1 0
3 *1920:A1 9.16956e-05
4 *1967:A1 0
5 *1895:A1 0.000408037
6 *1809:B 3.82418e-05
7 *1900:A 0
8 *1922:A1 0
9 *1986:A 7.65657e-05
10 *2056:A 0
11 *2057:X 0
12 *518:124 0.000133149
13 *518:109 0.00056567
14 *518:105 0.00125355
15 *518:82 0.00156837
16 *518:74 0.000554495
17 *518:67 0.000410407
18 *518:54 0.00173972
19 *518:33 0.0016464
20 *518:10 0.00182932
21 *518:6 0.00163298
22 *1895:A1 *1921:A 0
23 *518:33 *1934:B 4.46186e-06
24 *518:33 *546:44 0
25 *518:33 *551:37 0.000604172
26 *518:33 *551:41 5.94737e-05
27 *518:33 *551:74 0.000128496
28 *518:54 *1590:A 5.52302e-05
29 *518:54 *1894:A2 4.19624e-06
30 *518:54 *519:58 1.87955e-05
31 *518:54 *519:88 0.000221118
32 *518:54 *520:18 7.70385e-05
33 *518:54 *520:29 0.000137843
34 *518:54 *534:118 0
35 *518:54 *543:42 2.55743e-05
36 *518:54 *547:12 0.000142327
37 *518:54 *550:32 2.05757e-05
38 *518:54 *552:46 0
39 *518:67 *1872:A 0.000354055
40 *518:67 *519:105 0
41 *518:67 *520:29 3.27359e-05
42 *518:74 *1810:C 8.87196e-05
43 *518:74 *1872:A 4.18895e-05
44 *518:82 *1810:C 0.000476545
45 *518:82 *1810:D 2.89114e-05
46 *518:82 *529:51 0.000137515
47 *518:105 *1899:A 0.00105788
48 *518:105 *1919:A2 0.000266512
49 *518:105 *526:92 0.00037154
50 *518:105 *537:52 4.11173e-05
51 *1604:A1 *518:54 5.52238e-05
52 *1604:A2 *518:54 0.000125724
53 *1630:C *518:33 7.6644e-05
54 *1637:A1 *518:54 0.000222163
55 *1640:A2 *518:54 0.000750422
56 *1647:A *518:10 4.46186e-06
57 *1657:A2 *518:10 0
58 *1657:C1 *518:33 0.000312215
59 *1659:A2 *518:33 0
60 *1660:B1 *518:33 9.90431e-05
61 *1809:C *518:82 5.52238e-05
62 *1809:C *518:105 0.00038843
63 *1811:A *518:82 2.89114e-05
64 *1837:B *518:105 0
65 *1891:B1 *1895:A1 0
66 *1894:B1 *518:54 1.87573e-05
67 *1895:A2 *1895:A1 0.000597623
68 *1895:B2 *1895:A1 4.1331e-06
69 *1896:A2 *518:54 0.000507042
70 *1896:B1 *518:54 0
71 *1896:C1 *518:54 5.7903e-06
72 *1899:B *518:82 9.7659e-05
73 *1900:B *1955:A1 2.61296e-05
74 *1900:B *518:74 5.71472e-05
75 *1920:B2 *1920:A1 0.000240208
76 *1920:B2 *518:124 2.08465e-05
77 *1922:A2 *518:54 9.54798e-06
78 *1922:A2 *518:67 0.000638171
79 *1923:A2 *1895:A1 0
80 *1923:A3 *1895:A1 0
81 *1925:B1 *518:67 0
82 *1955:A2 *1955:A1 0.000291993
83 *1955:B1 *1955:A1 6.39901e-05
84 *1967:A2 *1920:A1 2.51721e-05
85 *1967:A2 *518:109 0.000100625
86 *1967:A2 *518:124 1.96517e-05
87 *1967:B1 *1895:A1 2.79092e-05
88 *1967:B2 *1920:A1 7.96398e-05
89 *1990:B *518:33 0
90 *1991:B *518:33 6.5185e-05
91 *2054:A *518:54 1.52978e-05
92 *2075:A *1955:A1 0.000220455
93 *2084:A *518:54 0.000165869
94 *191:14 *518:82 2.31881e-05
95 *191:22 *518:67 3.67257e-05
96 *191:22 *518:74 6.62783e-05
97 *191:22 *518:82 3.90148e-05
98 *197:40 *518:105 0.000523897
99 *197:67 *518:54 6.68993e-05
100 *199:51 *518:105 0
101 *211:16 *518:105 0.000159286
102 *273:8 *518:54 9.71197e-05
103 *273:25 *518:54 0.000186631
104 *294:43 *518:54 0.000712719
105 *294:55 *518:33 8.03068e-05
106 *294:55 *518:54 0
107 *314:8 *518:33 2.89016e-05
108 *370:8 *1986:A 0.000185643
109 *375:12 *518:33 0.00014983
110 *423:10 *518:54 5.52302e-05
111 *434:29 *518:54 1.24469e-05
112 *448:14 *518:33 0.000487473
113 *448:33 *518:33 0.000216829
114 *453:14 *518:33 0.000307343
115 *464:14 *518:33 2.28499e-05
116 *473:10 *518:10 0
117 *473:10 *518:54 0
118 *473:12 *518:10 0
119 *492:77 *518:33 0
120 *497:56 *1895:A1 3.57163e-05
121 *497:56 *518:105 4.32258e-05
122 *515:88 *518:10 0.000213886
123 *515:88 *518:54 0.000307629
124 *517:62 *518:33 2.88424e-05
*RES
1 *2057:X *518:6 13.8 
2 *518:6 *518:10 9.78571 
3 *518:10 *2056:A 9.3 
4 *518:10 *518:33 48.6607 
5 *518:33 *1986:A 11.0679 
6 *518:6 *518:54 48.0179 
7 *518:54 *1922:A1 13.8 
8 *518:54 *518:67 15.5893 
9 *518:67 *1900:A 9.3 
10 *518:67 *518:74 2.17857 
11 *518:74 *518:82 10.0357 
12 *518:82 *1809:B 10.0321 
13 *518:82 *518:105 27.4053 
14 *518:105 *518:109 2.19643 
15 *518:109 *1895:A1 27.9607 
16 *518:109 *518:124 0.946429 
17 *518:124 *1967:A1 9.3 
18 *518:124 *1920:A1 12.6393 
19 *518:105 *1919:A1 9.3 
20 *518:74 *1955:A1 22.675 
*END

*D_NET *519 0.0227083
*CONN
*I *1933:A I *D sky130_fd_sc_hd__nand2_1
*I *1982:A1 I *D sky130_fd_sc_hd__a22oi_1
*I *1983:A I *D sky130_fd_sc_hd__and4_1
*I *1810:C I *D sky130_fd_sc_hd__or4_1
*I *1871:A I *D sky130_fd_sc_hd__or2_1
*I *1865:B2 I *D sky130_fd_sc_hd__a32o_1
*I *1587:A I *D sky130_fd_sc_hd__inv_2
*I *1662:B I *D sky130_fd_sc_hd__nor2_1
*I *2025:B2 I *D sky130_fd_sc_hd__a22o_1
*I *1879:A I *D sky130_fd_sc_hd__nand2_1
*I *2058:X O *D sky130_fd_sc_hd__buf_2
*CAP
1 *1933:A 3.82418e-05
2 *1982:A1 0.000415206
3 *1983:A 0.000172348
4 *1810:C 0.000733204
5 *1871:A 0.000204953
6 *1865:B2 1.16062e-05
7 *1587:A 9.95846e-05
8 *1662:B 0.000133143
9 *2025:B2 0.000207002
10 *1879:A 3.72884e-05
11 *2058:X 6.57755e-05
12 *519:125 0.00111833
13 *519:105 0.00134736
14 *519:88 0.00117863
15 *519:62 0.000325624
16 *519:58 0.00178167
17 *519:29 0.0018001
18 *519:25 0.00172907
19 *519:12 0.000781502
20 *519:6 0.000312075
21 *1662:B *1610:C 5.33334e-05
22 *1810:C *1810:D 5.71472e-05
23 *1810:C *1872:A 0.000313241
24 *1810:C *529:51 3.37555e-05
25 *1865:B2 *524:113 5.52302e-05
26 *1871:A *1872:A 1.24368e-05
27 *1933:A *2058:A 0
28 *1982:A1 *1982:B1 0.000331915
29 *1982:A1 *523:16 0.000397924
30 *1982:A1 *537:69 0.000166686
31 *1983:A *1979:A2 8.26195e-05
32 *1983:A *527:34 5.41794e-05
33 *1983:A *527:45 0.000146474
34 *1983:A *535:22 5.74562e-05
35 *2025:B2 *554:58 0.000343203
36 *2025:B2 *565:62 1.58163e-05
37 *519:12 *1907:B 3.17163e-05
38 *519:12 *1932:A2 6.5185e-05
39 *519:12 *1934:B 3.92757e-05
40 *519:25 *1907:B 0.000245124
41 *519:25 *1932:A2 0.000109809
42 *519:25 *1932:A3 0.000131553
43 *519:25 *521:57 0
44 *519:25 *521:79 0
45 *519:25 *525:59 7.6644e-05
46 *519:25 *529:35 5.08788e-05
47 *519:25 *532:24 6.8646e-06
48 *519:29 *544:28 0.000232695
49 *519:58 *544:28 0.000820294
50 *519:58 *554:58 0.000128868
51 *519:62 *1610:C 0.000154345
52 *519:88 *1728:A0 1.6449e-05
53 *519:88 *1894:A2 9.87983e-06
54 *519:88 *552:46 0
55 *519:105 *1894:A2 4.46186e-06
56 *519:125 *523:16 0.000440705
57 *519:125 *544:28 7.45591e-05
58 *1617:A *519:58 0
59 *1619:B *519:88 3.93893e-05
60 *1637:A1 *519:88 0.000219373
61 *1637:A2 *519:88 0.000240131
62 *1668:A *1587:A 0
63 *1865:A3 *1865:B2 5.52302e-05
64 *1865:B1 *519:105 2.07158e-05
65 *1872:B *1871:A 3.17016e-05
66 *1896:A2 *519:88 0.000211952
67 *1896:B1 *519:88 0.000151355
68 *1896:C1 *519:88 6.38844e-06
69 *1907:C *519:25 0
70 *1922:A2 *519:105 0.000211997
71 *1924:A2 *1587:A 7.72708e-05
72 *1925:B1 *519:105 0.000720192
73 *2029:B *519:25 0.000177941
74 *2030:B *519:25 0.000150632
75 *2037:A *519:25 0
76 *2054:A *519:88 0.000158337
77 *38:19 *1662:B 0.000354111
78 *38:19 *519:58 0.000441731
79 *38:19 *519:62 0.000291951
80 *191:22 *1871:A 3.87759e-05
81 *197:63 *519:105 1.70452e-05
82 *197:67 *519:105 4.84049e-05
83 *273:25 *519:88 0.000185446
84 *274:20 *519:88 0.00012401
85 *274:20 *519:105 0.00015402
86 *312:12 *519:6 2.65105e-05
87 *312:12 *519:12 1.72894e-05
88 *423:10 *519:88 4.038e-06
89 *434:29 *519:88 1.94945e-05
90 *454:18 *519:88 3.39147e-05
91 *456:16 *519:58 0.000101545
92 *470:12 *1587:A 0.000196269
93 *471:10 *1587:A 4.85245e-06
94 *474:14 *519:58 0.00010326
95 *490:27 *1983:A 0
96 *515:88 *1587:A 1.43864e-05
97 *518:54 *519:58 1.87955e-05
98 *518:54 *519:88 0.000221118
99 *518:67 *519:105 0
100 *518:74 *1810:C 8.87196e-05
101 *518:82 *1810:C 0.000476545
*RES
1 *2058:X *519:6 10.2464 
2 *519:6 *519:12 7.91071 
3 *519:12 *1879:A 14.3357 
4 *519:12 *519:25 18.5893 
5 *519:25 *519:29 12.8393 
6 *519:29 *2025:B2 18.7107 
7 *519:29 *519:58 33.875 
8 *519:58 *519:62 7.5 
9 *519:62 *1662:B 12.7107 
10 *519:62 *1587:A 21.3357 
11 *519:58 *519:88 19.9107 
12 *519:88 *1865:B2 14.3357 
13 *519:88 *519:105 16.8214 
14 *519:105 *1871:A 11.9071 
15 *519:105 *1810:C 20.0143 
16 *519:25 *519:125 7.10714 
17 *519:125 *1983:A 22.0679 
18 *519:125 *1982:A1 26.4964 
19 *519:6 *1933:A 10.0321 
*END

*D_NET *520 0.0110035
*CONN
*I *1893:A1 I *D sky130_fd_sc_hd__o22a_1
*I *1892:A1 I *D sky130_fd_sc_hd__a21oi_1
*I *1872:A I *D sky130_fd_sc_hd__nand2_1
*I *1922:B2 I *D sky130_fd_sc_hd__a32o_1
*I *1894:A1 I *D sky130_fd_sc_hd__a32o_1
*I *2059:X O *D sky130_fd_sc_hd__dlymetal6s2s_1
*CAP
1 *1893:A1 0.000220436
2 *1892:A1 0.000110647
3 *1872:A 0.000538299
4 *1922:B2 0
5 *1894:A1 0
6 *2059:X 0.000322328
7 *520:53 0.000406301
8 *520:29 0.000699082
9 *520:18 0.00167851
10 *520:8 0.00191527
11 *1872:A *1899:A 0
12 *1872:A *538:12 0
13 *1872:A *542:120 0
14 *1892:A1 *537:69 0.000149641
15 *1893:A1 *526:62 6.85772e-05
16 *520:18 *1830:A1 1.92905e-05
17 *520:18 *1830:A2 0.000224583
18 *520:18 *524:107 0.000807808
19 *520:18 *524:113 0.000143032
20 *520:18 *526:77 4.61647e-05
21 *520:18 *545:29 0.000940962
22 *520:29 *534:118 4.39781e-05
23 *520:53 *537:69 0.000137224
24 *1810:C *1872:A 0.000313241
25 *1830:B2 *520:18 0.000224583
26 *1871:A *1872:A 1.24368e-05
27 *1872:B *1872:A 1.3701e-05
28 *1890:B *1893:A1 0
29 *1892:B1 *1892:A1 5.52302e-05
30 *1893:B1 *1893:A1 0.000482601
31 *1894:B1 *520:18 3.72174e-05
32 *1894:B1 *520:29 5.80706e-06
33 *1895:A2 *1892:A1 9.71118e-06
34 *1895:A2 *1893:A1 1.46576e-05
35 *1895:A2 *520:53 4.71964e-05
36 *1895:B1 *1893:A1 0.000239224
37 *1895:B2 *1892:A1 0
38 *1895:B2 *1893:A1 1.28809e-05
39 *1895:C1 *1893:A1 5.52302e-05
40 *1896:C1 *1892:A1 4.5534e-05
41 *1922:B1 *1872:A 1.38167e-05
42 *1923:A2 *520:8 5.76121e-05
43 *2075:A *1872:A 0
44 *190:27 *520:18 0.000190349
45 *191:22 *1872:A 5.67351e-05
46 *497:52 *1872:A 0
47 *518:54 *520:18 7.70385e-05
48 *518:54 *520:29 0.000137843
49 *518:67 *1872:A 0.000354055
50 *518:67 *520:29 3.27359e-05
51 *518:74 *1872:A 4.18895e-05
*RES
1 *2059:X *520:8 14.7821 
2 *520:8 *520:18 34.1429 
3 *520:18 *1894:A1 13.8 
4 *520:18 *520:29 3.19643 
5 *520:29 *1922:B2 13.8 
6 *520:29 *1872:A 26.7643 
7 *520:8 *520:53 6.44643 
8 *520:53 *1892:A1 16.2821 
9 *520:53 *1893:A1 20.6393 
*END

*D_NET *521 0.011085
*CONN
*I *1928:A1 I *D sky130_fd_sc_hd__a22oi_1
*I *1982:B2 I *D sky130_fd_sc_hd__a22oi_1
*I *1983:B I *D sky130_fd_sc_hd__and4_1
*I *1862:A I *D sky130_fd_sc_hd__nand2_1
*I *1880:A I *D sky130_fd_sc_hd__and3_1
*I *1853:A2 I *D sky130_fd_sc_hd__a21o_1
*I *1855:B I *D sky130_fd_sc_hd__and3_1
*I *2022:A I *D sky130_fd_sc_hd__nand2_1
*I *1932:A3 I *D sky130_fd_sc_hd__a31oi_2
*I *1927:B I *D sky130_fd_sc_hd__and4_1
*I *2060:X O *D sky130_fd_sc_hd__clkbuf_2
*CAP
1 *1928:A1 0
2 *1982:B2 0
3 *1983:B 0
4 *1862:A 0.000139774
5 *1880:A 0
6 *1853:A2 2.63024e-05
7 *1855:B 0.00025377
8 *2022:A 0
9 *1932:A3 0.000248321
10 *1927:B 3.8108e-05
11 *2060:X 0.000422656
12 *521:89 0.000571918
13 *521:83 0.000449567
14 *521:79 0.000626895
15 *521:57 0.000390419
16 *521:51 0.000764891
17 *521:47 0.000648139
18 *521:39 0.000585499
19 *521:31 0.00051165
20 *521:10 0.000741661
21 *1853:A2 *523:39 5.03772e-05
22 *1855:B *1853:A1 0.000266092
23 *1855:B *529:35 7.9463e-05
24 *1855:B *542:141 5.33005e-05
25 *1862:A *1862:B 5.71472e-05
26 *1862:A *1881:A2 6.24995e-05
27 *1927:B *1927:C 5.52302e-05
28 *1927:B *1978:C1 7.69776e-06
29 *1927:B *2061:A 4.65158e-06
30 *1927:B *525:12 9.90431e-05
31 *1927:B *538:49 2.14658e-05
32 *1932:A3 *1909:B 0
33 *1932:A3 *1932:A2 5.52238e-05
34 *1932:A3 *1932:B1 7.79781e-06
35 *521:10 *1978:C1 4.91935e-05
36 *521:10 *2060:A 0.000258915
37 *521:10 *2061:A 9.84204e-06
38 *521:10 *523:16 0.00026353
39 *521:10 *538:45 7.6644e-05
40 *521:31 *1903:B 1.94945e-05
41 *521:31 *1983:D 9.87983e-06
42 *521:31 *525:28 7.36575e-05
43 *521:39 *1982:B1 0.000107816
44 *521:39 *1983:D 5.52302e-05
45 *521:39 *525:28 1.37767e-05
46 *521:39 *525:37 7.48091e-05
47 *521:39 *529:14 0.000268403
48 *521:39 *538:49 2.14658e-05
49 *521:47 *1983:C 0.000202043
50 *521:47 *541:36 0.000114797
51 *521:47 *565:62 2.88018e-06
52 *521:51 *565:62 0.000249325
53 *521:57 *1909:B 0
54 *521:79 *1909:B 0
55 *521:79 *523:16 7.26935e-05
56 *521:79 *532:24 0.000313458
57 *521:83 *1881:A2 9.41642e-05
58 *521:89 *529:35 0.00017461
59 *1853:B1 *1853:A2 9.71197e-05
60 *1881:B1 *1862:A 7.80802e-05
61 *1881:B1 *521:83 1.85024e-05
62 *1907:C *521:89 3.17148e-05
63 *1984:A *521:39 5.31113e-05
64 *2030:B *1932:A3 1.76135e-05
65 *2030:B *521:57 4.69309e-05
66 *2037:A *1932:A3 0
67 *2122:A *1932:A3 0.000150625
68 *38:19 *521:89 5.33005e-05
69 *38:34 *521:83 1.57414e-05
70 *38:34 *521:89 0.000171283
71 *229:10 *1855:B 7.6644e-05
72 *256:12 *1862:A 5.00222e-05
73 *257:12 *1862:A 0.00014285
74 *286:8 *1932:A3 0.00018372
75 *492:77 *1855:B 0
76 *492:77 *521:89 0
77 *519:25 *1932:A3 0.000131553
78 *519:25 *521:57 0
79 *519:25 *521:79 0
*RES
1 *2060:X *521:10 20.3446 
2 *521:10 *1927:B 15.0232 
3 *521:10 *521:31 12.1483 
4 *521:31 *521:39 14.75 
5 *521:39 *521:47 5.51786 
6 *521:47 *521:51 10.7857 
7 *521:51 *521:57 2.91071 
8 *521:57 *1932:A3 20.55 
9 *521:57 *2022:A 13.8 
10 *521:51 *521:79 11.6071 
11 *521:79 *521:83 2.80357 
12 *521:83 *521:89 11.3571 
13 *521:89 *1855:B 18.9429 
14 *521:89 *1853:A2 14.7464 
15 *521:83 *1880:A 9.3 
16 *521:79 *1862:A 13.2821 
17 *521:47 *1983:B 9.3 
18 *521:39 *1982:B2 9.3 
19 *521:31 *1928:A1 9.3 
*END

*D_NET *522 0.00223026
*CONN
*I *2068:A I *D sky130_fd_sc_hd__clkbuf_2
*I *1821:B I *D sky130_fd_sc_hd__nor3_4
*I *2105:X O *D sky130_fd_sc_hd__buf_1
*CAP
1 *2068:A 8.7389e-05
2 *1821:B 9.07536e-05
3 *2105:X 0.000284836
4 *522:10 0.000462978
5 *2068:A *1817:B 7.48301e-06
6 *2068:A *532:14 0.000137983
7 *1817:C *2068:A 3.48705e-05
8 *1817:D_N *2068:A 0.00010096
9 *2104:A *522:10 0.000312215
10 *192:6 *2068:A 0.000354105
11 *192:24 *2068:A 9.90367e-05
12 *196:8 *1821:B 3.40128e-05
13 *315:23 *2068:A 3.48705e-05
14 *326:56 *1821:B 7.18512e-05
15 *326:56 *522:10 2.08223e-05
16 *511:8 *522:10 9.60939e-05
17 *511:10 *522:10 0
18 *511:12 *1821:B 0
19 *511:12 *522:10 0
20 *511:45 *522:10 0
*RES
1 *2105:X *522:10 19.3536 
2 *522:10 *1821:B 15.7464 
3 *522:10 *2068:A 18.0321 
*END

*D_NET *523 0.0125383
*CONN
*I *2060:A I *D sky130_fd_sc_hd__clkbuf_2
*I *1685:B I *D sky130_fd_sc_hd__or2_1
*I *1726:B I *D sky130_fd_sc_hd__nand2_1
*I *1684:B I *D sky130_fd_sc_hd__nor2_1
*I *1881:A1 I *D sky130_fd_sc_hd__a21oi_1
*I *2061:X O *D sky130_fd_sc_hd__dlymetal6s2s_1
*CAP
1 *2060:A 6.52827e-05
2 *1685:B 7.58358e-05
3 *1726:B 0
4 *1684:B 4.96046e-05
5 *1881:A1 3.92359e-05
6 *2061:X 0.000120589
7 *523:52 0.000272279
8 *523:39 0.00211202
9 *523:16 0.00268662
10 *523:10 0.000967279
11 *1685:B *544:34 8.15939e-05
12 *2060:A *2062:A 0.00014183
13 *2060:A *544:18 9.47712e-05
14 *523:10 *1978:C1 0
15 *523:10 *2063:A 0.000146474
16 *523:16 *1862:B 1.65558e-05
17 *523:16 *1909:B 2.19778e-05
18 *523:16 *532:24 0
19 *523:16 *544:18 6.42095e-05
20 *523:16 *544:28 0.00098522
21 *523:39 *1618:A 5.52302e-05
22 *523:39 *1853:A1 1.32552e-05
23 *523:39 *1862:B 0.000104267
24 *523:39 *1878:A 0.000113073
25 *523:39 *532:24 0
26 *523:39 *547:88 4.88637e-05
27 *523:39 *547:96 9.60875e-05
28 *523:39 *552:25 8.65112e-05
29 *523:39 *552:34 8.43535e-06
30 *523:52 *544:34 1.31516e-05
31 *523:52 *548:18 0
32 *1609:C *523:39 3.03221e-06
33 *1623:A2 *523:39 0.000181796
34 *1623:B1 *523:39 2.59355e-05
35 *1623:B2 *523:39 5.33005e-05
36 *1685:A *1685:B 6.05161e-06
37 *1686:A2 *1684:B 3.18676e-05
38 *1853:A2 *523:39 5.03772e-05
39 *1853:B1 *523:39 2.58821e-05
40 *1909:A *523:16 0
41 *1982:A1 *523:16 0.000397924
42 *256:12 *1881:A1 5.52238e-05
43 *287:12 *523:16 0.000125057
44 *323:14 *523:10 0
45 *441:14 *523:39 0.000171283
46 *516:6 *1685:B 2.28598e-05
47 *516:23 *1685:B 0.000143804
48 *516:23 *523:52 9.25014e-06
49 *516:38 *523:52 0.000343217
50 *516:66 *523:39 0.00137532
51 *519:125 *523:16 0.000440705
52 *521:10 *2060:A 0.000258915
53 *521:10 *523:16 0.00026353
54 *521:79 *523:16 7.26935e-05
*RES
1 *2061:X *523:10 20.55 
2 *523:10 *523:16 25.2321 
3 *523:16 *1881:A1 14.3357 
4 *523:16 *523:39 41.4286 
5 *523:39 *1684:B 10.2643 
6 *523:39 *523:52 9.17857 
7 *523:52 *1726:B 13.8 
8 *523:52 *1685:B 16.2821 
9 *523:10 *2060:A 12.3 
*END

*D_NET *524 0.0226717
*CONN
*I *1835:A1 I *D sky130_fd_sc_hd__a22o_1
*I *1894:B2 I *D sky130_fd_sc_hd__a32o_1
*I *1865:A1 I *D sky130_fd_sc_hd__a32o_1
*I *1728:A0 I *D sky130_fd_sc_hd__mux2_4
*I *1810:D I *D sky130_fd_sc_hd__or4_1
*I *1848:A I *D sky130_fd_sc_hd__or2_1
*I *1849:A I *D sky130_fd_sc_hd__nand2_1
*I *1864:A1 I *D sky130_fd_sc_hd__o22a_1
*I *2061:A I *D sky130_fd_sc_hd__dlymetal6s2s_1
*I *2062:X O *D sky130_fd_sc_hd__buf_2
*CAP
1 *1835:A1 0
2 *1894:B2 0
3 *1865:A1 1.86463e-05
4 *1728:A0 0.000415952
5 *1810:D 1.13798e-05
6 *1848:A 0
7 *1849:A 4.0535e-05
8 *1864:A1 3.04135e-05
9 *2061:A 0.000135486
10 *2062:X 0.000103552
11 *524:113 0.000665734
12 *524:107 0.000629946
13 *524:78 0.000887493
14 *524:64 0.00156221
15 *524:56 0.00152382
16 *524:52 0.00114257
17 *524:25 0.00217977
18 *524:6 0.00166697
19 *1728:A0 *543:29 0.000136951
20 *1728:A0 *543:42 0.000254036
21 *1728:A0 *552:10 6.6403e-05
22 *2061:A *2063:A 0.000110825
23 *2061:A *538:45 8.5896e-05
24 *524:6 *544:18 0.000227539
25 *524:25 *535:22 0.000138418
26 *524:25 *537:69 0.000851643
27 *524:25 *540:97 0.000170955
28 *524:25 *544:28 0.00053011
29 *524:52 *537:69 0.000359752
30 *524:52 *540:97 0.000171485
31 *524:56 *538:24 0.000354105
32 *524:64 *538:12 0
33 *524:64 *538:24 0.000175892
34 *524:64 *540:10 9.25014e-06
35 *524:64 *554:75 0
36 *524:78 *529:63 1.60258e-05
37 *524:107 *1597:A 9.41642e-05
38 *524:107 *1597:B 5.52302e-05
39 *524:107 *1865:A2 4.53889e-05
40 *524:107 *554:75 7.22707e-05
41 *524:113 *1865:A2 2.81249e-05
42 *524:113 *1894:A2 0.00014285
43 *1807:C *524:64 1.24469e-05
44 *1808:A *524:64 2.59093e-05
45 *1810:C *1810:D 5.71472e-05
46 *1824:A_N *524:78 5.52238e-05
47 *1835:A2 *524:52 5.33005e-05
48 *1835:A2 *524:56 0.000136602
49 *1845:A *524:78 0.000760234
50 *1848:B *1849:A 5.52238e-05
51 *1848:B *524:78 0
52 *1865:A3 *524:113 8.41288e-05
53 *1865:B2 *524:113 5.52302e-05
54 *1874:A *524:78 5.03772e-05
55 *1874:C *524:78 2.13878e-05
56 *1883:B *524:25 6.32633e-05
57 *1893:B1 *1864:A1 5.33005e-05
58 *1894:B1 *524:113 1.66856e-05
59 *1896:A2 *1728:A0 0.000195562
60 *1896:B1 *524:113 5.52302e-05
61 *1898:A *524:64 0
62 *1898:A *524:78 1.76135e-05
63 *1927:B *2061:A 4.65158e-06
64 *1968:A2 *524:107 0.000146976
65 *1968:B1 *524:52 0.000722521
66 *1968:B1 *524:56 8.43535e-06
67 *2052:A *524:25 2.26424e-05
68 *2052:A *524:52 9.13502e-05
69 *2088:A *524:64 0
70 *2088:A *524:78 0
71 *2131:A *524:64 0.00012501
72 *191:14 *524:78 0.000713269
73 *192:24 *524:78 0.000447615
74 *192:28 *1849:A 3.53079e-05
75 *192:28 *524:78 0.000395873
76 *192:30 *1849:A 2.89016e-05
77 *196:46 *524:52 0.000435845
78 *199:18 *524:78 3.14048e-05
79 *223:10 *1849:A 6.90625e-05
80 *223:10 *524:78 2.14658e-05
81 *234:12 *524:25 4.06875e-05
82 *248:12 *524:78 1.56e-05
83 *273:25 *1728:A0 0.000732668
84 *274:20 *1728:A0 4.75812e-05
85 *274:20 *1865:A1 5.59013e-05
86 *294:43 *1728:A0 7.6644e-05
87 *326:90 *1728:A0 0.00014778
88 *326:90 *1865:A1 2.49484e-05
89 *337:16 *524:64 4.96162e-05
90 *337:60 *524:64 8.15939e-05
91 *348:32 *524:64 0.000211625
92 *518:82 *1810:D 2.89114e-05
93 *519:88 *1728:A0 1.6449e-05
94 *520:18 *524:107 0.000807808
95 *520:18 *524:113 0.000143032
96 *521:10 *2061:A 9.84204e-06
*RES
1 *2062:X *524:6 11.4786 
2 *524:6 *2061:A 21.1571 
3 *524:6 *524:25 33.1429 
4 *524:25 *1864:A1 14.3357 
5 *524:25 *524:52 23.0714 
6 *524:52 *524:56 5.89286 
7 *524:56 *524:64 16.9464 
8 *524:64 *524:78 28.6071 
9 *524:78 *1849:A 10.6571 
10 *524:78 *1848:A 9.3 
11 *524:64 *1810:D 14.3357 
12 *524:56 *524:107 19.2857 
13 *524:107 *524:113 9.57143 
14 *524:113 *1728:A0 26.1214 
15 *524:113 *1865:A1 14.5321 
16 *524:107 *1894:B2 9.3 
17 *524:52 *1835:A1 9.3 
*END

*D_NET *525 0.0154334
*CONN
*I *1927:A I *D sky130_fd_sc_hd__and4_1
*I *1903:B I *D sky130_fd_sc_hd__and4_1
*I *2038:A1 I *D sky130_fd_sc_hd__a31o_1
*I *1981:A I *D sky130_fd_sc_hd__nand2_1
*I *1832:A2 I *D sky130_fd_sc_hd__a22o_1
*I *1878:A I *D sky130_fd_sc_hd__nand2_1
*I *1828:A I *D sky130_fd_sc_hd__and2_1
*I *2024:B I *D sky130_fd_sc_hd__nand4_1
*I *2023:B2 I *D sky130_fd_sc_hd__a22o_1
*I *1928:B2 I *D sky130_fd_sc_hd__a22oi_1
*I *2063:X O *D sky130_fd_sc_hd__buf_2
*CAP
1 *1927:A 0
2 *1903:B 0.000547922
3 *2038:A1 0
4 *1981:A 7.60582e-05
5 *1832:A2 0.00053284
6 *1878:A 0.00029306
7 *1828:A 0
8 *2024:B 0
9 *2023:B2 0.000332542
10 *1928:B2 0
11 *2063:X 0.000372367
12 *525:92 0.00031345
13 *525:61 0.00029306
14 *525:59 0.000958167
15 *525:41 0.000602306
16 *525:39 0.00137777
17 *525:37 0.00123833
18 *525:28 0.000540671
19 *525:16 0.000803104
20 *525:12 0.00040513
21 *1832:A2 *528:6 0.000181796
22 *1832:A2 *528:14 9.18312e-05
23 *1832:A2 *532:24 0.00022527
24 *1832:A2 *547:88 1.09026e-05
25 *1878:A *547:96 5.33005e-05
26 *1903:B *1982:B1 0
27 *1903:B *1983:D 6.82091e-06
28 *1903:B *527:51 0.000105559
29 *1903:B *527:76 9.90367e-05
30 *1903:B *541:18 0.000225609
31 *1903:B *566:35 0.000778095
32 *1981:A *537:84 5.46298e-05
33 *2023:B2 *2023:A2 0.000185643
34 *2023:B2 *2023:B1 3.1876e-05
35 *2023:B2 *532:24 5.71472e-05
36 *525:12 *1927:C 3.8274e-05
37 *525:12 *1928:A2 6.05161e-06
38 *525:12 *2063:A 0.000356028
39 *525:12 *529:14 0.00039354
40 *525:12 *538:45 1.74352e-05
41 *525:16 *1928:A2 5.02383e-05
42 *525:16 *529:14 9.60875e-05
43 *525:16 *538:49 6.59012e-07
44 *525:28 *1982:B1 0
45 *525:28 *1983:D 9.79148e-05
46 *525:28 *566:35 1.90936e-05
47 *525:37 *529:14 7.97063e-05
48 *525:37 *538:49 1.97695e-05
49 *525:39 *529:14 6.4443e-05
50 *525:39 *532:24 8.57023e-05
51 *525:39 *535:43 0.000365243
52 *525:41 *532:24 0.000385481
53 *525:59 *1880:B 5.7616e-05
54 *525:59 *529:35 0
55 *525:59 *532:24 0.000144089
56 *525:59 *547:88 2.8266e-06
57 *525:59 *547:96 0.000379603
58 *525:92 *1979:A2 0
59 *525:92 *1983:D 1.76266e-05
60 *525:92 *2038:A2 5.41794e-05
61 *525:92 *535:22 0
62 *525:92 *537:69 0.000390659
63 *1834:A *1832:A2 0.00017282
64 *1858:A *1832:A2 0.00015234
65 *1858:B *1832:A2 0.000175526
66 *1906:A1 *1878:A 1.58163e-05
67 *1927:B *525:12 9.90431e-05
68 *1984:B *1981:A 5.52238e-05
69 *1985:A *1981:A 6.05161e-06
70 *202:21 *1832:A2 0.000116825
71 *202:32 *1832:A2 4.78056e-05
72 *202:43 *1832:A2 0.000137436
73 *366:12 *525:92 0.000166503
74 *490:27 *525:92 0
75 *519:25 *525:59 7.6644e-05
76 *521:31 *1903:B 1.94945e-05
77 *521:31 *525:28 7.36575e-05
78 *521:39 *525:28 1.37767e-05
79 *521:39 *525:37 7.48091e-05
80 *523:39 *1878:A 0.000113073
*RES
1 *2063:X *525:12 18.5143 
2 *525:12 *525:16 5.44643 
3 *525:16 *525:28 12.816 
4 *525:28 *1928:B2 9.3 
5 *525:28 *525:37 4.25 
6 *525:37 *525:39 9.16071 
7 *525:39 *525:41 3.82143 
8 *525:41 *2023:B2 13.8536 
9 *525:41 *2024:B 9.3 
10 *525:39 *525:59 13.7321 
11 *525:59 *525:61 4.5 
12 *525:61 *1828:A 9.3 
13 *525:61 *1878:A 14.3536 
14 *525:59 *1832:A2 27.7821 
15 *525:37 *525:92 14.8929 
16 *525:92 *1981:A 11.0857 
17 *525:92 *2038:A1 9.3 
18 *525:16 *1903:B 26.9429 
19 *525:12 *1927:A 9.3 
*END

*D_NET *526 0.0203469
*CONN
*I *1825:B2 I *D sky130_fd_sc_hd__a32o_1
*I *1810:B I *D sky130_fd_sc_hd__or4_1
*I *1795:A1 I *D sky130_fd_sc_hd__o211a_1
*I *1790:B I *D sky130_fd_sc_hd__nand2_1
*I *1732:B I *D sky130_fd_sc_hd__or2_1
*I *1792:A0 I *D sky130_fd_sc_hd__mux2_2
*I *1830:A1 I *D sky130_fd_sc_hd__o22a_1
*I *1866:A1 I *D sky130_fd_sc_hd__a221o_1
*I *1904:A1 I *D sky130_fd_sc_hd__a22oi_1
*I *2063:A I *D sky130_fd_sc_hd__buf_2
*I *2064:X O *D sky130_fd_sc_hd__buf_2
*CAP
1 *1825:B2 1.97835e-05
2 *1810:B 4.97078e-05
3 *1795:A1 0
4 *1790:B 0
5 *1732:B 0.000255223
6 *1792:A0 8.17155e-05
7 *1830:A1 5.71185e-05
8 *1866:A1 4.42111e-05
9 *1904:A1 0.00035153
10 *2063:A 0.000213921
11 *2064:X 0
12 *526:111 0.000324538
13 *526:100 0.000230469
14 *526:98 0.00106587
15 *526:94 0.0012917
16 *526:92 0.000719508
17 *526:77 0.000974272
18 *526:62 0.0023689
19 *526:19 0.00252216
20 *526:6 0.000532847
21 *1732:B *1793:B 4.1331e-06
22 *1810:B *529:63 0.000128154
23 *1825:B2 *1825:A2 9.71197e-05
24 *1904:A1 *1904:A2 6.68328e-05
25 *1904:A1 *1904:B1 1.32273e-05
26 *1904:A1 *527:76 7.57127e-05
27 *1904:A1 *538:28 0
28 *1904:A1 *538:45 4.42842e-05
29 *1904:A1 *541:12 0.000103036
30 *2063:A *529:14 0.000198352
31 *2063:A *538:45 0
32 *526:19 *538:45 0
33 *526:62 *1864:A2 0.000435845
34 *526:62 *527:76 2.06112e-05
35 *526:62 *527:89 0
36 *526:62 *534:147 0
37 *526:62 *538:28 0
38 *526:92 *528:34 0.000886181
39 *526:92 *528:49 9.74492e-05
40 *526:92 *550:65 0.00032512
41 *526:94 *1825:A2 9.90367e-05
42 *526:94 *554:88 0.000161947
43 *526:111 *1793:B 6.98306e-05
44 *1783:A *1732:B 1.76039e-05
45 *1792:A1 *1792:A0 9.60875e-05
46 *1792:A1 *526:100 0.000135028
47 *1792:S *526:111 3.34295e-05
48 *1795:A2 *1792:A0 4.43256e-05
49 *1795:A2 *526:98 3.4855e-05
50 *1795:A2 *526:100 2.87584e-05
51 *1796:B1 *526:111 3.34295e-05
52 *1803:A *526:111 0.000100492
53 *1825:A1 *526:94 0.000323874
54 *1830:B1 *526:77 5.52238e-05
55 *1830:B2 *1830:A1 3.08382e-06
56 *1830:B2 *526:77 8.86413e-05
57 *1838:A *526:98 7.02611e-05
58 *1839:B *526:98 5.72899e-05
59 *1866:B2 *1866:A1 1.8038e-05
60 *1873:B *526:98 0.000204671
61 *1888:B *526:62 1.08359e-05
62 *1889:A *526:62 3.61629e-06
63 *1890:B *526:62 0.000129595
64 *1893:A1 *526:62 6.85772e-05
65 *1893:B1 *526:62 0.000577064
66 *1895:B1 *526:62 1.97865e-05
67 *1902:A1 *526:98 4.43256e-05
68 *1902:B1 *526:98 3.48705e-05
69 *1905:B *526:19 5.59013e-05
70 *1913:B *1904:A1 0.000100476
71 *1913:B *526:62 3.91566e-05
72 *1914:B1 *526:62 0
73 *1916:B *526:62 0
74 *1925:A2 *526:98 0.00020562
75 *1925:A3 *526:98 0.000326054
76 *1925:B1 *526:98 5.33005e-05
77 *1944:B *526:19 0
78 *1955:B1 *526:98 0.000265441
79 *2061:A *2063:A 0.000110825
80 *107:10 *1732:B 3.5707e-05
81 *183:12 *526:92 0
82 *190:27 *1866:A1 7.57662e-05
83 *190:27 *526:77 0.000491193
84 *191:14 *1810:B 4.35048e-05
85 *196:14 *1866:A1 1.437e-05
86 *196:14 *526:77 8.4789e-05
87 *199:51 *1825:B2 8.46829e-05
88 *199:51 *526:92 0
89 *199:51 *526:94 0.000228558
90 *211:16 *526:92 0.000105033
91 *219:40 *1732:B 0
92 *247:25 *526:98 6.71854e-05
93 *261:18 *526:62 0.000173797
94 *263:21 *526:62 0.000128154
95 *265:17 *526:62 0.000247778
96 *266:12 *526:62 4.46186e-06
97 *280:22 *1904:A1 2.21972e-05
98 *280:22 *526:19 4.75715e-05
99 *280:22 *526:62 9.22026e-05
100 *323:14 *2063:A 0
101 *323:14 *526:19 0
102 *515:42 *1732:B 0
103 *516:112 *1732:B 0.000133797
104 *516:112 *526:111 5.80706e-06
105 *518:105 *526:92 0.00037154
106 *520:18 *1830:A1 1.92905e-05
107 *520:18 *526:77 4.61647e-05
108 *523:10 *2063:A 0.000146474
109 *525:12 *2063:A 0.000356028
*RES
1 *2064:X *526:6 13.8 
2 *526:6 *2063:A 20.3714 
3 *526:6 *526:19 5.89286 
4 *526:19 *1904:A1 39.925 
5 *526:19 *526:62 39.1786 
6 *526:62 *1866:A1 14.8357 
7 *526:62 *526:77 13.8571 
8 *526:77 *1830:A1 10.2643 
9 *526:77 *526:92 23.0893 
10 *526:92 *526:94 7.51786 
11 *526:94 *526:98 20.2679 
12 *526:98 *526:100 1.76786 
13 *526:100 *1792:A0 11.0679 
14 *526:100 *526:111 7.35714 
15 *526:111 *1732:B 19.0857 
16 *526:111 *1790:B 13.8 
17 *526:98 *1795:A1 9.3 
18 *526:94 *1810:B 19.9429 
19 *526:92 *1825:B2 10.2464 
*END

*D_NET *527 0.0160083
*CONN
*I *1979:A1 I *D sky130_fd_sc_hd__a211oi_1
*I *1978:B1 I *D sky130_fd_sc_hd__o211a_1
*I *1926:A I *D sky130_fd_sc_hd__nand2_1
*I *1856:A1_N I *D sky130_fd_sc_hd__o2bb2a_1
*I *1857:C I *D sky130_fd_sc_hd__and4b_1
*I *1887:A1 I *D sky130_fd_sc_hd__a21oi_1
*I *1886:A I *D sky130_fd_sc_hd__and3_1
*I *1904:B2 I *D sky130_fd_sc_hd__a22oi_1
*I *1903:A I *D sky130_fd_sc_hd__and4_1
*I *2024:A I *D sky130_fd_sc_hd__nand4_1
*I *2065:X O *D sky130_fd_sc_hd__buf_2
*CAP
1 *1979:A1 0
2 *1978:B1 5.46578e-05
3 *1926:A 0
4 *1856:A1_N 7.55516e-05
5 *1857:C 0
6 *1887:A1 0
7 *1886:A 0.000119252
8 *1904:B2 0
9 *1903:A 0
10 *2024:A 0.000163888
11 *2065:X 0.000155442
12 *527:109 0.000277759
13 *527:89 0.000458203
14 *527:76 0.000807769
15 *527:51 0.000842417
16 *527:45 0.000877145
17 *527:34 0.00113122
18 *527:18 0.00105738
19 *527:8 0.000753902
20 *527:6 0.000463294
21 *1856:A1_N *1856:A2_N 2.08273e-05
22 *1886:A *1887:A2 0.000229456
23 *1886:A *540:116 3.48705e-05
24 *2024:A *2023:A1 0.0001399
25 *2024:A *529:14 0.000830167
26 *2024:A *535:43 0.000957631
27 *527:6 *2065:A 4.87854e-05
28 *527:8 *2065:A 7.43578e-06
29 *527:18 *1978:C1 0.00013669
30 *527:18 *541:36 9.76491e-05
31 *527:34 *1983:D 0.000135044
32 *527:34 *529:14 0.000498991
33 *527:34 *566:35 5.88193e-05
34 *527:45 *2025:B1 0.000103267
35 *527:45 *535:22 0.000116796
36 *527:45 *563:14 2.31791e-05
37 *527:51 *1904:B1 0.000613007
38 *527:51 *563:35 0.000435845
39 *527:76 *1904:A2 4.63947e-05
40 *527:76 *1904:B1 0.000134549
41 *527:76 *541:18 2.28598e-05
42 *527:109 *1856:A2_N 5.52238e-05
43 *527:109 *1878:B 0.000350813
44 *527:109 *2078:A 0.00018372
45 *527:109 *545:46 0.000228558
46 *527:109 *563:14 0.000198698
47 *1857:D *1856:A1_N 0.000185356
48 *1877:A *1856:A1_N 0
49 *1877:A *527:109 2.44318e-05
50 *1877:B *527:109 3.14078e-05
51 *1883:A *527:51 0.000136958
52 *1887:B1 *1886:A 0.000119465
53 *1903:B *527:51 0.000105559
54 *1903:B *527:76 9.90367e-05
55 *1904:A1 *527:76 7.57127e-05
56 *1906:B1_N *527:45 4.73656e-05
57 *1913:A *527:76 6.57648e-05
58 *1913:A *527:89 0.000143804
59 *1913:B *527:89 7.79781e-06
60 *1929:A1 *527:18 4.13595e-05
61 *1930:B *1978:B1 0
62 *1931:A *527:18 5.52238e-05
63 *1945:A2 *527:76 4.33002e-05
64 *1978:A2 *527:18 0
65 *1979:B1 *527:8 1.56e-05
66 *1979:C1 *527:8 0.000255062
67 *1983:A *527:34 5.41794e-05
68 *1983:A *527:45 0.000146474
69 *1984:A *527:34 0
70 *229:21 *1856:A1_N 0.000239254
71 *229:21 *527:109 9.31893e-05
72 *253:12 *527:109 7.49387e-06
73 *256:12 *527:45 0.000103267
74 *257:12 *527:45 0.000117398
75 *259:12 *527:51 5.20692e-05
76 *261:18 *1886:A 9.50968e-06
77 *280:22 *527:76 0.00011954
78 *291:8 *527:89 0.000128812
79 *307:10 *527:34 9.60875e-05
80 *309:16 *1978:B1 9.69119e-06
81 *309:16 *527:8 5.52302e-05
82 *309:16 *527:18 0.000140933
83 *323:14 *1978:B1 0
84 *388:10 *527:76 0
85 *388:10 *527:89 0
86 *490:27 *527:34 1.87955e-05
87 *490:27 *527:45 0.000173634
88 *490:27 *527:109 2.18733e-05
89 *526:62 *527:76 2.06112e-05
90 *526:62 *527:89 0
*RES
1 *2065:X *527:6 11.0679 
2 *527:6 *527:8 4.23214 
3 *527:8 *527:18 7.39286 
4 *527:18 *527:34 24.5536 
5 *527:34 *2024:A 22.9607 
6 *527:34 *527:45 9.53571 
7 *527:45 *527:51 15.3214 
8 *527:51 *1903:A 9.3 
9 *527:51 *527:76 16.2506 
10 *527:76 *1904:B2 13.8 
11 *527:76 *527:89 11.8393 
12 *527:89 *1886:A 12.7286 
13 *527:89 *1887:A1 9.3 
14 *527:45 *527:109 12.1071 
15 *527:109 *1857:C 9.3 
16 *527:109 *1856:A1_N 12.0545 
17 *527:18 *1926:A 9.3 
18 *527:8 *1978:B1 19.0321 
19 *527:6 *1979:A1 9.3 
*END

*D_NET *528 0.00639498
*CONN
*I *1833:B I *D sky130_fd_sc_hd__and3_1
*I *1832:B2 I *D sky130_fd_sc_hd__a22o_1
*I *1836:B2 I *D sky130_fd_sc_hd__a32o_1
*I *1819:A2 I *D sky130_fd_sc_hd__o22a_1
*I *1825:A2 I *D sky130_fd_sc_hd__a32o_1
*I *1818:A2 I *D sky130_fd_sc_hd__a22oi_1
*I *2066:X O *D sky130_fd_sc_hd__dlymetal6s2s_1
*CAP
1 *1833:B 0.000143335
2 *1832:B2 0
3 *1836:B2 0
4 *1819:A2 5.34934e-05
5 *1825:A2 4.93427e-05
6 *1818:A2 9.00006e-06
7 *2066:X 6.18235e-05
8 *528:49 0.000267762
9 *528:34 0.000810163
10 *528:22 0.000757595
11 *528:14 0.000240214
12 *528:6 0.000324014
13 *1833:B *1830:A2 6.87834e-06
14 *1833:B *529:35 5.64742e-05
15 *1833:B *547:82 2.27416e-05
16 *1833:B *550:54 4.39944e-05
17 *528:6 *529:35 5.52238e-05
18 *528:6 *529:51 1.5424e-05
19 *528:14 *1832:B1 4.87854e-05
20 *528:14 *529:51 0.000248876
21 *528:22 *538:24 9.97394e-05
22 *528:22 *545:29 9.41642e-05
23 *528:34 *545:29 0.000135028
24 *528:34 *550:65 0.000118004
25 *528:34 *550:95 0.000282111
26 *528:49 *1819:A1 0.000184583
27 *528:49 *550:95 3.34295e-05
28 *1809:C *1818:A2 7.13226e-06
29 *1818:B2 *528:49 6.8646e-06
30 *1825:A1 *1825:A2 5.71472e-05
31 *1825:A3 *1819:A2 9.90431e-05
32 *1825:A3 *1825:A2 4.99374e-05
33 *1825:A3 *528:49 0
34 *1825:B1 *1825:A2 2.57162e-05
35 *1825:B1 *528:49 4.46186e-06
36 *1825:B2 *1825:A2 9.71197e-05
37 *1832:A2 *528:6 0.000181796
38 *1832:A2 *528:14 9.18312e-05
39 *1836:A2 *528:22 6.05161e-06
40 *1836:B1 *528:34 1.90936e-05
41 *1837:B *528:34 8.9591e-05
42 *1867:C1 *528:22 2.42516e-05
43 *188:22 *528:34 7.51431e-05
44 *188:28 *528:34 3.79304e-05
45 *199:51 *1819:A2 2.77258e-05
46 *492:67 *528:22 0.000194577
47 *492:67 *528:34 5.46971e-05
48 *526:92 *528:34 0.000886181
49 *526:92 *528:49 9.74492e-05
50 *526:94 *1825:A2 9.90367e-05
*RES
1 *2066:X *528:6 11.0679 
2 *528:6 *528:14 3.57143 
3 *528:14 *528:22 12.5 
4 *528:22 *528:34 29.375 
5 *528:34 *1818:A2 13.9473 
6 *528:34 *528:49 8.19643 
7 *528:49 *1825:A2 11.4964 
8 *528:49 *1819:A2 10.9786 
9 *528:22 *1836:B2 9.3 
10 *528:14 *1832:B2 9.3 
11 *528:6 *1833:B 20.7821 
*END

*D_NET *529 0.0202486
*CONN
*I *2065:A I *D sky130_fd_sc_hd__buf_2
*I *2066:A I *D sky130_fd_sc_hd__dlymetal6s2s_1
*I *1810:A I *D sky130_fd_sc_hd__or4_1
*I *1803:B I *D sky130_fd_sc_hd__nor2_1
*I *1793:B I *D sky130_fd_sc_hd__and2_1
*I *1795:C1 I *D sky130_fd_sc_hd__o211a_1
*I *2023:A1 I *D sky130_fd_sc_hd__a22o_1
*I *2067:X O *D sky130_fd_sc_hd__clkbuf_2
*CAP
1 *2065:A 0.0001406
2 *2066:A 0
3 *1810:A 0
4 *1803:B 0
5 *1793:B 0.000193484
6 *1795:C1 7.28474e-05
7 *2023:A1 0.000269285
8 *2067:X 0
9 *529:80 0.000503629
10 *529:63 0.00142694
11 *529:51 0.00219744
12 *529:35 0.0019532
13 *529:14 0.00217887
14 *529:4 0.00125048
15 *1795:C1 *544:34 0.000149543
16 *2023:A1 *2023:B1 0.000184745
17 *2023:A1 *535:43 8.87196e-05
18 *2023:A1 *540:33 5.7616e-05
19 *2065:A *2062:A 9.34004e-05
20 *529:14 *535:43 0.000110952
21 *529:14 *538:49 9.22103e-06
22 *529:35 *1830:A2 0.000189028
23 *529:35 *1853:A1 0
24 *529:35 *547:88 0.000547842
25 *529:35 *550:43 0
26 *529:35 *550:54 0
27 *529:51 *1832:B1 0.000113298
28 *529:51 *1966:B2 2.6541e-05
29 *529:51 *538:24 0
30 *529:51 *545:29 4.80438e-05
31 *529:51 *554:75 0.00127161
32 *529:63 *544:34 5.26224e-05
33 *1732:B *1793:B 4.1331e-06
34 *1792:S *1793:B 9.86279e-05
35 *1795:B1 *1795:C1 5.80706e-06
36 *1796:A1 *1793:B 4.03318e-05
37 *1796:B1 *1793:B 1.51018e-05
38 *1796:B1 *529:80 6.79794e-05
39 *1803:A *529:80 0.000137983
40 *1807:C *529:51 1.78465e-05
41 *1809:C *529:51 1.33343e-05
42 *1810:B *529:63 0.000128154
43 *1810:C *529:51 3.37555e-05
44 *1811:B *529:63 8.06427e-05
45 *1825:A1 *529:63 0.000957432
46 *1833:B *529:35 5.64742e-05
47 *1836:A2 *529:51 0.000181796
48 *1839:B *1795:C1 3.18703e-05
49 *1839:B *529:63 1.30761e-05
50 *1855:B *529:35 7.9463e-05
51 *1907:C *529:35 0.000477998
52 *1980:B *2065:A 2.10446e-05
53 *2024:A *2023:A1 0.0001399
54 *2024:A *529:14 0.000830167
55 *2063:A *529:14 0.000198352
56 *2072:A *529:63 0.000105158
57 *2088:A *529:63 4.95787e-05
58 *167:25 *1793:B 0
59 *183:12 *529:51 0.000262791
60 *191:14 *529:63 0
61 *199:18 *529:63 8.81524e-05
62 *199:51 *529:51 0
63 *229:10 *529:35 3.92854e-05
64 *307:10 *529:14 0.000196188
65 *323:14 *2065:A 0
66 *336:12 *529:63 0.000437749
67 *492:77 *2023:A1 0
68 *515:42 *1793:B 8.27217e-05
69 *518:82 *529:51 0.000137515
70 *519:25 *529:35 5.08788e-05
71 *521:39 *529:14 0.000268403
72 *521:89 *529:35 0.00017461
73 *524:78 *529:63 1.60258e-05
74 *525:12 *529:14 0.00039354
75 *525:16 *529:14 9.60875e-05
76 *525:37 *529:14 7.97063e-05
77 *525:39 *529:14 6.4443e-05
78 *525:59 *529:35 0
79 *526:111 *1793:B 6.98306e-05
80 *527:6 *2065:A 4.87854e-05
81 *527:8 *2065:A 7.43578e-06
82 *527:34 *529:14 0.000498991
83 *528:6 *529:35 5.52238e-05
84 *528:6 *529:51 1.5424e-05
85 *528:14 *529:51 0.000248876
*RES
1 *2067:X *529:4 9.3 
2 *529:4 *529:14 26.6964 
3 *529:14 *2023:A1 23.675 
4 *529:14 *529:35 29.3929 
5 *529:35 *529:51 35.5714 
6 *529:51 *529:63 38.125 
7 *529:63 *1795:C1 15.7464 
8 *529:63 *529:80 9.66964 
9 *529:80 *1793:B 23.4339 
10 *529:80 *1803:B 9.3 
11 *529:51 *1810:A 9.3 
12 *529:35 *2066:A 9.3 
13 *529:4 *2065:A 21.4964 
*END

*D_NET *530 0.00755045
*CONN
*I *1817:B I *D sky130_fd_sc_hd__or4b_4
*I *1595:A_N I *D sky130_fd_sc_hd__and3b_2
*I *1822:C I *D sky130_fd_sc_hd__and4b_2
*I *1820:B I *D sky130_fd_sc_hd__nor3_1
*I *1812:C1 I *D sky130_fd_sc_hd__o2111a_1
*I *1831:B_N I *D sky130_fd_sc_hd__and4bb_2
*I *1824:B_N I *D sky130_fd_sc_hd__and4bb_2
*I *1815:C_N I *D sky130_fd_sc_hd__or3b_4
*I *1813:D I *D sky130_fd_sc_hd__and4b_2
*I *1816:C I *D sky130_fd_sc_hd__or4b_4
*I *2068:X O *D sky130_fd_sc_hd__clkbuf_2
*CAP
1 *1817:B 0.000138045
2 *1595:A_N 8.95575e-05
3 *1822:C 0
4 *1820:B 0
5 *1812:C1 0
6 *1831:B_N 8.33329e-05
7 *1824:B_N 0.000331045
8 *1815:C_N 7.30625e-05
9 *1813:D 0
10 *1816:C 0.000479062
11 *2068:X 0
12 *530:94 0.000343637
13 *530:66 0.000246511
14 *530:60 0.000179747
15 *530:43 0.000604548
16 *530:23 8.2013e-05
17 *530:19 0.000367529
18 *530:17 0.000269816
19 *530:6 0.000717907
20 *530:4 0.000186707
21 *1817:B *532:14 3.69047e-06
22 *1586:A *530:66 0.000212206
23 *1595:B *1595:A_N 7.83659e-05
24 *1812:A2 *1831:B_N 5.33005e-05
25 *1812:B1 *1831:B_N 5.33005e-05
26 *1812:D1 *530:17 0
27 *1812:D1 *530:66 2.8266e-06
28 *1813:B *530:19 1.7606e-05
29 *1815:A *1815:C_N 0.000191922
30 *1815:A *530:23 5.52302e-05
31 *1816:D_N *1816:C 6.87574e-05
32 *1817:C *1817:B 9.60939e-05
33 *1827:A *1831:B_N 3.8274e-05
34 *1827:C *1824:B_N 9.59532e-06
35 *2068:A *1817:B 7.48301e-06
36 *2070:A *1824:B_N 0
37 *2070:A *530:43 0
38 *2074:A *1824:B_N 0
39 *2074:A *530:43 0
40 *2089:A *530:66 8.41911e-05
41 *2104:A *1595:A_N 3.51442e-05
42 *188:10 *1815:C_N 0.00014183
43 *189:10 *530:17 2.41729e-05
44 *189:14 *530:17 6.8646e-06
45 *189:14 *530:19 1.69115e-05
46 *189:14 *530:66 0
47 *192:24 *1824:B_N 0.000216581
48 *192:24 *530:43 7.21996e-05
49 *192:24 *530:66 0
50 *205:14 *1831:B_N 0.000139907
51 *230:19 *530:19 0.00017309
52 *315:23 *1816:C 0.000272371
53 *315:23 *1817:B 4.18895e-05
54 *315:23 *530:6 8.36572e-05
55 *315:23 *530:94 0.000175251
56 *326:56 *1595:A_N 1.17968e-05
57 *489:21 *1595:A_N 0
58 *489:21 *530:17 4.49293e-05
59 *489:23 *530:17 0.000151892
60 *489:35 *1815:C_N 4.18895e-05
61 *489:35 *530:17 1.02504e-05
62 *489:35 *530:19 0.000258971
63 *489:35 *530:23 5.71472e-05
64 *489:45 *1824:B_N 2.21972e-05
65 *500:35 *1831:B_N 0.000108284
66 *500:48 *1816:C 8.43535e-06
67 *511:66 *1816:C 0.000269428
*RES
1 *2068:X *530:4 9.3 
2 *530:4 *530:6 0.946429 
3 *530:6 *1816:C 15.9964 
4 *530:6 *530:17 7.35714 
5 *530:17 *530:19 3.46429 
6 *530:19 *530:23 5.03571 
7 *530:23 *1813:D 9.3 
8 *530:23 *1815:C_N 11.9071 
9 *530:19 *530:43 3.96147 
10 *530:43 *1824:B_N 18.3265 
11 *530:43 *530:60 3.68679 
12 *530:60 *530:66 8.30357 
13 *530:66 *1831:B_N 11.8893 
14 *530:66 *1812:C1 9.3 
15 *530:60 *1820:B 13.8 
16 *530:17 *1822:C 13.8 
17 *530:4 *530:94 1.76786 
18 *530:94 *1595:A_N 20.2464 
19 *530:94 *1817:B 11.0679 
*END

*D_NET *531 0.0200522
*CONN
*I *1762:B1 I *D sky130_fd_sc_hd__a21oi_1
*I *1596:C I *D sky130_fd_sc_hd__or4_4
*I *1778:C1 I *D sky130_fd_sc_hd__a221o_1
*I *1717:C1 I *D sky130_fd_sc_hd__a311oi_4
*I *1674:B I *D sky130_fd_sc_hd__or4_4
*I *1673:B I *D sky130_fd_sc_hd__nor4_1
*I *1784:C1 I *D sky130_fd_sc_hd__a211o_1
*I *1779:C1 I *D sky130_fd_sc_hd__a211o_1
*I *1755:B1 I *D sky130_fd_sc_hd__a21oi_4
*I *1763:A I *D sky130_fd_sc_hd__and3_1
*I *2069:X O *D sky130_fd_sc_hd__buf_6
*CAP
1 *1762:B1 0.000172551
2 *1596:C 0.00221711
3 *1778:C1 0
4 *1717:C1 0
5 *1674:B 0.0002564
6 *1673:B 0.000186429
7 *1784:C1 5.50164e-06
8 *1779:C1 1.01867e-05
9 *1755:B1 0
10 *1763:A 1.75672e-05
11 *2069:X 2.18742e-05
12 *531:74 0.000505879
13 *531:72 0.000707344
14 *531:70 0.000932627
15 *531:49 0.000293834
16 *531:47 0.00290961
17 *531:31 0.000146131
18 *531:25 0.00199444
19 *531:15 0.00133854
20 *531:6 3.94415e-05
21 *1596:C *1596:D 9.74783e-05
22 *1596:C *538:12 1.66955e-05
23 *1596:C *540:10 9.22103e-06
24 *1596:C *542:63 4.32258e-05
25 *1673:B *1673:A 5.71472e-05
26 *1674:B *1674:C 2.0876e-05
27 *1674:B *1692:A1 5.995e-05
28 *531:25 *565:12 1.24437e-06
29 *531:25 *565:73 0
30 *531:31 *565:12 8.44176e-05
31 *531:72 *539:68 0.000123288
32 *531:72 *542:63 0
33 *531:74 *539:68 1.02504e-05
34 *1716:A1 *1674:B 0.000225616
35 *1716:B1 *1673:B 5.08577e-05
36 *1734:A1 *1596:C 3.91935e-05
37 *1734:A2 *1596:C 1.39726e-05
38 *1734:B1 *1596:C 0.000532312
39 *1735:B1 *1596:C 6.52525e-05
40 *1747:A *531:25 0.000171954
41 *1754:A1 *531:25 0.000337644
42 *1754:B1 *531:31 0
43 *1755:A2 *1779:C1 4.25176e-05
44 *1755:A2 *531:31 0.000185118
45 *1761:A *531:72 0.000200406
46 *1761:C *531:72 0.000199256
47 *1762:A1 *1762:B1 1.69115e-05
48 *1763:B *1763:A 1.28171e-05
49 *1763:B *531:6 1.07719e-05
50 *1763:C *1763:A 5.49489e-05
51 *1763:C *531:6 4.08637e-05
52 *1765:C *1762:B1 0
53 *1777:B *1596:C 0.000219711
54 *1778:A2 *531:70 0.000203489
55 *1778:B2 *531:70 3.18672e-05
56 *1778:B2 *531:72 9.25014e-06
57 *1784:A1 *1784:C1 3.43988e-06
58 *1784:A1 *531:70 0.000106753
59 *1784:B1 *1784:C1 1.84777e-06
60 *1787:B1 *531:25 0.000442085
61 *1799:B2 *531:25 2.01732e-05
62 *1800:B *1762:B1 0
63 *1802:B1 *1762:B1 2.89114e-05
64 *1922:B1 *1596:C 0.000166838
65 *1924:A2 *1596:C 0.000181796
66 *1924:B1 *1596:C 4.43256e-05
67 *67:8 *1673:B 1.02504e-05
68 *67:8 *531:72 2.31791e-05
69 *67:8 *531:74 0.00013966
70 *67:19 *531:72 0.000121573
71 *67:32 *531:72 0.00062666
72 *97:10 *1596:C 4.15183e-05
73 *100:8 *531:25 0.000144268
74 *126:15 *1779:C1 5.49544e-05
75 *126:15 *531:31 0.000183477
76 *136:14 *1784:C1 1.9725e-06
77 *136:14 *531:70 0.000339401
78 *136:14 *531:72 0.000172285
79 *140:12 *1762:B1 7.22552e-05
80 *283:12 *531:72 0
81 *283:85 *531:72 0
82 *302:14 *1596:C 0.000698978
83 *471:26 *1673:B 0.000100566
84 *471:26 *531:74 2.56694e-05
85 *471:41 *531:74 1.9643e-05
86 *471:71 *1762:B1 0.000103558
87 *471:71 *531:25 0.00119004
88 *497:27 *531:25 1.08524e-05
89 *510:39 *531:70 2.01359e-05
90 *510:39 *531:72 7.05143e-06
91 *510:89 *531:25 0
92 *512:25 *531:72 4.038e-06
*RES
1 *2069:X *531:6 9.83571 
2 *531:6 *1763:A 9.83571 
3 *531:6 *531:15 4.5 
4 *531:15 *531:25 35.9732 
5 *531:25 *531:31 8.36607 
6 *531:31 *1755:B1 9.3 
7 *531:31 *1779:C1 9.83571 
8 *531:25 *531:47 4.39387 
9 *531:47 *531:49 3.41 
10 *531:49 *1784:C1 13.9786 
11 *531:49 *531:70 12.5743 
12 *531:70 *531:72 16.8214 
13 *531:72 *531:74 1.94643 
14 *531:74 *1673:B 18.2107 
15 *531:74 *1674:B 17.2107 
16 *531:72 *1717:C1 13.8 
17 *531:70 *1778:C1 13.8 
18 *531:47 *1596:C 47.8157 
19 *531:15 *1762:B1 17.4964 
*END

*D_NET *532 0.0129012
*CONN
*I *2014:B I *D sky130_fd_sc_hd__xnor2_1
*I *2046:A2 I *D sky130_fd_sc_hd__a21oi_1
*I *2047:A2 I *D sky130_fd_sc_hd__o22a_1
*I *2048:A2 I *D sky130_fd_sc_hd__a32o_1
*I *2024:C I *D sky130_fd_sc_hd__nand4_1
*I *2023:A2 I *D sky130_fd_sc_hd__a22o_1
*I *2070:X O *D sky130_fd_sc_hd__clkbuf_2
*CAP
1 *2014:B 0
2 *2046:A2 2.94119e-05
3 *2047:A2 0.00031765
4 *2048:A2 0
5 *2024:C 0
6 *2023:A2 5.12252e-05
7 *2070:X 0.000103616
8 *532:24 0.00127228
9 *532:18 0.00130204
10 *532:16 0.000513564
11 *532:14 0.000776337
12 *532:6 0.000735614
13 *2023:A2 *2023:B1 8.14759e-05
14 *2023:A2 *535:43 5.52302e-05
15 *532:24 *1862:B 0
16 *532:24 *1880:B 5.58941e-05
17 *532:24 *535:43 0.000516919
18 *532:24 *545:33 0.000414061
19 *532:24 *545:37 2.61337e-05
20 *532:24 *547:96 0.000388146
21 *1817:A *532:14 0.000313241
22 *1817:B *532:14 3.69047e-06
23 *1818:B2 *532:14 0
24 *1826:C1 *532:14 0.000189542
25 *1832:A2 *532:24 0.00022527
26 *1834:A *532:24 0.000317114
27 *1837:C *532:24 3.69513e-05
28 *1858:B *532:24 0.000175526
29 *1866:A2 *532:24 9.14714e-06
30 *2016:A *532:6 5.71472e-05
31 *2023:B2 *2023:A2 0.000185643
32 *2023:B2 *532:24 5.71472e-05
33 *2068:A *532:14 0.000137983
34 *188:63 *2046:A2 0.000139913
35 *190:8 *532:14 8.6943e-05
36 *190:10 *532:14 8.97396e-05
37 *190:10 *532:16 4.46186e-06
38 *190:14 *532:16 0.00011914
39 *190:14 *532:18 6.44409e-05
40 *190:14 *532:24 0.000264827
41 *190:54 *2046:A2 0.000139913
42 *192:6 *532:14 2.28598e-05
43 *192:97 *532:6 9.93135e-05
44 *192:97 *532:14 0.000125057
45 *196:12 *532:14 0
46 *197:16 *532:14 0.000412333
47 *197:40 *532:18 1.94879e-05
48 *199:45 *532:14 8.99615e-05
49 *205:26 *532:14 4.25523e-05
50 *205:26 *532:16 2.16719e-05
51 *205:47 *532:24 0.000159824
52 *326:56 *532:14 0.00077305
53 *492:50 *532:16 0.000196269
54 *492:50 *532:18 0.000156402
55 *492:56 *532:18 9.54798e-06
56 *492:56 *532:24 0.000146992
57 *497:52 *2047:A2 0.000432883
58 *519:25 *532:24 6.8646e-06
59 *521:79 *532:24 0.000313458
60 *523:16 *532:24 0
61 *523:39 *532:24 0
62 *525:39 *532:24 8.57023e-05
63 *525:41 *532:24 0.000385481
64 *525:59 *532:24 0.000144089
*RES
1 *2070:X *532:6 11.8893 
2 *532:6 *532:14 23.4464 
3 *532:14 *532:16 3.16071 
4 *532:16 *532:18 2.25 
5 *532:18 *532:24 40.3393 
6 *532:24 *2023:A2 11.4964 
7 *532:24 *2024:C 9.3 
8 *532:18 *2048:A2 13.8 
9 *532:16 *2047:A2 18.0321 
10 *532:14 *2046:A2 15.1571 
11 *532:6 *2014:B 9.3 
*END

*D_NET *533 0.000799483
*CONN
*I *2067:A I *D sky130_fd_sc_hd__clkbuf_2
*I *2106:X O *D sky130_fd_sc_hd__clkbuf_1
*CAP
1 *2067:A 0.000323218
2 *2106:X 0.000323218
3 *2067:A *544:18 0.000153047
*RES
1 *2106:X *2067:A 32.9571 
*END

*D_NET *534 0.0484037
*CONN
*I *1801:A1 I *D sky130_fd_sc_hd__a21oi_1
*I *1971:A I *D sky130_fd_sc_hd__xor2_1
*I *1978:C1 I *D sky130_fd_sc_hd__o211a_1
*I *1596:D I *D sky130_fd_sc_hd__or4_4
*I *1593:A I *D sky130_fd_sc_hd__inv_2
*I *1717:B1 I *D sky130_fd_sc_hd__a311oi_4
*I *1674:C I *D sky130_fd_sc_hd__or4_4
*I *1673:C I *D sky130_fd_sc_hd__nor4_1
*I *1739:A I *D sky130_fd_sc_hd__xnor2_1
*I *1764:A I *D sky130_fd_sc_hd__xor2_1
*I *2071:X O *D sky130_fd_sc_hd__buf_4
*CAP
1 *1801:A1 0.000112864
2 *1971:A 1.64896e-05
3 *1978:C1 0.000466647
4 *1596:D 8.71616e-05
5 *1593:A 6.81388e-05
6 *1717:B1 0
7 *1674:C 6.63995e-06
8 *1673:C 0.000146773
9 *1739:A 0.000181022
10 *1764:A 0.000127852
11 *2071:X 0
12 *534:147 0.00261568
13 *534:139 0.00743842
14 *534:133 0.00572544
15 *534:118 0.00285661
16 *534:74 0.000423651
17 *534:66 0.000723368
18 *534:50 0.000774069
19 *534:48 0.00365687
20 *534:27 0.00194234
21 *534:15 0.0014831
22 *534:4 0.000144573
23 *1596:D *540:10 0.000271352
24 *1673:C *1673:A 0.000279499
25 *1673:C *536:24 1.08359e-05
26 *1674:C *1692:A1 2.0876e-05
27 *1978:C1 *538:45 0.000186918
28 *1978:C1 *541:18 0.000308245
29 *1978:C1 *541:36 4.19727e-05
30 *534:48 *565:33 0.000168282
31 *534:50 *565:33 0
32 *534:66 *1746:S 5.33005e-05
33 *534:66 *561:6 5.49544e-05
34 *534:66 *561:23 0.000207948
35 *534:74 *536:24 7.2754e-05
36 *534:74 *539:68 0.000265447
37 *534:118 *542:141 0
38 *534:118 *543:42 0.000152781
39 *534:118 *547:12 2.16719e-05
40 *534:118 *548:94 8.25843e-06
41 *534:147 *1893:A2 0.000173097
42 *534:147 *1921:A 0
43 *534:147 *2015:A1 0
44 *534:147 *538:28 0.000164087
45 *534:147 *538:45 0
46 *534:147 *540:116 0.000171375
47 *534:147 *541:18 0.000166993
48 *534:147 *553:68 0
49 *534:147 *554:111 8.22989e-05
50 *534:147 *566:35 0.000399805
51 *1596:C *1596:D 9.74783e-05
52 *1601:A2 *534:118 0
53 *1674:B *1674:C 2.0876e-05
54 *1693:C *534:74 4.13595e-05
55 *1695:B *534:66 0.000151613
56 *1717:A3 *534:66 6.86693e-05
57 *1729:A *534:118 4.01768e-05
58 *1739:B *1739:A 0.000330447
59 *1739:B *534:48 0.000819968
60 *1746:A0 *534:66 7.2754e-05
61 *1749:A *534:27 0.000166983
62 *1749:C *534:27 0.0002005
63 *1749:D *534:27 0.000390421
64 *1754:B1 *534:50 5.10822e-05
65 *1754:B1 *534:118 9.12446e-05
66 *1756:B *534:27 0
67 *1757:A1 *534:27 0.000129868
68 *1758:B *534:27 0.00025263
69 *1764:B *1764:A 0.000286635
70 *1764:B *534:15 1.04232e-05
71 *1764:B *534:133 1.54142e-05
72 *1765:C *1801:A1 7.26935e-05
73 *1766:A1 *534:27 4.73656e-05
74 *1767:A *534:27 9.57064e-05
75 *1770:B *534:27 6.32633e-05
76 *1771:B *534:27 0.000252623
77 *1780:A1 *534:118 3.46602e-05
78 *1800:A *534:133 0.000400867
79 *1800:B *1801:A1 0
80 *1801:A2 *1801:A1 0.000153047
81 *1806:B1 *534:139 0.000158153
82 *1827:B *534:139 0.000114324
83 *1890:A *534:147 4.56437e-05
84 *1891:B1 *534:147 0
85 *1894:B1 *534:118 0.000130525
86 *1920:A2 *534:147 8.359e-05
87 *1922:B1 *1596:D 2.59355e-05
88 *1922:B1 *534:118 0.000266319
89 *1923:A2 *534:147 0
90 *1923:B1 *534:147 3.09963e-05
91 *1923:C1 *534:147 7.8327e-05
92 *1927:B *1978:C1 7.69776e-06
93 *1929:A1 *1978:C1 9.71197e-05
94 *1930:B *1978:C1 1.52978e-05
95 *1930:C *1978:C1 5.7616e-05
96 *1963:B *534:147 0
97 *1967:C1 *534:147 0
98 *1971:B *534:147 0
99 *1978:A1 *1978:C1 0
100 *1978:A2 *1978:C1 3.99614e-06
101 *2017:B *1971:A 2.89016e-05
102 *2069:A *534:139 0.000100368
103 *2070:A *534:139 0.00405225
104 *2073:A *534:27 0.000270958
105 *2076:A *534:27 6.607e-06
106 *2100:A *534:27 5.28317e-05
107 *48:6 *1673:C 9.80173e-05
108 *64:24 *534:66 9.77264e-06
109 *64:24 *534:74 0.000603045
110 *68:8 *534:74 1.21258e-05
111 *70:24 *534:66 0.000191382
112 *95:10 *534:50 0
113 *95:10 *534:66 0
114 *95:23 *534:48 6.42338e-05
115 *103:10 *534:118 6.44345e-05
116 *112:10 *534:27 0.000150618
117 *112:19 *534:27 0.000239943
118 *112:30 *534:27 0.000142082
119 *114:8 *534:27 0
120 *132:10 *534:27 0.000531936
121 *135:18 *534:27 0.000774904
122 *192:97 *1971:A 2.89016e-05
123 *196:74 *534:147 0
124 *196:93 *534:147 0
125 *234:27 *534:147 0.000153054
126 *265:17 *534:147 0
127 *273:25 *534:118 0.00162918
128 *283:12 *1673:C 0.000240491
129 *283:12 *534:74 0.000137939
130 *304:12 *534:50 0.00014465
131 *306:10 *1978:C1 0
132 *306:12 *1978:C1 8.66063e-05
133 *306:36 *1978:C1 0.000131439
134 *307:10 *1978:C1 7.83587e-05
135 *309:16 *1978:C1 2.89114e-05
136 *326:18 *534:139 0.000172737
137 *339:12 *534:147 0.000146474
138 *343:23 *534:147 0
139 *345:10 *534:147 0
140 *471:26 *1673:C 4.59075e-05
141 *512:25 *534:50 0
142 *518:54 *534:118 0
143 *520:29 *534:118 4.39781e-05
144 *521:10 *1978:C1 4.91935e-05
145 *523:10 *1978:C1 0
146 *526:62 *534:147 0
147 *527:18 *1978:C1 0.00013669
*RES
1 *2071:X *534:4 9.3 
2 *534:4 *1764:A 12.7286 
3 *534:4 *534:15 0.428571 
4 *534:15 *534:27 45.9464 
5 *534:27 *1739:A 13.1393 
6 *534:27 *534:48 26.0714 
7 *534:48 *534:50 4.67857 
8 *534:50 *534:66 23.5714 
9 *534:66 *534:74 12.75 
10 *534:74 *1673:C 18.7286 
11 *534:74 *1674:C 14.0098 
12 *534:66 *1717:B1 9.3 
13 *534:50 *1593:A 14.7464 
14 *534:48 *534:118 48.25 
15 *534:118 *1596:D 16.8 
16 *534:15 *534:133 9.3125 
17 *534:133 *534:139 18.8301 
18 *534:139 *534:147 43.4196 
19 *534:147 *1978:C1 27.7196 
20 *534:139 *1971:A 14.3357 
21 *534:133 *1801:A1 16.8089 
*END

*D_NET *535 0.0169723
*CONN
*I *2007:A2 I *D sky130_fd_sc_hd__a21oi_1
*I *2009:A2 I *D sky130_fd_sc_hd__a32o_1
*I *2015:A1 I *D sky130_fd_sc_hd__a21o_1
*I *2008:A2 I *D sky130_fd_sc_hd__o22a_1
*I *2024:D I *D sky130_fd_sc_hd__nand4_1
*I *2023:B1 I *D sky130_fd_sc_hd__a22o_1
*I *1979:A2 I *D sky130_fd_sc_hd__a211oi_1
*I *2072:X O *D sky130_fd_sc_hd__clkbuf_2
*CAP
1 *2007:A2 2.65515e-05
2 *2009:A2 6.59742e-05
3 *2015:A1 0.00027692
4 *2008:A2 0
5 *2024:D 0
6 *2023:B1 9.4759e-05
7 *1979:A2 0.00165302
8 *2072:X 0
9 *535:69 0.000624491
10 *535:65 0.000513086
11 *535:61 0.000134318
12 *535:43 0.000343444
13 *535:22 0.00373018
14 *535:4 0.0018367
15 *1979:A2 *1983:D 2.46649e-05
16 *1979:A2 *2062:A 0.000100831
17 *1979:A2 *537:84 0.000224577
18 *2009:A2 *553:16 8.07951e-05
19 *2015:A1 *1957:A 5.33005e-05
20 *2015:A1 *553:68 0.000202599
21 *535:22 *2025:B1 8.85782e-05
22 *535:22 *537:69 0
23 *535:22 *553:16 1.69115e-05
24 *535:22 *563:14 0.000506878
25 *535:22 *563:69 0.000326513
26 *535:65 *553:16 0.000143439
27 *535:69 *1957:A 0.000137983
28 *1864:B2 *535:22 0.000192637
29 *1866:B1 *535:22 0.00010047
30 *1883:B *535:22 6.69779e-05
31 *1906:B1_N *535:22 2.84494e-05
32 *1929:B1 *1979:A2 5.52238e-05
33 *1930:C *1979:A2 4.43256e-05
34 *1956:A2 *535:22 0.00063885
35 *1970:B1 *2015:A1 0.000200413
36 *1980:A *1979:A2 5.52302e-05
37 *1980:B *1979:A2 5.52302e-05
38 *1983:A *1979:A2 8.26195e-05
39 *1983:A *535:22 5.74562e-05
40 *1984:B *1979:A2 9.61553e-05
41 *2007:B1 *2007:A2 8.27532e-05
42 *2007:B1 *535:22 3.481e-05
43 *2007:B1 *535:61 4.38128e-05
44 *2008:B1 *535:69 5.94433e-06
45 *2009:B1 *535:69 9.7591e-05
46 *2010:B1 *535:69 3.07187e-05
47 *2023:A1 *2023:B1 0.000184745
48 *2023:A1 *535:43 8.87196e-05
49 *2023:A2 *2023:B1 8.14759e-05
50 *2023:A2 *535:43 5.52302e-05
51 *2023:B2 *2023:B1 3.1876e-05
52 *2024:A *535:43 0.000957631
53 *2052:A *535:22 0.000207085
54 *2072:A *535:22 2.11419e-05
55 *2118:A *535:22 0
56 *234:12 *535:22 0.000116042
57 *256:12 *535:22 5.10822e-05
58 *305:12 *1979:A2 0.000312222
59 *309:8 *1979:A2 3.97657e-05
60 *310:12 *1979:A2 3.80953e-06
61 *338:8 *2015:A1 5.41794e-05
62 *363:10 *1979:A2 3.06878e-06
63 *366:12 *1979:A2 3.75052e-05
64 *367:6 *1979:A2 1.74352e-05
65 *397:20 *2007:A2 9.41642e-05
66 *397:20 *535:22 5.52302e-05
67 *397:20 *535:61 5.52238e-05
68 *490:27 *1979:A2 0
69 *490:48 *535:22 8.01613e-05
70 *492:20 *2009:A2 0
71 *492:20 *535:22 0
72 *492:20 *535:65 0
73 *524:25 *535:22 0.000138418
74 *525:39 *535:43 0.000365243
75 *525:92 *1979:A2 0
76 *525:92 *535:22 0
77 *527:45 *535:22 0.000116796
78 *529:14 *535:43 0.000110952
79 *532:24 *535:43 0.000516919
80 *534:147 *2015:A1 0
*RES
1 *2072:X *535:4 9.3 
2 *535:4 *535:22 48.125 
3 *535:22 *1979:A2 45.4786 
4 *535:22 *535:43 16.5357 
5 *535:43 *2023:B1 12.3357 
6 *535:43 *2024:D 9.3 
7 *535:4 *535:61 0.535714 
8 *535:61 *535:65 6.44643 
9 *535:65 *535:69 8.73214 
10 *535:69 *2008:A2 9.3 
11 *535:69 *2015:A1 24.7286 
12 *535:65 *2009:A2 14.8357 
13 *535:61 *2007:A2 10.2464 
*END

*D_NET *536 0.0161109
*CONN
*I *1596:B I *D sky130_fd_sc_hd__or4_4
*I *1694:B1 I *D sky130_fd_sc_hd__a21o_1
*I *1693:A I *D sky130_fd_sc_hd__and3_1
*I *1674:A I *D sky130_fd_sc_hd__or4_4
*I *1673:A I *D sky130_fd_sc_hd__nor4_1
*I *2073:X O *D sky130_fd_sc_hd__buf_6
*CAP
1 *1596:B 0
2 *1694:B1 2.58559e-05
3 *1693:A 3.94321e-05
4 *1674:A 0
5 *1673:A 0.000230989
6 *2073:X 0.00121992
7 *536:70 0.00166009
8 *536:24 0.000380765
9 *536:22 0.000321102
10 *536:20 0.00106371
11 *536:16 0.0033254
12 *536:14 0.00197926
13 *1693:A *539:68 0.000140933
14 *536:16 *1725:A 0.000221163
15 *536:22 *539:85 0
16 *536:24 *539:85 0
17 *536:70 *1869:A2 0.000178847
18 *536:70 *538:12 6.02454e-05
19 *536:70 *543:125 0.00054826
20 *536:70 *548:53 0.000310298
21 *1672:C *1673:A 7.83587e-05
22 *1673:B *1673:A 5.71472e-05
23 *1673:C *1673:A 0.000279499
24 *1673:C *536:24 1.08359e-05
25 *1678:A *536:20 0
26 *1694:A2 *1694:B1 9.71197e-05
27 *1716:A1 *1693:A 9.90431e-05
28 *1722:A0 *536:20 0
29 *1733:B *536:20 1.90936e-05
30 *1768:A0 *536:14 4.28149e-05
31 *1768:A1 *536:14 9.90431e-05
32 *1768:S *536:14 0.000482601
33 *1769:B *536:14 5.86416e-05
34 *1777:B *536:20 0.000401482
35 *1781:A1 *536:20 0
36 *1789:A_N *536:14 0.000180066
37 *1804:B1 *536:16 0
38 *1804:C1 *536:16 0
39 *1805:C *536:14 1.15281e-05
40 *1805:D *536:16 0
41 *1839:A *536:16 0
42 *1846:A1 *536:70 5.33005e-05
43 *1846:B1 *536:70 3.18676e-05
44 *2051:A *536:16 0
45 *2072:A *536:14 0
46 *2112:A *1673:A 2.89114e-05
47 *43:12 *1673:A 7.15521e-05
48 *43:12 *536:24 1.02504e-05
49 *47:8 *1673:A 0.000138881
50 *48:6 *1673:A 2.14658e-05
51 *49:14 *1673:A 1.78447e-05
52 *49:42 *536:24 5.7599e-05
53 *52:10 *536:22 0
54 *52:23 *536:20 0
55 *61:26 *1694:B1 9.41642e-05
56 *105:10 *536:20 0
57 *135:18 *536:14 0.000383791
58 *144:12 *536:14 9.10431e-06
59 *145:16 *536:14 6.74911e-05
60 *155:14 *536:16 0
61 *273:27 *536:16 0
62 *273:27 *536:20 0
63 *283:12 *536:20 1.08359e-05
64 *283:12 *536:22 2.46318e-05
65 *283:12 *536:24 1.37292e-05
66 *283:85 *536:16 0.000227521
67 *283:85 *536:20 0.000545123
68 *337:16 *536:70 0
69 *337:60 *536:70 0
70 *471:49 *536:20 0.000584867
71 *471:49 *536:22 2.16719e-05
72 *498:23 *536:16 0
73 *534:74 *536:24 7.2754e-05
*RES
1 *2073:X *536:14 44.6393 
2 *536:14 *536:16 14.6964 
3 *536:16 *536:20 22.2143 
4 *536:20 *536:22 1.94643 
5 *536:22 *536:24 2.85714 
6 *536:24 *1673:A 19.7643 
7 *536:24 *1674:A 13.8 
8 *536:22 *1693:A 15.1571 
9 *536:20 *1694:B1 14.7464 
10 *536:16 *536:70 41.5536 
11 *536:70 *1596:B 9.3 
*END

*D_NET *537 0.0128477
*CONN
*I *1964:A2 I *D sky130_fd_sc_hd__a21oi_1
*I *1965:A2 I *D sky130_fd_sc_hd__o22a_1
*I *1981:B I *D sky130_fd_sc_hd__nand2_1
*I *2022:B I *D sky130_fd_sc_hd__nand2_1
*I *2038:A2 I *D sky130_fd_sc_hd__a31o_1
*I *1966:A2 I *D sky130_fd_sc_hd__a32o_1
*I *1970:A1 I *D sky130_fd_sc_hd__a21o_1
*I *1957:A I *D sky130_fd_sc_hd__xnor2_1
*I *2074:X O *D sky130_fd_sc_hd__buf_2
*CAP
1 *1964:A2 9.39446e-05
2 *1965:A2 0
3 *1981:B 0
4 *2022:B 0.000309217
5 *2038:A2 3.28815e-05
6 *1966:A2 0.000182614
7 *1970:A1 0.000124287
8 *1957:A 0.000170751
9 *2074:X 7.26651e-05
10 *537:84 0.000405668
11 *537:69 0.0015277
12 *537:52 0.00178714
13 *537:46 0.000295024
14 *537:42 0.000503286
15 *537:12 0.000462463
16 *537:6 0.000560574
17 *1957:A *2008:A1 2.28499e-05
18 *1966:A2 *1919:A2 5.71472e-05
19 *1970:A1 *2008:A1 5.84075e-05
20 *1970:A1 *553:47 5.52302e-05
21 *537:42 *1921:A 0
22 *537:42 *554:111 0
23 *537:52 *1919:A2 2.70271e-05
24 *537:69 *1982:B1 6.94254e-05
25 *1891:B1 *537:69 0
26 *1892:A1 *537:69 0.000149641
27 *1895:A2 *537:69 0
28 *1919:B1 *537:42 4.53031e-05
29 *1920:B1 *537:42 5.58941e-05
30 *1956:A1 *537:42 0
31 *1956:B1 *1970:A1 0.000166976
32 *1956:B1 *537:12 0.000216692
33 *1956:B1 *537:42 7.46038e-05
34 *1957:B *1957:A 0.000139907
35 *1964:A1 *1964:A2 9.16173e-05
36 *1964:A1 *537:46 6.42095e-05
37 *1964:A1 *537:52 5.74499e-06
38 *1965:B1 *1964:A2 5.33005e-05
39 *1965:B1 *537:46 1.24368e-05
40 *1965:B2 *1964:A2 3.68898e-05
41 *1965:B2 *537:42 5.7616e-05
42 *1965:B2 *537:46 2.89114e-05
43 *1966:A1 *1966:A2 5.33005e-05
44 *1966:B1 *1966:A2 1.24368e-05
45 *1967:A2 *1966:A2 0.000104933
46 *1967:C1 *1964:A2 0.0001399
47 *1969:A *1966:A2 1.98839e-05
48 *1979:A2 *537:84 0.000224577
49 *1981:A *537:84 5.46298e-05
50 *1982:A1 *537:69 0.000166686
51 *1984:B *537:84 9.41642e-05
52 *1985:A *537:84 1.15172e-05
53 *1985:B *2038:A2 1.02504e-05
54 *2008:B1 *1957:A 2.51343e-06
55 *2008:B2 *1970:A1 5.83304e-05
56 *2008:B2 *537:12 9.91086e-05
57 *2009:B2 *537:42 0
58 *2015:A1 *1957:A 5.33005e-05
59 *2037:A *2022:B 0.000102197
60 *2052:A *537:69 9.14032e-05
61 *2074:A *537:12 2.01359e-05
62 *2118:A *537:52 7.83659e-05
63 *188:71 *537:42 0.000159689
64 *253:12 *537:69 0
65 *259:12 *537:69 0.000113372
66 *287:12 *537:69 0.000367382
67 *338:8 *537:12 2.07078e-05
68 *338:8 *537:42 7.83587e-05
69 *351:22 *1966:A2 9.41642e-05
70 *397:20 *537:6 3.14163e-05
71 *397:20 *537:12 3.32631e-05
72 *438:16 *1964:A2 1.74352e-05
73 *490:48 *1966:A2 0.000304387
74 *490:48 *537:52 4.98055e-06
75 *490:48 *537:69 9.69119e-06
76 *497:52 *537:52 9.71197e-05
77 *497:56 *537:52 6.00199e-05
78 *497:56 *537:69 6.75007e-05
79 *518:105 *537:52 4.11173e-05
80 *520:53 *537:69 0.000137224
81 *524:25 *537:69 0.000851643
82 *524:52 *537:69 0.000359752
83 *525:92 *2038:A2 5.41794e-05
84 *525:92 *537:69 0.000390659
85 *535:22 *537:69 0
86 *535:69 *1957:A 0.000137983
*RES
1 *2074:X *537:6 10.2464 
2 *537:6 *537:12 8.30357 
3 *537:12 *1957:A 17.5321 
4 *537:12 *1970:A1 16.5857 
5 *537:6 *537:42 16.5357 
6 *537:42 *537:46 2.08929 
7 *537:46 *537:52 8.10714 
8 *537:52 *1966:A2 18.5679 
9 *537:52 *537:69 36.3036 
10 *537:69 *2038:A2 14.5321 
11 *537:69 *537:84 7.51786 
12 *537:84 *2022:B 14.7643 
13 *537:84 *1981:B 9.3 
14 *537:46 *1965:A2 9.3 
15 *537:42 *1964:A2 12.3179 
*END

*D_NET *538 0.014595
*CONN
*I *1596:A I *D sky130_fd_sc_hd__or4_4
*I *1927:D I *D sky130_fd_sc_hd__and4_1
*I *1928:B1 I *D sky130_fd_sc_hd__a22oi_1
*I *1983:D I *D sky130_fd_sc_hd__and4_1
*I *1903:D I *D sky130_fd_sc_hd__and4_1
*I *2075:X O *D sky130_fd_sc_hd__buf_6
*CAP
1 *1596:A 2.37855e-05
2 *1927:D 0
3 *1928:B1 0
4 *1983:D 0.000701275
5 *1903:D 0.000105393
6 *2075:X 0.000636818
7 *538:49 0.00097677
8 *538:45 0.000795449
9 *538:28 0.000888598
10 *538:24 0.00283182
11 *538:12 0.00322917
12 *1903:D *1904:A2 5.52302e-05
13 *1903:D *541:18 9.60875e-05
14 *538:12 *1899:A 0.000152965
15 *538:12 *540:10 7.32955e-05
16 *538:12 *542:120 0
17 *538:12 *542:141 2.83284e-06
18 *538:24 *1833:A 9.90431e-05
19 *538:24 *540:10 0.000180764
20 *538:24 *540:116 1.88619e-05
21 *538:24 *545:29 2.80429e-05
22 *538:24 *547:82 0.000249066
23 *538:24 *554:75 0
24 *538:28 *541:12 3.48235e-05
25 *538:45 *541:12 3.17148e-05
26 *538:49 *1927:C 0.000139913
27 *538:49 *1928:A2 9.46067e-05
28 *1596:C *538:12 1.66955e-05
29 *1833:C *538:24 0.000121712
30 *1845:A *538:12 0.00011741
31 *1860:A *538:24 0.000227539
32 *1860:B *538:24 2.95726e-05
33 *1865:B1 *538:24 8.64454e-05
34 *1872:A *538:12 0
35 *1898:A *538:12 0
36 *1898:B *538:12 4.25523e-05
37 *1903:B *1983:D 6.82091e-06
38 *1904:A1 *538:28 0
39 *1904:A1 *538:45 4.42842e-05
40 *1927:B *538:49 2.14658e-05
41 *1955:B1 *538:12 1.88048e-05
42 *1968:A3 *538:24 0.000219711
43 *1968:B1 *538:24 0.000166407
44 *1978:C1 *538:45 0.000186918
45 *1979:A2 *1983:D 2.46649e-05
46 *2061:A *538:45 8.5896e-05
47 *2063:A *538:45 0
48 *2075:A *538:12 0
49 *207:6 *538:24 1.1152e-05
50 *207:10 *538:24 4.51611e-05
51 *234:12 *538:24 7.78288e-05
52 *261:18 *538:28 0
53 *302:14 *538:12 4.35881e-05
54 *302:14 *538:24 6.67542e-05
55 *337:60 *538:12 0
56 *366:12 *1983:D 1.02504e-05
57 *492:67 *538:24 0.000145579
58 *492:77 *538:24 1.65558e-05
59 *521:10 *538:45 7.6644e-05
60 *521:31 *1983:D 9.87983e-06
61 *521:39 *1983:D 5.52302e-05
62 *521:39 *538:49 2.14658e-05
63 *524:56 *538:24 0.000354105
64 *524:64 *538:12 0
65 *524:64 *538:24 0.000175892
66 *525:12 *538:45 1.74352e-05
67 *525:16 *538:49 6.59012e-07
68 *525:28 *1983:D 9.79148e-05
69 *525:37 *538:49 1.97695e-05
70 *525:92 *1983:D 1.76266e-05
71 *526:19 *538:45 0
72 *526:62 *538:28 0
73 *527:34 *1983:D 0.000135044
74 *528:22 *538:24 9.97394e-05
75 *529:14 *538:49 9.22103e-06
76 *529:51 *538:24 0
77 *534:147 *538:28 0.000164087
78 *534:147 *538:45 0
79 *536:70 *538:12 6.02454e-05
*RES
1 *2075:X *538:12 32.2286 
2 *538:12 *538:24 49.3929 
3 *538:24 *538:28 10.3929 
4 *538:28 *1903:D 15.1571 
5 *538:28 *538:45 15.4107 
6 *538:45 *538:49 3.83929 
7 *538:49 *1983:D 29.8532 
8 *538:49 *1928:B1 9.3 
9 *538:45 *1927:D 9.3 
10 *538:12 *1596:A 9.72857 
*END

*D_NET *539 0.0202379
*CONN
*I *1773:A I *D sky130_fd_sc_hd__or2_1
*I *1774:A I *D sky130_fd_sc_hd__nand2_1
*I *1744:A I *D sky130_fd_sc_hd__xor2_1
*I *1743:A I *D sky130_fd_sc_hd__and2_1
*I *2026:D_N I *D sky130_fd_sc_hd__or4b_1
*I *1669:B1 I *D sky130_fd_sc_hd__a21oi_1
*I *1672:A I *D sky130_fd_sc_hd__and3_1
*I *1690:A I *D sky130_fd_sc_hd__or2_1
*I *1691:A I *D sky130_fd_sc_hd__xnor2_1
*I *1750:A1 I *D sky130_fd_sc_hd__o22a_1
*I *2076:X O *D sky130_fd_sc_hd__buf_2
*CAP
1 *1773:A 1.44544e-05
2 *1774:A 4.05636e-05
3 *1744:A 0.000391193
4 *1743:A 0
5 *2026:D_N 0.0006998
6 *1669:B1 4.20279e-05
7 *1672:A 3.24453e-05
8 *1690:A 0
9 *1691:A 0.000762238
10 *1750:A1 2.26968e-05
11 *2076:X 0.000334708
12 *539:104 0.00108213
13 *539:85 0.00073382
14 *539:68 0.00133138
15 *539:37 0.00223664
16 *539:35 0.000721742
17 *539:22 0.000716475
18 *539:18 0.000999241
19 *539:16 0.000241781
20 *539:12 0.000418462
21 *1773:A *565:73 9.90431e-05
22 *2026:D_N *551:107 0.000154464
23 *539:12 *1770:A 7.42615e-05
24 *539:12 *565:73 9.60875e-05
25 *539:22 *559:12 0.00017309
26 *539:22 *565:73 0
27 *539:37 *1742:S 0
28 *539:85 *546:121 0
29 *539:104 *1688:A1 1.21258e-05
30 *539:104 *2123:A 5.52238e-05
31 *1688:A2 *539:85 1.40034e-05
32 *1688:A2 *539:104 0.000114276
33 *1688:B1 *539:104 9.41642e-05
34 *1689:A2 *1669:B1 0.000102545
35 *1689:B1 *1669:B1 0.000100831
36 *1689:B1 *2026:D_N 8.25843e-06
37 *1691:B *1691:A 0.00013744
38 *1693:A *539:68 0.000140933
39 *1693:C *539:68 0.000124674
40 *1694:A2 *539:68 9.41642e-05
41 *1716:A1 *539:68 1.98839e-05
42 *1717:A2 *1691:A 0
43 *1742:A0 *1691:A 0
44 *1742:A0 *539:37 0
45 *1744:B *1744:A 0.000576675
46 *1745:A *1691:A 0.000363496
47 *1746:A1 *539:37 0
48 *1751:B *539:22 0
49 *1754:A2 *539:35 1.98839e-05
50 *1768:S *1774:A 9.90431e-05
51 *1769:B *539:12 1.61917e-05
52 *1773:B *539:16 0
53 *2026:C *2026:D_N 0.000180777
54 *2072:A *539:16 0.000140361
55 *2072:A *539:18 0.000234463
56 *2076:A *539:12 5.52238e-05
57 *2112:A *1672:A 1.92905e-05
58 *2112:A *539:104 3.57366e-05
59 *45:56 *2026:D_N 0
60 *47:8 *539:85 0
61 *49:14 *539:85 0.00010326
62 *49:42 *539:85 0.000218734
63 *52:10 *539:85 0
64 *61:26 *1691:A 0
65 *61:26 *539:37 0
66 *61:26 *539:68 0.000658448
67 *61:49 *1691:A 0.000256985
68 *64:14 *539:85 5.52238e-05
69 *64:24 *539:68 0.000102922
70 *64:24 *539:85 7.67914e-05
71 *66:12 *1691:A 9.90367e-05
72 *117:10 *539:37 0.000751144
73 *117:23 *1750:A1 5.52238e-05
74 *117:23 *539:35 0.000520016
75 *117:23 *539:37 1.02504e-05
76 *117:27 *539:18 9.56112e-07
77 *117:27 *539:22 0.000482454
78 *121:14 *539:35 0.000143484
79 *121:14 *539:37 0.000415705
80 *145:16 *539:12 6.01429e-06
81 *147:10 *539:18 0
82 *147:10 *539:22 0
83 *149:10 *539:16 3.25247e-05
84 *283:67 *2026:D_N 0.00014285
85 *471:20 *539:104 0.00010687
86 *471:41 *539:68 5.86416e-05
87 *498:23 *1773:A 8.66063e-05
88 *498:23 *539:12 0.00042994
89 *510:76 *539:22 0.000782205
90 *513:23 *539:85 6.42242e-05
91 *531:72 *539:68 0.000123288
92 *531:74 *539:68 1.02504e-05
93 *534:74 *539:68 0.000265447
94 *536:22 *539:85 0
95 *536:24 *539:85 0
*RES
1 *2076:X *539:12 16.8714 
2 *539:12 *539:16 6.44643 
3 *539:16 *539:18 3.16071 
4 *539:18 *539:22 18.8929 
5 *539:22 *1750:A1 9.83571 
6 *539:22 *539:35 11.25 
7 *539:35 *539:37 15.3036 
8 *539:37 *1691:A 26.3893 
9 *539:37 *539:68 29.375 
10 *539:68 *1690:A 9.3 
11 *539:68 *539:85 16.1964 
12 *539:85 *1672:A 9.83571 
13 *539:85 *539:104 7.19643 
14 *539:104 *1669:B1 19.6393 
15 *539:104 *2026:D_N 29.9964 
16 *539:35 *1743:A 13.8 
17 *539:18 *1744:A 20.925 
18 *539:16 *1774:A 14.7464 
19 *539:12 *1773:A 10.2464 
*END

*D_NET *540 0.0224136
*CONN
*I *1597:A I *D sky130_fd_sc_hd__or2_4
*I *1893:A2 I *D sky130_fd_sc_hd__o22a_1
*I *1886:B I *D sky130_fd_sc_hd__and3_1
*I *1887:A2 I *D sky130_fd_sc_hd__a21oi_1
*I *1892:A2 I *D sky130_fd_sc_hd__a21oi_1
*I *1894:A2 I *D sky130_fd_sc_hd__a32o_1
*I *1641:A1 I *D sky130_fd_sc_hd__a21o_1
*I *2025:A2 I *D sky130_fd_sc_hd__a22o_1
*I *1640:A1 I *D sky130_fd_sc_hd__o21ba_4
*I *1605:C1 I *D sky130_fd_sc_hd__a211oi_2
*I *2077:X O *D sky130_fd_sc_hd__buf_2
*CAP
1 *1597:A 5.37304e-05
2 *1893:A2 5.59465e-05
3 *1886:B 0
4 *1887:A2 0.000124369
5 *1892:A2 0
6 *1894:A2 0.000489957
7 *1641:A1 0.000341221
8 *2025:A2 0
9 *1640:A1 0.00098203
10 *1605:C1 0
11 *2077:X 0.00046866
12 *540:116 0.000497415
13 *540:110 0.000678528
14 *540:97 0.00152781
15 *540:70 0.00176823
16 *540:33 0.00193856
17 *540:22 0.00103843
18 *540:18 0.000743287
19 *540:12 0.000340581
20 *540:10 0.000542807
21 *1640:A1 *2025:B1 1.02504e-05
22 *1640:A1 *554:58 0.000121525
23 *1641:A1 *1599:A2 1.24368e-05
24 *1893:A2 *566:35 0.000162125
25 *1894:A2 *1865:A2 1.39726e-05
26 *1894:A2 *2081:A 0.000104554
27 *540:33 *2025:B1 0.000434769
28 *540:33 *542:141 0.000288576
29 *540:33 *550:32 0.000529363
30 *540:33 *554:58 0
31 *540:33 *554:75 0
32 *540:116 *566:35 0.00017309
33 *1596:C *540:10 9.22103e-06
34 *1596:D *540:10 0.000271352
35 *1599:A3 *540:18 2.23562e-05
36 *1607:A1 *540:18 0.000194358
37 *1628:A *1640:A1 9.71197e-05
38 *1636:B1 *1640:A1 0.000139907
39 *1640:B1_N *1640:A1 9.60875e-05
40 *1641:B1 *1641:A1 8.25843e-06
41 *1835:B1 *540:97 0.000392471
42 *1836:A1 *540:97 9.62737e-05
43 *1865:A3 *1894:A2 5.52302e-05
44 *1865:B1 *1894:A2 0.000558889
45 *1865:B1 *540:97 0.000366548
46 *1886:A *1887:A2 0.000229456
47 *1886:A *540:116 3.48705e-05
48 *1891:B1 *540:110 5.52238e-05
49 *1892:B1 *540:97 0.000137983
50 *1892:B1 *540:110 0.000142856
51 *1894:A3 *1894:A2 4.38128e-05
52 *1894:B1 *1894:A2 6.74684e-05
53 *1895:B2 *540:110 0.00010096
54 *1896:C1 *540:97 9.62911e-05
55 *1915:B *1887:A2 0.000208355
56 *1968:A2 *540:18 0
57 *1968:A3 *540:18 0.000339117
58 *1968:A3 *540:22 0.000123288
59 *2023:A1 *540:33 5.7616e-05
60 *2025:A1 *1640:A1 0.000233532
61 *2027:D *1640:A1 1.17968e-05
62 *2028:A1 *1640:A1 0
63 *2028:A1 *540:33 0
64 *2052:A *540:97 0.000344027
65 *197:63 *540:97 9.71378e-06
66 *205:62 *540:97 0.000324799
67 *205:64 *1894:A2 0.000371269
68 *205:64 *540:97 0.000465128
69 *234:16 *540:97 0.000139907
70 *234:16 *540:110 0.000288955
71 *234:27 *540:110 9.31011e-05
72 *337:16 *540:10 0.000113903
73 *337:16 *540:12 3.24989e-05
74 *337:16 *540:18 0.000201963
75 *348:10 *540:10 3.34366e-05
76 *348:10 *540:12 4.11218e-05
77 *348:10 *540:18 0.000299376
78 *348:32 *540:10 3.77748e-05
79 *369:10 *1641:A1 0.000102327
80 *409:8 *540:33 0
81 *460:14 *1640:A1 5.52302e-05
82 *492:77 *540:33 0
83 *517:33 *1640:A1 0.000601495
84 *518:54 *1894:A2 4.19624e-06
85 *519:88 *1894:A2 9.87983e-06
86 *519:105 *1894:A2 4.46186e-06
87 *524:25 *540:97 0.000170955
88 *524:52 *540:97 0.000171485
89 *524:64 *540:10 9.25014e-06
90 *524:107 *1597:A 9.41642e-05
91 *524:113 *1894:A2 0.00014285
92 *534:147 *1893:A2 0.000173097
93 *534:147 *540:116 0.000171375
94 *538:12 *540:10 7.32955e-05
95 *538:24 *540:10 0.000180764
96 *538:24 *540:116 1.88619e-05
*RES
1 *2077:X *540:10 21.3179 
2 *540:10 *540:12 0.580357 
3 *540:12 *540:18 8.52679 
4 *540:18 *540:22 6.14286 
5 *540:22 *1605:C1 9.3 
6 *540:22 *540:33 26.9821 
7 *540:33 *1640:A1 35.425 
8 *540:33 *2025:A2 13.8 
9 *540:18 *1641:A1 17.6214 
10 *540:12 *540:70 3.41 
11 *540:70 *1894:A2 20.905 
12 *540:70 *540:97 17.2281 
13 *540:97 *1892:A2 9.3 
14 *540:97 *540:110 10.9286 
15 *540:110 *540:116 10.5714 
16 *540:116 *1887:A2 13.05 
17 *540:116 *1886:B 9.3 
18 *540:110 *1893:A2 16.05 
19 *540:10 *1597:A 14.7464 
*END

*D_NET *541 0.00625344
*CONN
*I *1904:A2 I *D sky130_fd_sc_hd__a22oi_1
*I *1903:C I *D sky130_fd_sc_hd__and4_1
*I *1927:C I *D sky130_fd_sc_hd__and4_1
*I *1928:A2 I *D sky130_fd_sc_hd__a22oi_1
*I *1982:A2 I *D sky130_fd_sc_hd__a22oi_1
*I *1983:C I *D sky130_fd_sc_hd__and4_1
*I *2078:X O *D sky130_fd_sc_hd__buf_1
*CAP
1 *1904:A2 0.000127665
2 *1903:C 0
3 *1927:C 3.03466e-05
4 *1928:A2 5.55491e-05
5 *1982:A2 0
6 *1983:C 8.35335e-05
7 *2078:X 0.000162117
8 *541:54 8.58957e-05
9 *541:36 0.000580462
10 *541:18 0.000889537
11 *541:12 0.000682391
12 *1904:A2 *1904:B1 2.4005e-05
13 *1983:C *565:62 4.45015e-05
14 *541:12 *2078:A 2.89114e-05
15 *541:18 *566:35 0.000751776
16 *541:36 *565:62 0.000117129
17 *541:36 *566:35 0.000288144
18 *1903:B *541:18 0.000225609
19 *1903:D *1904:A2 5.52302e-05
20 *1903:D *541:18 9.60875e-05
21 *1904:A1 *1904:A2 6.68328e-05
22 *1904:A1 *541:12 0.000103036
23 *1927:B *1927:C 5.52302e-05
24 *1930:C *541:36 0.000128168
25 *1978:C1 *541:18 0.000308245
26 *1978:C1 *541:36 4.19727e-05
27 *1984:A *541:36 5.33005e-05
28 *307:10 *541:36 6.81083e-05
29 *366:12 *1983:C 5.33005e-05
30 *521:47 *1983:C 0.000202043
31 *521:47 *541:36 0.000114797
32 *525:12 *1927:C 3.8274e-05
33 *525:12 *1928:A2 6.05161e-06
34 *525:16 *1928:A2 5.02383e-05
35 *527:18 *541:36 9.76491e-05
36 *527:76 *1904:A2 4.63947e-05
37 *527:76 *541:18 2.28598e-05
38 *534:147 *541:18 0.000166993
39 *538:28 *541:12 3.48235e-05
40 *538:45 *541:12 3.17148e-05
41 *538:49 *1927:C 0.000139913
42 *538:49 *1928:A2 9.46067e-05
*RES
1 *2078:X *541:12 20.9964 
2 *541:12 *541:18 16.9286 
3 *541:18 *541:36 15.7902 
4 *541:36 *1983:C 11.9384 
5 *541:36 *1982:A2 9.3 
6 *541:18 *541:54 4.5 
7 *541:54 *1928:A2 10.6795 
8 *541:54 *1927:C 10.6571 
9 *541:12 *1903:C 9.3 
10 *541:12 *1904:A2 11.9384 
*END

*D_NET *542 0.0273198
*CONN
*I *2078:A I *D sky130_fd_sc_hd__buf_1
*I *2077:A I *D sky130_fd_sc_hd__buf_2
*I *1870:A I *D sky130_fd_sc_hd__xnor2_1
*I *1645:A I *D sky130_fd_sc_hd__nor2_1
*I *1591:A I *D sky130_fd_sc_hd__inv_2
*I *1766:B2 I *D sky130_fd_sc_hd__o32a_1
*I *1750:B1 I *D sky130_fd_sc_hd__o22a_1
*I *1748:A I *D sky130_fd_sc_hd__xnor2_1
*I *2079:X O *D sky130_fd_sc_hd__clkbuf_4
*CAP
1 *2078:A 0.000738436
2 *2077:A 0
3 *1870:A 0
4 *1645:A 0.00105059
5 *1591:A 0.000109514
6 *1766:B2 6.76293e-05
7 *1750:B1 6.33912e-05
8 *1748:A 0.000167623
9 *2079:X 0
10 *542:141 0.00265885
11 *542:120 0.00269935
12 *542:109 0.00163198
13 *542:63 0.00164571
14 *542:55 0.00250992
15 *542:36 0.00131786
16 *542:21 0.000336265
17 *542:4 0.000361515
18 *1645:A *546:121 0.00108005
19 *1645:A *565:54 0.000151566
20 *542:21 *1757:A2 9.60875e-05
21 *542:55 *1757:A2 1.21258e-05
22 *542:55 *558:8 0.000172804
23 *542:55 *559:12 2.59355e-05
24 *542:55 *565:8 6.38291e-06
25 *542:109 *1725:A 0.000135028
26 *542:109 *1847:A 1.4487e-05
27 *542:109 *543:108 5.19805e-05
28 *542:141 *1597:B 0
29 *542:141 *1605:A1 3.97677e-05
30 *542:141 *2081:A 0.000176437
31 *542:141 *543:42 0
32 *542:141 *545:29 2.42103e-05
33 *542:141 *550:32 0.000137345
34 *542:141 *550:41 1.74352e-05
35 *1596:C *542:63 4.32258e-05
36 *1601:A2 *542:141 0.000243627
37 *1604:A1 *542:141 0.000178847
38 *1608:A1 *542:141 3.67356e-05
39 *1608:A2 *542:141 5.41794e-05
40 *1618:B *542:141 0.000136951
41 *1663:B *1645:A 0.000138089
42 *1675:A *1645:A 5.59013e-05
43 *1679:A *1645:A 5.52238e-05
44 *1722:A0 *1645:A 0.00010096
45 *1732:A *542:109 2.58821e-05
46 *1735:B1 *542:63 0.000127446
47 *1749:C *1748:A 8.59039e-05
48 *1751:B *1750:B1 8.07879e-05
49 *1757:A3 *1766:B2 4.43046e-05
50 *1757:A3 *542:36 6.0038e-05
51 *1757:B1 *1750:B1 9.22948e-05
52 *1757:B1 *542:36 8.01149e-05
53 *1761:C *542:63 0.000139777
54 *1780:A1 *542:63 0.000330079
55 *1782:A *542:55 7.58495e-05
56 *1782:B *542:55 0.000351388
57 *1783:A *542:109 0.00103743
58 *1783:B *542:109 0.000148189
59 *1785:A *542:109 4.49293e-05
60 *1787:B1 *542:55 1.34631e-05
61 *1791:A *542:109 0.000211125
62 *1847:B *542:109 0.0001399
63 *1855:B *542:141 5.33005e-05
64 *1855:C *542:141 6.47313e-05
65 *1863:B *542:141 0.000173083
66 *1869:B1 *542:109 7.32272e-05
67 *1870:B *542:109 9.90431e-05
68 *1872:A *542:120 0
69 *1922:B1 *542:120 1.38167e-05
70 *1922:B1 *542:141 0
71 *1968:A3 *542:141 0
72 *2079:A *1748:A 6.0038e-05
73 *52:10 *1645:A 0.000110231
74 *52:23 *1645:A 0.000131491
75 *53:10 *1645:A 8.03053e-05
76 *61:26 *1645:A 0.000172375
77 *97:10 *542:63 0.000647016
78 *97:10 *542:109 9.25014e-06
79 *97:21 *542:109 0.00014209
80 *107:6 *542:109 2.89016e-05
81 *110:14 *542:55 9.35794e-06
82 *121:29 *1766:B2 0.000125724
83 *121:29 *542:36 2.04866e-05
84 *130:14 *542:63 4.98055e-06
85 *132:10 *542:21 5.33005e-05
86 *135:18 *1750:B1 0.000173083
87 *135:18 *1766:B2 6.8646e-06
88 *135:18 *542:36 2.39948e-05
89 *155:14 *542:63 0.000342393
90 *155:14 *542:109 2.04866e-05
91 *221:12 *542:109 0.000353086
92 *233:12 *542:141 6.53381e-05
93 *241:39 *1645:A 0.000529507
94 *253:12 *2078:A 0.000249009
95 *283:8 *1591:A 0.000144773
96 *283:8 *1645:A 8.57023e-05
97 *283:67 *1645:A 0.00018168
98 *283:85 *542:63 0.000113877
99 *369:14 *542:141 0.00016384
100 *391:12 *542:141 1.21955e-05
101 *391:16 *542:141 0
102 *471:49 *1591:A 2.14757e-05
103 *471:49 *1645:A 1.98839e-05
104 *474:14 *542:141 0
105 *479:10 *1645:A 0.000178847
106 *490:27 *542:141 0.000173804
107 *515:33 *1645:A 0.000250201
108 *527:109 *2078:A 0.00018372
109 *531:72 *542:63 0
110 *534:118 *542:141 0
111 *538:12 *542:120 0
112 *538:12 *542:141 2.83284e-06
113 *540:33 *542:141 0.000288576
114 *541:12 *2078:A 2.89114e-05
*RES
1 *2079:X *542:4 9.3 
2 *542:4 *1748:A 22.1036 
3 *542:4 *542:21 7.5 
4 *542:21 *1750:B1 16.05 
5 *542:21 *542:36 6.375 
6 *542:36 *1766:B2 19.9429 
7 *542:36 *542:55 19.4464 
8 *542:55 *542:63 19.5536 
9 *542:63 *1591:A 11.4964 
10 *542:63 *1645:A 47.9429 
11 *542:55 *542:109 27.0714 
12 *542:109 *1870:A 9.3 
13 *542:109 *542:120 16.5893 
14 *542:120 *2077:A 13.8 
15 *542:120 *542:141 49.1071 
16 *542:141 *2078:A 22.9786 
*END

*D_NET *543 0.0189275
*CONN
*I *1869:A3 I *D sky130_fd_sc_hd__o31a_1
*I *1725:A I *D sky130_fd_sc_hd__and2_1
*I *1724:A I *D sky130_fd_sc_hd__nor2_1
*I *1847:A I *D sky130_fd_sc_hd__xnor2_1
*I *1597:B I *D sky130_fd_sc_hd__or2_4
*I *1605:A1 I *D sky130_fd_sc_hd__a211oi_2
*I *1618:A I *D sky130_fd_sc_hd__nor2_1
*I *1619:A I *D sky130_fd_sc_hd__or2_1
*I *1592:A I *D sky130_fd_sc_hd__inv_2
*I *1780:C1 I *D sky130_fd_sc_hd__o211a_1
*I *2080:X O *D sky130_fd_sc_hd__clkbuf_4
*CAP
1 *1869:A3 0
2 *1725:A 0.000401485
3 *1724:A 3.98048e-05
4 *1847:A 4.5906e-05
5 *1597:B 0.000471988
6 *1605:A1 4.29692e-05
7 *1618:A 0.000106412
8 *1619:A 0.000395377
9 *1592:A 0
10 *1780:C1 0.000561253
11 *2080:X 0
12 *543:125 0.000966373
13 *543:108 0.000742213
14 *543:104 0.000460468
15 *543:76 0.000579928
16 *543:63 0.000517422
17 *543:42 0.00119999
18 *543:29 0.000594165
19 *543:23 0.000873136
20 *543:4 0.00100955
21 *1605:A1 *550:32 0.000136951
22 *1619:A *552:38 0.000104181
23 *1619:A *552:46 0.000149904
24 *543:29 *1869:A1 8.16762e-05
25 *543:29 *548:94 0.000127601
26 *543:42 *547:12 0.000223592
27 *543:42 *548:94 0.000733688
28 *543:104 *1869:A1 0.000262146
29 *543:104 *1869:A2 0.000247778
30 *1599:A1 *1597:B 0.00016384
31 *1599:A1 *1618:A 3.34295e-05
32 *1599:A1 *543:76 0.000189455
33 *1601:A2 *543:42 0
34 *1604:A1 *1605:A1 5.52238e-05
35 *1604:A2 *543:42 6.42242e-05
36 *1605:B1 *1597:B 0.000212919
37 *1605:B1 *543:76 9.25014e-06
38 *1607:A2 *1597:B 0.000125724
39 *1619:B *1619:A 6.09476e-05
40 *1725:B *1725:A 4.00679e-05
41 *1728:A0 *543:29 0.000136951
42 *1728:A0 *543:42 0.000254036
43 *1732:A *1847:A 1.24368e-05
44 *1776:B *543:23 5.33005e-05
45 *1778:A1 *1780:C1 5.19718e-05
46 *1778:A2 *1780:C1 0.000169714
47 *1781:A1 *1780:C1 2.95641e-05
48 *1781:B1 *1780:C1 0.000678701
49 *1781:C1 *1780:C1 0.0001888
50 *1781:C1 *543:23 0.000333228
51 *1783:A *1725:A 3.37161e-05
52 *1783:A *543:125 4.06782e-05
53 *1783:B *1725:A 5.33005e-05
54 *1788:B *1780:C1 0.000260574
55 *1847:B *1847:A 6.05161e-06
56 *1847:B *543:108 7.02611e-05
57 *1867:A2 *543:23 0.000476709
58 *1869:B1 *543:108 0.000139907
59 *1968:A3 *1597:B 6.82701e-05
60 *1968:A3 *1618:A 6.75242e-05
61 *1968:A3 *543:76 9.9784e-05
62 *2054:A *543:42 0
63 *97:25 *1725:A 2.42516e-05
64 *219:25 *1847:A 5.33005e-05
65 *219:25 *543:29 0.000101586
66 *219:25 *543:104 0.000362896
67 *219:25 *543:108 0.000332821
68 *219:40 *543:125 3.17148e-05
69 *243:14 *543:23 6.05161e-06
70 *273:25 *543:42 0.000134549
71 *283:85 *1725:A 0.000221163
72 *337:16 *1597:B 6.48878e-05
73 *337:18 *1597:B 1.64815e-05
74 *391:12 *1597:B 3.43988e-06
75 *391:16 *1597:B 0.00020515
76 *423:10 *1619:A 0.000357634
77 *423:10 *543:42 0
78 *454:10 *1618:A 2.9995e-05
79 *474:14 *1619:A 0
80 *474:14 *543:42 0.000164018
81 *493:34 *543:104 1.37292e-05
82 *516:79 *1618:A 0.000171813
83 *516:112 *543:125 7.6021e-05
84 *518:54 *543:42 2.55743e-05
85 *523:39 *1618:A 5.52302e-05
86 *524:107 *1597:B 5.52302e-05
87 *534:118 *543:42 0.000152781
88 *536:16 *1725:A 0.000221163
89 *536:70 *543:125 0.00054826
90 *542:109 *1725:A 0.000135028
91 *542:109 *1847:A 1.4487e-05
92 *542:109 *543:108 5.19805e-05
93 *542:141 *1597:B 0
94 *542:141 *1605:A1 3.97677e-05
95 *542:141 *543:42 0
*RES
1 *2080:X *543:4 9.3 
2 *543:4 *1780:C1 30.55 
3 *543:4 *543:23 14.0714 
4 *543:23 *543:29 8.41071 
5 *543:29 *1592:A 9.3 
6 *543:29 *543:42 23.5179 
7 *543:42 *1619:A 27.425 
8 *543:42 *543:63 9.55357 
9 *543:63 *1618:A 16.8893 
10 *543:63 *543:76 2.55357 
11 *543:76 *1605:A1 15.1571 
12 *543:76 *1597:B 24.8357 
13 *543:23 *543:104 14.0357 
14 *543:104 *543:108 4.66071 
15 *543:108 *1847:A 10.2643 
16 *543:108 *543:125 20.9286 
17 *543:125 *1724:A 9.83571 
18 *543:125 *1725:A 26.2286 
19 *543:104 *1869:A3 9.3 
*END

*D_NET *544 0.0209296
*CONN
*I *2064:A I *D sky130_fd_sc_hd__buf_2
*I *1841:A I *D sky130_fd_sc_hd__xnor2_1
*I *1840:A I *D sky130_fd_sc_hd__nand2_1
*I *2107:X O *D sky130_fd_sc_hd__clkbuf_2
*CAP
1 *2064:A 0
2 *1841:A 0.000338381
3 *1840:A 1.29046e-05
4 *2107:X 0.000940124
5 *544:34 0.0019604
6 *544:28 0.00402754
7 *544:18 0.00335855
8 *544:18 *2062:A 0.000402784
9 *544:34 *551:107 0.000150625
10 *544:34 *551:120 0.000419754
11 *1617:A *544:28 3.67142e-05
12 *1622:B1 *544:28 2.89016e-05
13 *1638:B1 *544:28 0.000391006
14 *1663:A *544:34 0.000175519
15 *1668:A *544:28 0.000139019
16 *1685:B *544:34 8.15939e-05
17 *1791:A *544:34 0
18 *1795:B1 *544:34 8.86448e-05
19 *1795:C1 *544:34 0.000149543
20 *1825:A1 *544:34 3.75159e-05
21 *1827:B *1841:A 0.000157225
22 *1838:B *544:34 8.89385e-05
23 *1839:B *1841:A 0.000173797
24 *1839:B *544:34 0
25 *1843:B1 *1840:A 5.71472e-05
26 *1844:A1 *1841:A 0
27 *1846:B1 *544:34 9.1469e-05
28 *1847:B *544:34 0.000148189
29 *1852:A3 *1841:A 0
30 *1852:B1 *1841:A 8.49352e-05
31 *1868:A2 *1841:A 1.94012e-05
32 *2003:B *544:18 0
33 *2043:A *544:18 0
34 *2060:A *544:18 9.47712e-05
35 *2067:A *544:18 0.000153047
36 *2069:A *1841:A 0.000643754
37 *2070:A *1841:A 4.43081e-05
38 *2106:A *544:18 6.30405e-05
39 *2107:A *544:18 7.6176e-05
40 *43:6 *544:28 0.000115971
41 *45:56 *544:34 0
42 *191:24 *544:34 0.000231012
43 *214:12 *1840:A 1.92905e-05
44 *221:12 *544:34 0
45 *287:12 *544:28 0.000227526
46 *326:18 *1841:A 0.000359997
47 *388:10 *544:18 5.62995e-05
48 *431:12 *544:18 0.000409029
49 *443:20 *544:28 8.00346e-05
50 *471:6 *544:28 0.000177729
51 *471:10 *544:28 1.36858e-05
52 *493:23 *544:34 0.000383399
53 *493:34 *544:34 1.37022e-05
54 *501:8 *1841:A 2.09413e-05
55 *516:23 *544:34 1.50087e-05
56 *516:38 *544:34 0.000367396
57 *516:40 *544:34 5.83304e-05
58 *516:42 *544:34 0.000173812
59 *516:112 *544:34 0.000570331
60 *519:29 *544:28 0.000232695
61 *519:58 *544:28 0.000820294
62 *519:125 *544:28 7.45591e-05
63 *523:16 *544:18 6.42095e-05
64 *523:16 *544:28 0.00098522
65 *523:52 *544:34 1.31516e-05
66 *524:6 *544:18 0.000227539
67 *524:25 *544:28 0.00053011
68 *529:63 *544:34 5.26224e-05
*RES
1 *2107:X *544:18 41.1214 
2 *544:18 *544:28 47.9464 
3 *544:28 *544:34 48.7857 
4 *544:34 *1840:A 14.3357 
5 *544:34 *1841:A 24.8625 
6 *544:18 *2064:A 9.3 
*END

*D_NET *545 0.012273
*CONN
*I *1864:A2 I *D sky130_fd_sc_hd__o22a_1
*I *1857:B I *D sky130_fd_sc_hd__and4b_1
*I *1878:B I *D sky130_fd_sc_hd__nand2_1
*I *1862:B I *D sky130_fd_sc_hd__nand2_1
*I *1856:A2_N I *D sky130_fd_sc_hd__o2bb2a_1
*I *1865:A2 I *D sky130_fd_sc_hd__a32o_1
*I *2081:X O *D sky130_fd_sc_hd__clkbuf_2
*CAP
1 *1864:A2 0.000206023
2 *1857:B 0
3 *1878:B 0.000201178
4 *1862:B 0.00022661
5 *1856:A2_N 0.000224363
6 *1865:A2 0.000540733
7 *2081:X 0
8 *545:46 0.000569208
9 *545:37 0.000417913
10 *545:33 0.000547363
11 *545:29 0.00193665
12 *545:4 0.00177613
13 *545:29 *2081:A 7.53309e-05
14 *1836:A2 *545:29 5.21731e-05
15 *1836:A3 *545:29 2.27372e-05
16 *1836:B1 *545:29 1.1671e-05
17 *1837:C *545:29 9.58181e-05
18 *1856:A1_N *1856:A2_N 2.08273e-05
19 *1857:D *1856:A2_N 0.000211562
20 *1861:B *545:33 0
21 *1862:A *1862:B 5.71472e-05
22 *1863:B *1862:B 0.000451863
23 *1863:B *545:33 0
24 *1863:B *545:37 0
25 *1865:A3 *1865:A2 5.9122e-05
26 *1865:B1 *1865:A2 0.000117552
27 *1866:A2 *545:33 5.20232e-05
28 *1867:C1 *545:29 6.89173e-05
29 *1893:B1 *1864:A2 0.000140933
30 *1894:A2 *1865:A2 1.39726e-05
31 *1894:A3 *1865:A2 2.89114e-05
32 *1894:B1 *1865:A2 1.66856e-05
33 *1909:A *1862:B 5.59013e-05
34 *1922:B1 *545:29 6.14278e-05
35 *188:28 *1864:A2 0.000505136
36 *188:28 *545:29 0.000350311
37 *190:27 *545:33 0
38 *233:12 *545:33 6.09572e-05
39 *256:12 *1862:B 5.52238e-05
40 *490:27 *1878:B 6.5185e-05
41 *490:27 *545:33 0
42 *520:18 *545:29 0.000940962
43 *523:16 *1862:B 1.65558e-05
44 *523:39 *1862:B 0.000104267
45 *524:107 *1865:A2 4.53889e-05
46 *524:113 *1865:A2 2.81249e-05
47 *526:62 *1864:A2 0.000435845
48 *527:109 *1856:A2_N 5.52238e-05
49 *527:109 *1878:B 0.000350813
50 *527:109 *545:46 0.000228558
51 *528:22 *545:29 9.41642e-05
52 *528:34 *545:29 0.000135028
53 *529:51 *545:29 4.80438e-05
54 *532:24 *1862:B 0
55 *532:24 *545:33 0.000414061
56 *532:24 *545:37 2.61337e-05
57 *538:24 *545:29 2.80429e-05
58 *542:141 *545:29 2.42103e-05
*RES
1 *2081:X *545:4 9.3 
2 *545:4 *1865:A2 16.0143 
3 *545:4 *545:29 38.8929 
4 *545:29 *545:33 14.9464 
5 *545:33 *545:37 5.23214 
6 *545:37 *1856:A2_N 12.3 
7 *545:37 *545:46 2.17857 
8 *545:46 *1862:B 25.3357 
9 *545:46 *1878:B 22.1214 
10 *545:33 *1857:B 13.8 
11 *545:29 *1864:A2 15.5857 
*END

*D_NET *546 0.025666
*CONN
*I *2081:A I *D sky130_fd_sc_hd__clkbuf_2
*I *2080:A I *D sky130_fd_sc_hd__clkbuf_4
*I *1710:A I *D sky130_fd_sc_hd__and3_1
*I *1709:B1 I *D sky130_fd_sc_hd__a21oi_1
*I *2032:B I *D sky130_fd_sc_hd__nand2_1
*I *1932:A2 I *D sky130_fd_sc_hd__a31oi_2
*I *1933:B I *D sky130_fd_sc_hd__nand2_1
*I *1986:B I *D sky130_fd_sc_hd__nand2_1
*I *1652:A I *D sky130_fd_sc_hd__nand2_1
*I *2082:X O *D sky130_fd_sc_hd__buf_2
*CAP
1 *2081:A 0.00138747
2 *2080:A 0.000268407
3 *1710:A 4.41864e-05
4 *1709:B1 0.000294404
5 *2032:B 0
6 *1932:A2 0.000244601
7 *1933:B 0
8 *1986:B 0
9 *1652:A 0.000106614
10 *2082:X 0
11 *546:121 0.00275272
12 *546:81 0.0013437
13 *546:73 0.00263649
14 *546:44 0.000755321
15 *546:35 0.0019793
16 *546:27 0.00288512
17 *546:10 0.00158658
18 *546:6 0.000597962
19 *1932:A2 *1934:B 0
20 *546:27 *549:23 0
21 *546:27 *551:49 0
22 *546:27 *552:46 0.000226934
23 *546:27 *552:56 7.83366e-05
24 *546:35 *1989:B2 6.44345e-05
25 *546:35 *2032:A 0.000202603
26 *546:35 *552:56 5.19842e-06
27 *546:44 *1934:B 0
28 *546:73 *556:10 4.78056e-05
29 *546:121 *1692:A1 4.66203e-05
30 *546:121 *548:18 0
31 *546:121 *556:10 0.000201611
32 *546:121 *565:54 0.00058702
33 *1645:A *546:121 0.00108005
34 *1650:A0 *546:27 0.000272993
35 *1663:B *546:121 6.39808e-05
36 *1664:B *546:73 0.000133797
37 *1670:A1 *546:73 0.000170661
38 *1671:A3 *546:73 0.000170661
39 *1687:B *546:73 0
40 *1696:A *546:73 0
41 *1696:B *1652:A 5.30479e-05
42 *1698:B1 *1709:B1 0
43 *1698:B1 *546:73 3.24051e-05
44 *1703:A2 *1709:B1 2.38651e-06
45 *1709:A1 *1709:B1 6.52971e-06
46 *1709:A2 *1709:B1 0.000157299
47 *1721:A *546:121 2.91887e-05
48 *1721:B *546:121 0
49 *1722:A1 *546:121 7.83587e-05
50 *1731:B *546:121 4.75521e-05
51 *1733:B *2080:A 8.47538e-05
52 *1733:B *2081:A 2.59123e-05
53 *1746:A0 *546:81 7.70035e-05
54 *1776:A *546:121 4.15183e-05
55 *1867:A2 *546:121 0
56 *1894:A2 *2081:A 0.000104554
57 *1894:B1 *2081:A 0.000120909
58 *1896:C1 *2081:A 0.000535712
59 *1922:B1 *2081:A 1.48981e-05
60 *1932:A3 *1932:A2 5.52238e-05
61 *2035:A *546:35 0.000188586
62 *2035:B *546:27 0
63 *2036:A *546:35 0.000227322
64 *2037:A *1932:A2 0
65 *2037:A *546:35 0
66 *2037:A *546:44 0
67 *2037:B *546:35 4.17806e-05
68 *41:8 *546:73 6.74911e-05
69 *41:19 *546:73 1.08359e-05
70 *52:10 *546:121 2.04825e-05
71 *61:26 *546:121 0.000169939
72 *64:14 *546:121 0.000153839
73 *74:8 *1709:B1 9.83388e-05
74 *82:20 *546:81 3.42301e-05
75 *82:24 *1710:A 5.49489e-05
76 *105:10 *2080:A 4.28249e-05
77 *205:64 *2081:A 0.000137821
78 *241:39 *546:73 6.80581e-05
79 *241:39 *546:121 2.14378e-05
80 *283:26 *1709:B1 9.83388e-05
81 *283:26 *546:81 8.03176e-05
82 *283:67 *546:81 0.000154101
83 *312:12 *546:44 0
84 *326:86 *2081:A 0
85 *375:12 *546:35 1.87955e-05
86 *375:12 *546:44 0.000144764
87 *471:20 *546:121 0.00019384
88 *479:10 *546:73 6.73939e-05
89 *479:10 *546:121 5.83304e-05
90 *479:12 *546:73 6.81083e-05
91 *483:8 *1652:A 9.90431e-05
92 *483:8 *546:27 0.00065425
93 *484:10 *546:73 9.87983e-06
94 *485:12 *1652:A 1.33343e-05
95 *485:25 *546:73 0.000196269
96 *493:10 *546:10 0
97 *493:10 *546:73 0
98 *495:12 *546:10 5.33978e-05
99 *495:12 *546:73 2.82057e-05
100 *510:12 *2080:A 0
101 *512:51 *546:121 0
102 *515:33 *546:121 0.000142903
103 *515:42 *546:121 0.000117191
104 *518:33 *546:44 0
105 *519:12 *1932:A2 6.5185e-05
106 *519:25 *1932:A2 0.000109809
107 *539:85 *546:121 0
108 *542:141 *2081:A 0.000176437
109 *545:29 *2081:A 7.53309e-05
*RES
1 *2082:X *546:6 13.8 
2 *546:6 *546:10 5.83929 
3 *546:10 *1652:A 11.4964 
4 *546:10 *546:27 34.8036 
5 *546:27 *546:35 25.6607 
6 *546:35 *1986:B 13.8 
7 *546:35 *546:44 9.83929 
8 *546:44 *1933:B 13.8 
9 *546:44 *1932:A2 19.0143 
10 *546:27 *2032:B 9.3 
11 *546:6 *546:73 13.3393 
12 *546:73 *546:81 22.3125 
13 *546:81 *1709:B1 19.7732 
14 *546:81 *1710:A 14.6125 
15 *546:73 *546:121 38.52 
16 *546:121 *2080:A 18.3418 
17 *546:121 *2081:A 22.8297 
*END

*D_NET *547 0.0129713
*CONN
*I *1830:A2 I *D sky130_fd_sc_hd__o22a_1
*I *1828:B I *D sky130_fd_sc_hd__and2_1
*I *1881:A2 I *D sky130_fd_sc_hd__a21oi_1
*I *1880:B I *D sky130_fd_sc_hd__and3_1
*I *1599:A2 I *D sky130_fd_sc_hd__o41ai_4
*I *1807:B I *D sky130_fd_sc_hd__or3_1
*I *1598:B1 I *D sky130_fd_sc_hd__a2111oi_1
*I *1601:A1 I *D sky130_fd_sc_hd__a211o_1
*I *1603:A I *D sky130_fd_sc_hd__or2_1
*I *1602:A I *D sky130_fd_sc_hd__nor2_1
*I *2083:X O *D sky130_fd_sc_hd__buf_2
*CAP
1 *1830:A2 0.000411788
2 *1828:B 0
3 *1881:A2 5.85778e-05
4 *1880:B 1.707e-05
5 *1599:A2 0.000158078
6 *1807:B 0.000131927
7 *1598:B1 0
8 *1601:A1 5.19471e-05
9 *1603:A 0
10 *1602:A 5.93083e-05
11 *2083:X 0
12 *547:96 0.000261442
13 *547:88 0.000413861
14 *547:82 0.00102481
15 *547:65 0.000733605
16 *547:45 0.000471272
17 *547:37 0.000771952
18 *547:26 0.000518384
19 *547:12 0.000348314
20 *547:4 0.000513413
21 *1601:A1 *1832:B1 1.21258e-05
22 *1830:A2 *550:54 0
23 *1830:A2 *550:65 0
24 *547:12 *1832:B1 8.07397e-06
25 *547:12 *548:94 0.000183726
26 *547:26 *1832:B1 2.13481e-06
27 *547:37 *1832:B1 7.49387e-06
28 *547:65 *1832:B1 5.90455e-05
29 *547:65 *554:75 0.000148281
30 *547:82 *1833:A 9.90431e-05
31 *1599:A4 *547:82 1.39726e-05
32 *1599:B1 *547:82 0.000140933
33 *1601:A2 *1602:A 9.90431e-05
34 *1601:A2 *547:12 6.05161e-06
35 *1601:A2 *547:26 0.000113073
36 *1601:C1 *1601:A1 1.73088e-05
37 *1601:C1 *547:37 0.000137983
38 *1607:A2 *1601:A1 1.24368e-05
39 *1607:A2 *547:37 2.05612e-05
40 *1607:B1 *547:37 2.89016e-05
41 *1641:A1 *1599:A2 1.24368e-05
42 *1832:A2 *547:88 1.09026e-05
43 *1833:B *1830:A2 6.87834e-06
44 *1833:B *547:82 2.27416e-05
45 *1833:C *547:82 8.08483e-05
46 *1853:B1 *547:88 1.24368e-05
47 *1862:A *1881:A2 6.24995e-05
48 *1878:A *547:96 5.33005e-05
49 *1881:B1 *1881:A2 9.31356e-05
50 *1968:A2 *547:45 0.00048485
51 *1968:A2 *547:65 0.000287707
52 *38:34 *1881:A2 2.10884e-06
53 *182:16 *1807:B 4.45768e-06
54 *182:16 *547:45 1.58213e-06
55 *188:28 *1830:A2 0.000118057
56 *202:21 *547:88 0.000408577
57 *202:32 *547:88 8.98585e-05
58 *202:43 *1830:A2 0.000507719
59 *202:43 *547:88 2.24646e-05
60 *207:6 *547:82 3.69047e-06
61 *256:12 *1881:A2 3.15473e-05
62 *326:78 *1807:B 0.000137983
63 *326:78 *547:45 5.18707e-05
64 *326:86 *547:45 1.03483e-05
65 *337:60 *547:45 3.69047e-06
66 *348:10 *547:45 0.000167174
67 *348:32 *547:45 0.000277448
68 *369:6 *1599:A2 0.000114645
69 *369:6 *547:82 2.89114e-05
70 *369:10 *1599:A2 2.89114e-05
71 *380:12 *1602:A 5.52238e-05
72 *518:54 *547:12 0.000142327
73 *520:18 *1830:A2 0.000224583
74 *521:83 *1881:A2 9.41642e-05
75 *523:39 *547:88 4.88637e-05
76 *523:39 *547:96 9.60875e-05
77 *525:59 *1880:B 5.7616e-05
78 *525:59 *547:88 2.8266e-06
79 *525:59 *547:96 0.000379603
80 *529:35 *1830:A2 0.000189028
81 *529:35 *547:88 0.000547842
82 *532:24 *1880:B 5.58941e-05
83 *532:24 *547:96 0.000388146
84 *534:118 *547:12 2.16719e-05
85 *538:24 *547:82 0.000249066
86 *543:42 *547:12 0.000223592
*RES
1 *2083:X *547:4 9.3 
2 *547:4 *547:12 15.0536 
3 *547:12 *1602:A 10.6571 
4 *547:12 *1603:A 9.3 
5 *547:4 *547:26 3 
6 *547:26 *1601:A1 10.5679 
7 *547:26 *547:37 3 
8 *547:37 *547:45 17.8571 
9 *547:45 *1598:B1 9.3 
10 *547:45 *1807:B 11.0679 
11 *547:37 *547:65 13.7143 
12 *547:65 *1599:A2 12.3179 
13 *547:65 *547:82 12.9821 
14 *547:82 *547:88 12.5536 
15 *547:88 *547:96 10.8571 
16 *547:96 *1880:B 14.5321 
17 *547:96 *1881:A2 15.8625 
18 *547:88 *1828:B 9.3 
19 *547:82 *1830:A2 22.7821 
*END

*D_NET *548 0.0130835
*CONN
*I *2083:A I *D sky130_fd_sc_hd__buf_2
*I *1832:B1 I *D sky130_fd_sc_hd__a22o_1
*I *1590:A I *D sky130_fd_sc_hd__inv_2
*I *1869:A2 I *D sky130_fd_sc_hd__o31a_1
*I *1846:A2 I *D sky130_fd_sc_hd__o21a_1
*I *1731:A I *D sky130_fd_sc_hd__xnor2_2
*I *1681:B1 I *D sky130_fd_sc_hd__a21o_1
*I *1682:A I *D sky130_fd_sc_hd__and3_1
*I *2084:X O *D sky130_fd_sc_hd__buf_2
*CAP
1 *2083:A 0
2 *1832:B1 0.00101582
3 *1590:A 0.000358729
4 *1869:A2 0.000190952
5 *1846:A2 0
6 *1731:A 0.000122688
7 *1681:B1 0
8 *1682:A 0.000250608
9 *2084:X 0.000104839
10 *548:94 0.00151968
11 *548:73 0.000862586
12 *548:53 0.000633838
13 *548:38 0.000820261
14 *548:18 0.000686126
15 *548:10 0.000948438
16 *548:6 0.000363071
17 *1590:A *1585:A 5.71865e-05
18 *1590:A *1869:A1 0.000198691
19 *1590:A *2086:A 2.14658e-05
20 *1590:A *550:6 4.87953e-05
21 *1590:A *550:21 1.54142e-05
22 *1590:A *550:32 2.65563e-05
23 *1590:A *551:120 2.89114e-05
24 *1869:A2 *1869:A1 0.000250201
25 *548:18 *565:54 0
26 *548:94 *1869:A1 0.000191403
27 *1601:A1 *1832:B1 1.21258e-05
28 *1601:A2 *1832:B1 8.02593e-05
29 *1601:C1 *1832:B1 1.76939e-05
30 *1604:A1 *1590:A 0
31 *1607:A2 *1832:B1 6.57032e-05
32 *1607:B1 *1832:B1 4.00802e-05
33 *1663:A *1682:A 0
34 *1681:A1 *1682:A 7.83366e-05
35 *1683:B *548:18 0
36 *1685:A *548:10 5.33005e-05
37 *1721:A *548:18 0
38 *1721:B *548:18 7.24248e-05
39 *1727:B *548:10 6.05161e-06
40 *1727:B *548:18 7.79212e-05
41 *1728:A1 *548:10 5.52302e-05
42 *1728:A1 *548:38 0.000148189
43 *1731:B *548:38 0
44 *1776:B *548:38 0
45 *1783:A *548:53 2.79092e-05
46 *1867:A2 *548:38 0.000175512
47 *1896:A2 *1682:A 6.28356e-05
48 *1924:A2 *1590:A 2.49484e-05
49 *51:8 *1682:A 5.43491e-05
50 *106:36 *1731:A 3.18676e-05
51 *106:36 *548:53 0
52 *107:10 *548:53 0
53 *107:12 *548:53 0
54 *107:23 *548:53 0
55 *219:10 *1590:A 8.89104e-05
56 *219:25 *1590:A 2.66026e-05
57 *219:25 *548:94 4.93504e-05
58 *294:43 *548:94 0.000183713
59 *440:28 *1832:B1 5.52238e-05
60 *493:23 *1590:A 0
61 *512:51 *548:18 9.25014e-06
62 *512:51 *548:38 7.56271e-05
63 *516:6 *548:10 0.000309273
64 *516:23 *548:18 3.0911e-05
65 *516:38 *548:18 0
66 *516:40 *1682:A 0
67 *516:40 *548:18 0
68 *516:42 *1682:A 0
69 *516:112 *548:18 4.98055e-06
70 *516:112 *548:38 0.000206001
71 *516:112 *548:53 0.000158426
72 *518:54 *1590:A 5.52302e-05
73 *523:52 *548:18 0
74 *528:14 *1832:B1 4.87854e-05
75 *529:51 *1832:B1 0.000113298
76 *534:118 *548:94 8.25843e-06
77 *536:70 *1869:A2 0.000178847
78 *536:70 *548:53 0.000310298
79 *543:29 *548:94 0.000127601
80 *543:42 *548:94 0.000733688
81 *543:104 *1869:A2 0.000247778
82 *546:121 *548:18 0
83 *547:12 *1832:B1 8.07397e-06
84 *547:12 *548:94 0.000183726
85 *547:26 *1832:B1 2.13481e-06
86 *547:37 *1832:B1 7.49387e-06
87 *547:65 *1832:B1 5.90455e-05
*RES
1 *2084:X *548:6 10.6571 
2 *548:6 *548:10 9.14286 
3 *548:10 *548:18 8.91071 
4 *548:18 *1682:A 18.7286 
5 *548:18 *1681:B1 13.8 
6 *548:10 *548:38 7.10714 
7 *548:38 *1731:A 15.9786 
8 *548:38 *548:53 11.5714 
9 *548:53 *1846:A2 9.3 
10 *548:53 *1869:A2 23.2286 
11 *548:6 *548:73 4.5 
12 *548:73 *1590:A 22.0321 
13 *548:73 *548:94 16.6429 
14 *548:94 *1832:B1 24.4964 
15 *548:94 *2083:A 9.3 
*END

*D_NET *549 0.0112602
*CONN
*I *1907:B I *D sky130_fd_sc_hd__and3_1
*I *1934:B I *D sky130_fd_sc_hd__and3_1
*I *1879:B I *D sky130_fd_sc_hd__nand2_1
*I *1935:A2 I *D sky130_fd_sc_hd__a21oi_1
*I *1989:B1 I *D sky130_fd_sc_hd__a22oi_1
*I *1988:B I *D sky130_fd_sc_hd__and3_1
*I *1634:A3 I *D sky130_fd_sc_hd__a31o_1
*I *1633:B1 I *D sky130_fd_sc_hd__a21o_1
*I *1660:C1 I *D sky130_fd_sc_hd__o211ai_2
*I *1987:B I *D sky130_fd_sc_hd__nand2_1
*I *2085:X O *D sky130_fd_sc_hd__buf_2
*CAP
1 *1907:B 0.00031264
2 *1934:B 0.000190233
3 *1879:B 3.00142e-05
4 *1935:A2 7.92214e-05
5 *1989:B1 8.48726e-05
6 *1988:B 0
7 *1634:A3 0
8 *1633:B1 6.02729e-05
9 *1660:C1 0.000692299
10 *1987:B 0.000245622
11 *2085:X 0
12 *549:118 0.00054355
13 *549:107 0.000562824
14 *549:92 0.000679083
15 *549:81 0.000295556
16 *549:72 0.000814794
17 *549:44 0.000113444
18 *549:23 0.0010162
19 *549:19 0.00117438
20 *549:4 0.000437428
21 *1660:C1 *552:46 0
22 *1987:B *552:46 0.000128941
23 *1987:B *552:56 5.80706e-06
24 *1989:B1 *1988:A 6.19181e-05
25 *549:23 *551:41 0
26 *549:23 *551:49 0
27 *549:23 *552:46 0
28 *549:107 *1653:A 4.43256e-05
29 *549:107 *554:36 0
30 *549:107 *554:58 0
31 *1634:A1 *1633:B1 5.42784e-05
32 *1634:A2 *1633:B1 8.75724e-05
33 *1636:C1 *1660:C1 0.000201057
34 *1642:A1 *1660:C1 9.90367e-05
35 *1642:A2 *1660:C1 8.86413e-05
36 *1653:B *1879:B 3.57366e-05
37 *1653:B *549:107 0.000142856
38 *1655:B *549:107 5.03772e-05
39 *1657:C1 *1660:C1 0.000155761
40 *1660:A2 *1660:C1 2.59355e-05
41 *1907:C *1907:B 2.98493e-05
42 *1908:A1 *1907:B 5.982e-05
43 *1908:A2 *549:107 5.19842e-06
44 *1908:A2 *549:118 5.39166e-06
45 *1908:B1 *1907:B 0.000206464
46 *1932:A2 *1934:B 0
47 *1988:C *1989:B1 3.38136e-05
48 *1988:C *549:92 0.000116882
49 *1988:C *549:107 7.79781e-06
50 *1990:A *549:72 3.67142e-05
51 *1990:A *549:81 4.70078e-05
52 *1990:B *1989:B1 1.3142e-05
53 *2031:B1_N *549:72 1.94094e-05
54 *2085:A *1987:B 4.04277e-05
55 *439:20 *1660:C1 1.41029e-05
56 *448:33 *1935:A2 0.000183726
57 *453:14 *1660:C1 0.000123288
58 *463:8 *1660:C1 6.09572e-05
59 *463:27 *1633:B1 0.000113476
60 *463:27 *1660:C1 0
61 *463:27 *549:23 0
62 *464:14 *1633:B1 0.000121702
63 *466:10 *1660:C1 1.5942e-05
64 *467:10 *1660:C1 0
65 *469:6 *1660:C1 4.05276e-05
66 *475:8 *1660:C1 0.00051967
67 *486:8 *549:107 8.43535e-06
68 *492:77 *1989:B1 0.000198698
69 *492:77 *549:92 0.000226751
70 *492:77 *549:107 0.000175786
71 *517:58 *1907:B 0
72 *517:62 *1934:B 0
73 *518:33 *1934:B 4.46186e-06
74 *519:12 *1907:B 3.17163e-05
75 *519:12 *1934:B 3.92757e-05
76 *519:25 *1907:B 0.000245124
77 *546:27 *549:23 0
78 *546:44 *1934:B 0
*RES
1 *2085:X *549:4 9.3 
2 *549:4 *1987:B 22.8179 
3 *549:4 *549:19 2.17857 
4 *549:19 *549:23 8.57143 
5 *549:23 *1660:C1 28.7286 
6 *549:23 *549:44 5.03571 
7 *549:44 *1633:B1 12.5455 
8 *549:44 *1634:A3 9.3 
9 *549:19 *549:72 8.33929 
10 *549:72 *1988:B 9.3 
11 *549:72 *549:81 5.85714 
12 *549:81 *1989:B1 16.6571 
13 *549:81 *549:92 4.07143 
14 *549:92 *1935:A2 15.5679 
15 *549:92 *549:107 12.6964 
16 *549:107 *1879:B 10.0321 
17 *549:107 *549:118 5.03571 
18 *549:118 *1934:B 17.2643 
19 *549:118 *1907:B 21.3714 
*END

*D_NET *550 0.0120819
*CONN
*I *1853:A1 I *D sky130_fd_sc_hd__a21o_1
*I *1819:A1 I *D sky130_fd_sc_hd__o22a_1
*I *1818:A1 I *D sky130_fd_sc_hd__a22oi_1
*I *1807:A I *D sky130_fd_sc_hd__or3_1
*I *1598:A1 I *D sky130_fd_sc_hd__a2111oi_1
*I *1832:A1 I *D sky130_fd_sc_hd__a22o_1
*I *1833:A I *D sky130_fd_sc_hd__and3_1
*I *1855:A I *D sky130_fd_sc_hd__and3_1
*I *1585:A I *D sky130_fd_sc_hd__inv_2
*I *1600:B I *D sky130_fd_sc_hd__and2b_1
*I *2086:X O *D sky130_fd_sc_hd__clkbuf_4
*CAP
1 *1853:A1 0.000272223
2 *1819:A1 7.23131e-05
3 *1818:A1 5.13299e-05
4 *1807:A 0
5 *1598:A1 7.32626e-05
6 *1832:A1 0
7 *1833:A 1.64323e-05
8 *1855:A 0
9 *1585:A 2.94186e-05
10 *1600:B 0.00010089
11 *2086:X 3.23816e-05
12 *550:95 0.000409495
13 *550:67 0.000168321
14 *550:65 0.000752306
15 *550:54 0.00053968
16 *550:43 0.000271521
17 *550:41 0.00038595
18 *550:32 0.000899362
19 *550:21 0.000915721
20 *550:6 0.000147134
21 *1589:A *550:67 5.33005e-05
22 *1590:A *1585:A 5.71865e-05
23 *1590:A *550:6 4.87953e-05
24 *1590:A *550:21 1.54142e-05
25 *1590:A *550:32 2.65563e-05
26 *1598:A2 *1598:A1 6.90561e-05
27 *1598:A2 *550:67 9.31893e-05
28 *1604:A1 *550:32 0.000148391
29 *1604:B1_N *550:32 0.000268396
30 *1605:A1 *550:32 0.000136951
31 *1807:C *1598:A1 5.52302e-05
32 *1807:C *550:67 5.52238e-05
33 *1809:C *1818:A1 1.95846e-05
34 *1818:B1 *1818:A1 2.17891e-05
35 *1818:B2 *1819:A1 9.88136e-05
36 *1830:A2 *550:54 0
37 *1830:A2 *550:65 0
38 *1833:B *550:54 4.39944e-05
39 *1835:B1 *550:65 0.000137834
40 *1836:A2 *550:54 9.851e-05
41 *1836:A2 *550:65 0.000113691
42 *1836:B1 *550:65 8.89913e-05
43 *1853:B1 *1853:A1 9.90431e-05
44 *1855:B *1853:A1 0.000266092
45 *1896:A2 *1600:B 0.000198691
46 *1956:A2 *550:67 8.43535e-06
47 *182:16 *1598:A1 2.41233e-05
48 *188:22 *1819:A1 9.25014e-06
49 *188:22 *550:95 0.000588624
50 *211:16 *550:65 0.000121573
51 *219:10 *550:6 9.41642e-05
52 *219:10 *550:21 5.33005e-05
53 *219:10 *550:32 1.24368e-05
54 *227:12 *1853:A1 0.000128154
55 *273:8 *550:32 5.03772e-05
56 *294:43 *1600:B 0.000200406
57 *326:78 *1598:A1 0.000141031
58 *326:78 *550:67 0.000380596
59 *326:78 *550:95 0.000168334
60 *434:8 *550:32 0.000269422
61 *492:56 *550:67 8.17274e-05
62 *492:56 *550:95 0.000178847
63 *492:67 *550:54 7.57965e-05
64 *492:67 *550:65 0.000124979
65 *492:77 *1853:A1 8.58088e-05
66 *492:77 *550:43 6.19181e-05
67 *492:77 *550:54 1.08359e-05
68 *518:54 *550:32 2.05757e-05
69 *523:39 *1853:A1 1.32552e-05
70 *526:92 *550:65 0.00032512
71 *528:34 *550:65 0.000118004
72 *528:34 *550:95 0.000282111
73 *528:49 *1819:A1 0.000184583
74 *528:49 *550:95 3.34295e-05
75 *529:35 *1853:A1 0
76 *529:35 *550:43 0
77 *529:35 *550:54 0
78 *538:24 *1833:A 9.90431e-05
79 *540:33 *550:32 0.000529363
80 *542:141 *550:32 0.000137345
81 *542:141 *550:41 1.74352e-05
82 *547:82 *1833:A 9.90431e-05
*RES
1 *2086:X *550:6 10.2464 
2 *550:6 *1600:B 21.3893 
3 *550:6 *550:21 0.535714 
4 *550:21 *1585:A 10.2286 
5 *550:21 *550:32 17.7857 
6 *550:32 *1855:A 9.3 
7 *550:32 *550:41 5.03571 
8 *550:41 *550:43 1.64286 
9 *550:43 *1833:A 14.7464 
10 *550:43 *550:54 3.46429 
11 *550:54 *1832:A1 13.8 
12 *550:54 *550:65 13.7321 
13 *550:65 *550:67 3.82143 
14 *550:67 *1598:A1 12.0143 
15 *550:67 *1807:A 9.3 
16 *550:65 *550:95 13.9821 
17 *550:95 *1818:A1 14.7643 
18 *550:95 *1819:A1 16.3536 
19 *550:41 *1853:A1 20.3714 
*END

*D_NET *551 0.0185959
*CONN
*I *2086:A I *D sky130_fd_sc_hd__clkbuf_4
*I *1869:A1 I *D sky130_fd_sc_hd__o31a_1
*I *1662:A I *D sky130_fd_sc_hd__nor2_1
*I *1653:A I *D sky130_fd_sc_hd__nand2_1
*I *1612:A I *D sky130_fd_sc_hd__or2_1
*I *1614:A I *D sky130_fd_sc_hd__nor2_1
*I *1615:A I *D sky130_fd_sc_hd__and2_1
*I *1989:A1 I *D sky130_fd_sc_hd__a22oi_1
*I *2033:A I *D sky130_fd_sc_hd__nand2_1
*I *1664:A I *D sky130_fd_sc_hd__nand2_1
*I *2087:X O *D sky130_fd_sc_hd__buf_4
*CAP
1 *2086:A 1.56658e-05
2 *1869:A1 0.000430416
3 *1662:A 0
4 *1653:A 5.04688e-05
5 *1612:A 0
6 *1614:A 3.94262e-05
7 *1615:A 0
8 *1989:A1 0.000273135
9 *2033:A 6.72808e-05
10 *1664:A 0.000206514
11 *2087:X 0.000138383
12 *551:120 0.000815853
13 *551:107 0.000964939
14 *551:89 0.000477504
15 *551:74 0.000799472
16 *551:49 0.000634438
17 *551:41 0.000579789
18 *551:37 0.00196116
19 *551:25 0.00219011
20 *551:6 0.000597455
21 *1614:A *1629:B1 3.99614e-06
22 *1989:A1 *1989:A2 1.46576e-05
23 *551:37 *552:46 0.000227092
24 *551:41 *554:23 0
25 *551:41 *554:36 0
26 *551:49 *554:23 0
27 *551:74 *1629:B1 3.18676e-05
28 *551:74 *554:40 2.89016e-05
29 *1590:A *1869:A1 0.000198691
30 *1590:A *2086:A 2.14658e-05
31 *1590:A *551:120 2.89114e-05
32 *1629:A2 *1614:A 0
33 *1629:A2 *551:74 0.00010096
34 *1630:B *551:74 2.24763e-05
35 *1630:C *551:41 0
36 *1653:B *1653:A 5.52302e-05
37 *1655:B *1653:A 1.04232e-05
38 *1656:C1 *551:37 6.05161e-06
39 *1657:B1 *551:37 0.00012501
40 *1658:B1 *551:37 0.000158902
41 *1660:A1 *551:25 0.000145753
42 *1660:A1 *551:107 0.000200413
43 *1706:B1 *551:37 6.13757e-06
44 *1869:A2 *1869:A1 0.000250201
45 *1924:A2 *1869:A1 0.000875237
46 *2026:D_N *551:107 0.000154464
47 *2031:A1 *1989:A1 6.9061e-05
48 *2031:A2 *1989:A1 3.48705e-05
49 *2033:B *1989:A1 0.000156874
50 *2033:B *2033:A 1.97901e-05
51 *2034:A *2033:A 0
52 *2034:B *2033:A 3.18676e-05
53 *31:6 *551:37 0.000178725
54 *34:8 *1664:A 0.000149489
55 *35:10 *551:6 5.04589e-05
56 *45:56 *551:107 0
57 *219:10 *2086:A 5.33005e-05
58 *219:10 *551:120 0.000183713
59 *243:14 *1869:A1 0.000223443
60 *446:10 *1664:A 0
61 *446:10 *551:25 7.80714e-06
62 *448:8 *551:41 0
63 *453:14 *551:74 1.5424e-05
64 *463:8 *551:41 1.09026e-05
65 *463:27 *551:41 5.59013e-05
66 *466:10 *551:41 9.76928e-05
67 *474:14 *551:37 8.25843e-06
68 *474:18 *551:37 0.000150611
69 *486:8 *1653:A 0.00014183
70 *492:77 *1989:A1 0.000315165
71 *492:77 *551:89 0.000100831
72 *493:10 *1664:A 5.35516e-05
73 *493:10 *551:25 0
74 *493:21 *551:6 7.48091e-05
75 *493:21 *551:25 0.000172536
76 *493:23 *551:107 0.000541898
77 *493:23 *551:120 0.000796094
78 *517:62 *551:89 5.01213e-05
79 *518:33 *551:37 0.000604172
80 *518:33 *551:41 5.94737e-05
81 *518:33 *551:74 0.000128496
82 *543:29 *1869:A1 8.16762e-05
83 *543:104 *1869:A1 0.000262146
84 *544:34 *551:107 0.000150625
85 *544:34 *551:120 0.000419754
86 *546:27 *551:49 0
87 *548:94 *1869:A1 0.000191403
88 *549:23 *551:41 0
89 *549:23 *551:49 0
90 *549:107 *1653:A 4.43256e-05
*RES
1 *2087:X *551:6 11.8893 
2 *551:6 *1664:A 22.8357 
3 *551:6 *551:25 9.75 
4 *551:25 *551:37 32.4107 
5 *551:37 *551:41 10.0893 
6 *551:41 *551:49 9.63393 
7 *551:49 *2033:A 10.8804 
8 *551:49 *1989:A1 16.2018 
9 *551:41 *1615:A 13.8 
10 *551:37 *551:74 4.64286 
11 *551:74 *1614:A 10.0321 
12 *551:74 *551:89 14.5714 
13 *551:89 *1612:A 9.3 
14 *551:89 *1653:A 11.0857 
15 *551:25 *551:107 16.1429 
16 *551:107 *1662:A 13.8 
17 *551:107 *551:120 17.2321 
18 *551:120 *1869:A1 34.8179 
19 *551:120 *2086:A 9.83571 
*END

*D_NET *552 0.0211203
*CONN
*I *1809:D I *D sky130_fd_sc_hd__or4_1
*I *1966:B2 I *D sky130_fd_sc_hd__a32o_1
*I *1600:A_N I *D sky130_fd_sc_hd__and2b_1
*I *1609:A I *D sky130_fd_sc_hd__and3_1
*I *1611:A2 I *D sky130_fd_sc_hd__a21o_1
*I *1987:A I *D sky130_fd_sc_hd__nand2_1
*I *1988:A I *D sky130_fd_sc_hd__and3_1
*I *1989:A2 I *D sky130_fd_sc_hd__a22oi_1
*I *1623:A1 I *D sky130_fd_sc_hd__a22o_1
*I *1610:A I *D sky130_fd_sc_hd__nand3_1
*I *2088:X O *D sky130_fd_sc_hd__buf_2
*CAP
1 *1809:D 0.000114581
2 *1966:B2 0.000581995
3 *1600:A_N 0
4 *1609:A 0.000123114
5 *1611:A2 0
6 *1987:A 0
7 *1988:A 0.000132535
8 *1989:A2 4.66209e-06
9 *1623:A1 1.78392e-05
10 *1610:A 7.81445e-05
11 *2088:X 0
12 *552:110 0.000935628
13 *552:56 0.00112109
14 *552:46 0.00233866
15 *552:38 0.00147537
16 *552:34 0.000380792
17 *552:25 0.000486154
18 *552:12 0.00060501
19 *552:10 0.00184665
20 *552:4 0.00189009
21 *1988:A *1989:B2 2.8266e-06
22 *1988:A *554:23 0
23 *552:56 *1989:B2 4.71964e-05
24 *552:56 *2032:A 0.000270884
25 *552:56 *554:23 0
26 *1619:A *552:38 0.000104181
27 *1619:A *552:46 0.000149904
28 *1623:A2 *1609:A 1.98839e-05
29 *1623:A2 *552:34 7.48091e-05
30 *1623:B1 *552:25 5.33005e-05
31 *1623:B2 *552:25 2.59355e-05
32 *1636:C1 *552:46 0.000387432
33 *1638:B1 *552:46 0.000127439
34 *1640:A2 *552:46 0
35 *1644:A0 *552:46 0.000216304
36 *1657:B1 *552:46 0
37 *1660:C1 *552:46 0
38 *1728:A0 *552:10 6.6403e-05
39 *1781:C1 *552:10 3.34672e-05
40 *1867:B1 *552:10 7.29826e-05
41 *1924:A1 *552:10 1.24469e-05
42 *1924:A2 *552:10 0
43 *1924:A2 *552:12 0
44 *1967:A2 *1966:B2 0.000136951
45 *1987:B *552:46 0.000128941
46 *1987:B *552:56 5.80706e-06
47 *1988:C *1988:A 9.25014e-06
48 *1989:A1 *1989:A2 1.46576e-05
49 *1989:B1 *1988:A 6.19181e-05
50 *1990:A *1988:A 5.52302e-05
51 *2031:A1 *1989:A2 1.46576e-05
52 *2031:B1_N *1988:A 0
53 *2033:B *1988:A 0
54 *2033:B *552:56 0
55 *2035:A *552:56 1.32552e-05
56 *2036:A *552:56 0
57 *2036:B *552:56 0.000705512
58 *2048:B1 *1966:B2 7.434e-05
59 *2084:A *552:12 0.000210207
60 *2129:A *552:38 1.02504e-05
61 *2129:A *552:46 8.5662e-05
62 *2131:A *1966:B2 5.71472e-05
63 *183:12 *1809:D 0.000213627
64 *183:12 *1966:B2 7.40571e-05
65 *197:46 *1966:B2 0.000560963
66 *199:51 *1809:D 0
67 *199:51 *1966:B2 0
68 *243:14 *552:10 0.000280009
69 *245:10 *552:10 2.56601e-05
70 *274:20 *552:10 0
71 *294:43 *1610:A 0.000245813
72 *294:43 *552:10 0.000240469
73 *294:43 *552:12 0.000531073
74 *294:47 *552:46 1.46624e-05
75 *294:55 *552:46 0.000123323
76 *326:90 *552:10 0.000352097
77 *441:14 *1609:A 6.61042e-05
78 *441:25 *552:38 0.000206686
79 *459:16 *552:46 0.000259278
80 *467:10 *552:46 0.000131038
81 *474:14 *552:38 1.95625e-05
82 *474:14 *552:46 0.000194191
83 *474:18 *552:46 4.13573e-05
84 *497:29 *552:10 9.68482e-05
85 *497:44 *552:10 0.000103553
86 *497:52 *552:10 0.00057113
87 *497:52 *552:110 0.000353066
88 *515:20 *1610:A 0.000271958
89 *515:20 *552:12 9.30093e-05
90 *515:88 *1610:A 1.02504e-05
91 *518:54 *552:46 0
92 *519:88 *552:46 0
93 *523:39 *552:25 8.65112e-05
94 *523:39 *552:34 8.43535e-06
95 *529:51 *1966:B2 2.6541e-05
96 *546:27 *552:46 0.000226934
97 *546:27 *552:56 7.83366e-05
98 *546:35 *552:56 5.19842e-06
99 *549:23 *552:46 0
100 *551:37 *552:46 0.000227092
*RES
1 *2088:X *552:4 9.3 
2 *552:4 *552:10 33.5714 
3 *552:10 *552:12 6.80357 
4 *552:12 *1610:A 17.2643 
5 *552:12 *552:25 8.32143 
6 *552:25 *1623:A1 9.72857 
7 *552:25 *552:34 1.76786 
8 *552:34 *552:38 7.96429 
9 *552:38 *552:46 33 
10 *552:46 *552:56 24.1071 
11 *552:56 *1989:A2 13.9473 
12 *552:56 *1988:A 16.2821 
13 *552:46 *1987:A 13.8 
14 *552:38 *1611:A2 13.8 
15 *552:34 *1609:A 11.0857 
16 *552:10 *1600:A_N 13.8 
17 *552:4 *552:110 7.91071 
18 *552:110 *1966:B2 25.425 
19 *552:110 *1809:D 16.6571 
*END

*D_NET *553 0.00792972
*CONN
*I *2013:A1 I *D sky130_fd_sc_hd__a21oi_1
*I *1973:A I *D sky130_fd_sc_hd__xor2_1
*I *2008:A1 I *D sky130_fd_sc_hd__o22a_1
*I *2009:A1 I *D sky130_fd_sc_hd__a32o_1
*I *2007:A1 I *D sky130_fd_sc_hd__a21oi_1
*I *2049:A1 I *D sky130_fd_sc_hd__a211o_1
*I *2089:X O *D sky130_fd_sc_hd__clkbuf_2
*CAP
1 *2013:A1 4.75465e-05
2 *1973:A 6.02909e-05
3 *2008:A1 0.000109225
4 *2009:A1 0
5 *2007:A1 0
6 *2049:A1 0.000401896
7 *2089:X 4.00453e-05
8 *553:68 0.000813475
9 *553:47 0.00104239
10 *553:16 0.000582369
11 *553:10 0.000261717
12 *553:6 0.000348819
13 *1956:A1 *2049:A1 2.26424e-05
14 *1956:B1 *2008:A1 7.79781e-06
15 *1956:B1 *553:68 1.28012e-05
16 *1957:A *2008:A1 2.28499e-05
17 *1957:B *2008:A1 5.33005e-05
18 *1970:A1 *2008:A1 5.84075e-05
19 *1970:A1 *553:47 5.52302e-05
20 *1970:B1 *2008:A1 0.00015134
21 *1970:B1 *553:68 3.34366e-05
22 *1971:B *553:68 3.51442e-05
23 *2007:B1 *553:16 9.41642e-05
24 *2008:B2 *2008:A1 1.02504e-05
25 *2009:A2 *553:16 8.07951e-05
26 *2009:B2 *2049:A1 0.00047729
27 *2013:A2 *1973:A 8.16036e-05
28 *2015:A1 *553:68 0.000202599
29 *2015:A2 *553:68 4.87953e-05
30 *2018:A *2013:A1 4.88637e-05
31 *2018:A *553:68 2.89114e-05
32 *2047:B1 *2049:A1 0.000138881
33 *2049:B1 *2049:A1 7.15575e-05
34 *2118:A *2049:A1 0.000522941
35 *2118:A *553:10 0.000148189
36 *2118:A *553:16 0.000259913
37 *191:76 *553:68 3.78846e-05
38 *192:97 *1973:A 0.000101545
39 *352:10 *553:47 2.51343e-06
40 *352:10 *553:68 0.000150625
41 *438:16 *2049:A1 0.000145985
42 *490:48 *2049:A1 0.000137983
43 *492:14 *553:10 0
44 *497:52 *2049:A1 0.000817351
45 *534:147 *553:68 0
46 *535:22 *553:16 1.69115e-05
47 *535:65 *553:16 0.000143439
*RES
1 *2089:X *553:6 9.83571 
2 *553:6 *553:10 6.44643 
3 *553:10 *553:16 8.91071 
4 *553:16 *2049:A1 33.4607 
5 *553:16 *2007:A1 9.3 
6 *553:10 *2009:A1 13.8 
7 *553:6 *553:47 7.91071 
8 *553:47 *2008:A1 16.6929 
9 *553:47 *553:68 17.7857 
10 *553:68 *1973:A 20.2464 
11 *553:68 *2013:A1 10.2464 
*END

*D_NET *554 0.0215772
*CONN
*I *1989:B2 I *D sky130_fd_sc_hd__a22oi_1
*I *1959:A I *D sky130_fd_sc_hd__nand2_1
*I *1958:A I *D sky130_fd_sc_hd__or2_1
*I *1921:A I *D sky130_fd_sc_hd__and2_1
*I *1809:A I *D sky130_fd_sc_hd__or4_1
*I *1616:B I *D sky130_fd_sc_hd__or2_1
*I *1614:B I *D sky130_fd_sc_hd__nor2_1
*I *1629:B1 I *D sky130_fd_sc_hd__o21ai_1
*I *1615:B I *D sky130_fd_sc_hd__and2_1
*I *2032:A I *D sky130_fd_sc_hd__nand2_1
*I *2090:X O *D sky130_fd_sc_hd__buf_6
*CAP
1 *1989:B2 0.000259225
2 *1959:A 0
3 *1958:A 6.03491e-05
4 *1921:A 0.000544329
5 *1809:A 0
6 *1616:B 0.000327748
7 *1614:B 0
8 *1629:B1 2.33082e-05
9 *1615:B 0.000159489
10 *2032:A 0.000168187
11 *2090:X 0
12 *554:111 0.000340736
13 *554:88 0.002527
14 *554:75 0.00292453
15 *554:58 0.00254228
16 *554:40 4.5932e-05
17 *554:36 0.00136099
18 *554:23 0.000914264
19 *554:4 0.000836111
20 *554:58 *2025:B1 0.000443853
21 *1606:A *1616:B 0
22 *1606:A *554:58 9.27592e-05
23 *1606:A *554:75 5.10027e-05
24 *1614:A *1629:B1 3.99614e-06
25 *1616:A *1616:B 0
26 *1617:A *554:58 0
27 *1629:A1 *1629:B1 9.7049e-06
28 *1629:A2 *1629:B1 5.7661e-06
29 *1630:B *1629:B1 3.18676e-05
30 *1640:A1 *554:58 0.000121525
31 *1656:C1 *554:58 0.000128154
32 *1808:A *554:75 0
33 *1811:A *554:88 7.83659e-05
34 *1895:A1 *1921:A 0
35 *1919:B1 *1921:A 0
36 *1920:A2 *1921:A 0
37 *1920:B1 *1921:A 4.43698e-05
38 *1921:B *1921:A 2.28499e-05
39 *1923:A3 *1921:A 8.50152e-05
40 *1923:B1 *1921:A 5.31278e-05
41 *1952:A *1921:A 0
42 *1956:A2 *554:88 0.000149684
43 *1958:B *1958:A 5.52238e-05
44 *1964:B1 *1921:A 0.000148189
45 *1967:B1 *1921:A 5.33882e-05
46 *1967:C1 *1921:A 0.000168939
47 *1968:A2 *554:75 0.000123962
48 *1988:A *1989:B2 2.8266e-06
49 *1988:A *554:23 0
50 *1988:C *554:23 0
51 *1988:C *554:36 0
52 *1990:B *1989:B2 5.41794e-05
53 *2025:A1 *554:58 0
54 *2025:B2 *554:58 0.000343203
55 *2031:A1 *1989:B2 5.33005e-05
56 *2031:B1_N *554:23 0.000127446
57 *2033:B *554:23 2.59093e-05
58 *2035:A *2032:A 6.16082e-05
59 *2036:A *1989:B2 0.000318107
60 *2036:A *554:23 0
61 *2036:B *1989:B2 0.000488493
62 *2036:B *2032:A 0.000358971
63 *2088:A *554:75 9.24491e-05
64 *2088:A *554:88 3.22834e-05
65 *2131:A *554:75 0
66 *182:16 *554:75 2.34204e-05
67 *183:12 *554:75 2.49484e-05
68 *183:12 *554:88 7.8327e-05
69 *188:71 *1921:A 6.8646e-06
70 *199:51 *554:88 0.000732668
71 *199:89 *554:88 0.000295925
72 *326:78 *554:75 6.56294e-05
73 *326:86 *554:75 2.07809e-05
74 *336:18 *554:88 0.00012007
75 *336:18 *554:111 3.72932e-05
76 *338:8 *554:111 0
77 *339:12 *554:111 5.80706e-06
78 *341:6 *1958:A 7.17235e-05
79 *359:14 *1958:A 1.39841e-05
80 *397:20 *1958:A 0.000263276
81 *434:10 *554:75 0.000151569
82 *448:8 *554:36 0
83 *449:6 *1616:B 0.000186669
84 *449:23 *1616:B 3.51442e-05
85 *454:10 *1616:B 9.25014e-06
86 *462:10 *554:36 5.16759e-05
87 *492:77 *1989:B2 6.05161e-06
88 *492:77 *554:58 0
89 *492:77 *554:75 0
90 *497:56 *1921:A 0
91 *519:58 *554:58 0.000128868
92 *524:64 *554:75 0
93 *524:107 *554:75 7.22707e-05
94 *526:94 *554:88 0.000161947
95 *529:51 *554:75 0.00127161
96 *534:147 *1921:A 0
97 *534:147 *554:111 8.22989e-05
98 *537:42 *1921:A 0
99 *537:42 *554:111 0
100 *538:24 *554:75 0
101 *540:33 *554:58 0
102 *540:33 *554:75 0
103 *546:35 *1989:B2 6.44345e-05
104 *546:35 *2032:A 0.000202603
105 *547:65 *554:75 0.000148281
106 *549:107 *554:36 0
107 *549:107 *554:58 0
108 *551:41 *554:23 0
109 *551:41 *554:36 0
110 *551:49 *554:23 0
111 *551:74 *1629:B1 3.18676e-05
112 *551:74 *554:40 2.89016e-05
113 *552:56 *1989:B2 4.71964e-05
114 *552:56 *2032:A 0.000270884
115 *552:56 *554:23 0
*RES
1 *2090:X *554:4 9.3 
2 *554:4 *2032:A 16.8714 
3 *554:4 *554:23 16.4107 
4 *554:23 *1615:B 11.8893 
5 *554:23 *554:36 10.4286 
6 *554:36 *554:40 5.03571 
7 *554:40 *1629:B1 10.2643 
8 *554:40 *1614:B 9.3 
9 *554:36 *554:58 23.125 
10 *554:58 *1616:B 27.2464 
11 *554:58 *554:75 28.3571 
12 *554:75 *1809:A 13.8 
13 *554:75 *554:88 27.9286 
14 *554:88 *1921:A 29.2107 
15 *554:88 *554:111 13.5179 
16 *554:111 *1958:A 11.9071 
17 *554:111 *1959:A 9.3 
18 *554:4 *1989:B2 26.0321 
*END

*D_NET *555 0.00372404
*CONN
*I *2062:A I *D sky130_fd_sc_hd__buf_2
*I *2108:X O *D sky130_fd_sc_hd__clkbuf_1
*CAP
1 *2062:A 0.000928557
2 *2108:X 0.000928557
3 *1979:A2 *2062:A 0.000100831
4 *1980:B *2062:A 0
5 *1999:A2 *2062:A 3.69047e-06
6 *2002:A *2062:A 0.000920542
7 *2003:B *2062:A 3.90513e-05
8 *2020:A *2062:A 0
9 *2020:B *2062:A 5.48581e-05
10 *2043:A *2062:A 3.15739e-05
11 *2060:A *2062:A 0.00014183
12 *2065:A *2062:A 9.34004e-05
13 *323:14 *2062:A 0
14 *363:10 *2062:A 0
15 *384:12 *2062:A 7.83659e-05
16 *544:18 *2062:A 0.000402784
*RES
1 *2108:X *2062:A 48.6179 
*END

*D_NET *556 0.00408281
*CONN
*I *1692:A1 I *D sky130_fd_sc_hd__a21o_1
*I *1677:A1 I *D sky130_fd_sc_hd__a21o_1
*I *2123:A I *D sky130_fd_sc_hd__buf_2
*I *2121:X O *D sky130_fd_sc_hd__dlygate4sd1_1
*CAP
1 *1692:A1 0.000347696
2 *1677:A1 7.67199e-05
3 *2123:A 1.1624e-05
4 *2121:X 0.000594758
5 *556:21 0.000486138
6 *556:10 0.000668103
7 *1674:B *1692:A1 5.995e-05
8 *1674:C *1692:A1 2.0876e-05
9 *1677:B1 *1677:A1 6.05161e-06
10 *1687:A *556:10 0.000137983
11 *1688:A2 *2123:A 5.52238e-05
12 *1692:A2 *1692:A1 0.000217992
13 *1692:B1 *1692:A1 2.72418e-05
14 *1716:A1 *1692:A1 9.90431e-05
15 *2121:A *556:10 0.000303355
16 *43:12 *1677:A1 2.58821e-05
17 *43:12 *1692:A1 0.000310292
18 *49:14 *556:10 0
19 *49:14 *556:21 0
20 *471:20 *1692:A1 9.25014e-06
21 *471:20 *556:10 7.90803e-05
22 *471:20 *556:21 0.00012401
23 *513:23 *1677:A1 6.05161e-06
24 *513:23 *1692:A1 2.49484e-05
25 *513:23 *556:21 3.92757e-05
26 *539:104 *2123:A 5.52238e-05
27 *546:73 *556:10 4.78056e-05
28 *546:121 *1692:A1 4.66203e-05
29 *546:121 *556:10 0.000201611
*RES
1 *2121:X *556:10 25.9607 
2 *556:10 *2123:A 14.3357 
3 *556:10 *556:21 1.64286 
4 *556:21 *1677:A1 14.7464 
5 *556:21 *1692:A1 21.9964 
*END

*D_NET *557 0.000335727
*CONN
*I *1688:A1 I *D sky130_fd_sc_hd__a21oi_1
*I *2123:X O *D sky130_fd_sc_hd__buf_2
*CAP
1 *1688:A1 0.000114718
2 *2123:X 0.000114718
3 *1688:A2 *1688:A1 9.41642e-05
4 *539:104 *1688:A1 1.21258e-05
*RES
1 *2123:X *1688:A1 19.9571 
*END

*D_NET *558 0.00154664
*CONN
*I *2126:A I *D sky130_fd_sc_hd__dlymetal6s2s_1
*I *1757:A2 I *D sky130_fd_sc_hd__o31a_1
*I *2125:X O *D sky130_fd_sc_hd__buf_1
*CAP
1 *2126:A 0
2 *1757:A2 9.28838e-05
3 *2125:X 0.000365976
4 *558:8 0.00045886
5 *558:8 *559:12 2.89016e-05
6 *558:8 *565:8 0.000265704
7 *1757:B1 *1757:A2 5.33005e-05
8 *542:21 *1757:A2 9.60875e-05
9 *542:55 *1757:A2 1.21258e-05
10 *542:55 *558:8 0.000172804
*RES
1 *2125:X *558:8 16.8357 
2 *558:8 *1757:A2 11.0679 
3 *558:8 *2126:A 9.3 
*END

*D_NET *559 0.00104483
*CONN
*I *1766:A2 I *D sky130_fd_sc_hd__o32a_1
*I *2127:A I *D sky130_fd_sc_hd__dlygate4sd1_1
*I *2126:X O *D sky130_fd_sc_hd__dlymetal6s2s_1
*CAP
1 *1766:A2 0.000110349
2 *2127:A 0
3 *2126:X 7.87399e-05
4 *559:12 0.000189089
5 *1748:B *1766:A2 0.00014285
6 *1766:A3 *1766:A2 2.89114e-05
7 *1766:B1 *1766:A2 5.33005e-05
8 *100:36 *1766:A2 3.45337e-05
9 *117:27 *559:12 0.000173083
10 *123:8 *1766:A2 6.05161e-06
11 *539:22 *559:12 0.00017309
12 *542:55 *559:12 2.59355e-05
13 *558:8 *559:12 2.89016e-05
*RES
1 *2126:X *559:12 21.0857 
2 *559:12 *2127:A 9.3 
3 *559:12 *1766:A2 11.9071 
*END

*D_NET *560 0.000355693
*CONN
*I *1736:B I *D sky130_fd_sc_hd__nor2_1
*I *2127:X O *D sky130_fd_sc_hd__dlygate4sd1_1
*CAP
1 *1736:B 7.49348e-05
2 *2127:X 7.49348e-05
3 *100:36 *1736:B 0.000205823
*RES
1 *2127:X *1736:B 20.6893 
*END

*D_NET *561 0.00319599
*CONN
*I *1742:S I *D sky130_fd_sc_hd__mux2_4
*I *1720:S I *D sky130_fd_sc_hd__mux2_4
*I *1746:S I *D sky130_fd_sc_hd__mux2_4
*I *2128:X O *D sky130_fd_sc_hd__buf_6
*CAP
1 *1742:S 8.55253e-05
2 *1720:S 3.98048e-05
3 *1746:S 0.000119299
4 *2128:X 0.000133784
5 *561:23 0.000616401
6 *561:6 0.000744154
7 *1695:B *561:6 9.93955e-05
8 *1742:A0 *1742:S 0.000177948
9 *1746:A0 *1746:S 9.60939e-05
10 *1746:A0 *561:6 4.18895e-05
11 *61:26 *1746:S 6.58992e-05
12 *61:26 *561:6 0.000242433
13 *69:6 *561:6 7.95355e-05
14 *70:24 *561:23 0.000110089
15 *95:10 *561:23 0.000227539
16 *121:14 *561:23 0
17 *534:66 *1746:S 5.33005e-05
18 *534:66 *561:6 5.49544e-05
19 *534:66 *561:23 0.000207948
20 *539:37 *1742:S 0
*RES
1 *2128:X *561:6 13.5321 
2 *561:6 *1746:S 11.9071 
3 *561:6 *561:23 18.6607 
4 *561:23 *1720:S 9.83571 
5 *561:23 *1742:S 20.55 
*END

*D_NET *562 0.00185871
*CONN
*I *1610:C I *D sky130_fd_sc_hd__nand3_1
*I *2129:X O *D sky130_fd_sc_hd__buf_1
*CAP
1 *1610:C 0.000670861
2 *2129:X 0.000670861
3 *1662:B *1610:C 5.33334e-05
4 *1924:A2 *1610:C 0.000104974
5 *2129:A *1610:C 4.58194e-05
6 *38:19 *1610:C 0.000127042
7 *470:12 *1610:C 2.56694e-05
8 *515:20 *1610:C 5.80706e-06
9 *515:88 *1610:C 0
10 *519:62 *1610:C 0.000154345
*RES
1 *2129:X *1610:C 36.8679 
*END

*D_NET *563 0.019598
*CONN
*I *1919:A2 I *D sky130_fd_sc_hd__a21oi_1
*I *1899:A I *D sky130_fd_sc_hd__xor2_1
*I *1904:B1 I *D sky130_fd_sc_hd__a22oi_1
*I *1982:B1 I *D sky130_fd_sc_hd__a22oi_1
*I *2025:B1 I *D sky130_fd_sc_hd__a22o_1
*I *2052:X O *D sky130_fd_sc_hd__clkbuf_1
*CAP
1 *1919:A2 0.000233487
2 *1899:A 0.00165446
3 *1904:B1 0.000899268
4 *1982:B1 0.00053999
5 *2025:B1 0.00135831
6 *2052:X 0.000213388
7 *563:69 0.00231792
8 *563:35 0.00175018
9 *563:14 0.00208586
10 *563:8 0.00105999
11 *1640:A1 *2025:B1 1.02504e-05
12 *1807:C *1899:A 0
13 *1866:B1 *563:14 9.25014e-06
14 *1866:B1 *563:69 0.00010047
15 *1872:A *1899:A 0
16 *1882:B *2025:B1 4.53889e-05
17 *1892:B1 *563:8 0.000269428
18 *1903:B *1982:B1 0
19 *1904:A1 *1904:B1 1.32273e-05
20 *1904:A2 *1904:B1 2.4005e-05
21 *1956:A2 *563:69 0.00019744
22 *1966:A2 *1919:A2 5.71472e-05
23 *1967:A2 *1919:A2 9.71197e-05
24 *1982:A1 *1982:B1 0.000331915
25 *2052:A *563:8 1.74352e-05
26 *2075:A *1899:A 7.50697e-05
27 *2118:A *1919:A2 1.90936e-05
28 *197:28 *563:69 3.57328e-05
29 *197:63 *1899:A 0
30 *287:12 *1982:B1 0.000192204
31 *351:22 *563:69 0.000241198
32 *490:27 *563:14 0.000327744
33 *490:27 *563:69 0.000302068
34 *490:48 *1919:A2 8.47076e-05
35 *497:52 *1899:A 4.35131e-05
36 *518:105 *1899:A 0.00105788
37 *518:105 *1919:A2 0.000266512
38 *521:39 *1982:B1 0.000107816
39 *525:28 *1982:B1 0
40 *527:45 *2025:B1 0.000103267
41 *527:45 *563:14 2.31791e-05
42 *527:51 *1904:B1 0.000613007
43 *527:51 *563:35 0.000435845
44 *527:76 *1904:B1 0.000134549
45 *527:109 *563:14 0.000198698
46 *535:22 *2025:B1 8.85782e-05
47 *535:22 *563:14 0.000506878
48 *535:22 *563:69 0.000326513
49 *537:52 *1919:A2 2.70271e-05
50 *537:69 *1982:B1 6.94254e-05
51 *538:12 *1899:A 0.000152965
52 *540:33 *2025:B1 0.000434769
53 *554:58 *2025:B1 0.000443853
*RES
1 *2052:X *563:8 16.8 
2 *563:8 *563:14 12.4286 
3 *563:14 *2025:B1 48.675 
4 *563:14 *563:35 8.73214 
5 *563:35 *1982:B1 29.9607 
6 *563:35 *1904:B1 22.8893 
7 *563:8 *563:69 15.8296 
8 *563:69 *1899:A 24.78 
9 *563:69 *1919:A2 19.8233 
*END

*D_NET *564 0.000539046
*CONN
*I *1714:B1 I *D sky130_fd_sc_hd__a21o_1
*I *2130:X O *D sky130_fd_sc_hd__dlygate4sd3_1
*CAP
1 *1714:B1 0.000216512
2 *2130:X 0.000216512
3 *1714:A1 *1714:B1 5.80706e-06
4 *1715:C_N *1714:B1 5.41609e-05
5 *1742:A0 *1714:B1 0
6 *2130:A *1714:B1 0
7 *76:12 *1714:B1 4.46186e-06
8 *89:10 *1714:B1 4.15914e-05
*RES
1 *2130:X *1714:B1 31.0107 
*END

*D_NET *565 0.0244552
*CONN
*I *1770:A I *D sky130_fd_sc_hd__nand2_1
*I *1769:A I *D sky130_fd_sc_hd__nor2_1
*I *1926:B I *D sky130_fd_sc_hd__nand2_1
*I *1753:B2 I *D sky130_fd_sc_hd__o2bb2a_1
*I *1737:A I *D sky130_fd_sc_hd__xor2_1
*I *2051:X O *D sky130_fd_sc_hd__clkbuf_1
*CAP
1 *1770:A 6.55013e-05
2 *1769:A 0
3 *1926:B 0
4 *1753:B2 0
5 *1737:A 0.000506857
6 *2051:X 0.0005382
7 *565:73 0.00104971
8 *565:62 0.00357378
9 *565:54 0.00502081
10 *565:33 0.002039
11 *565:12 0.00151224
12 *565:8 0.00193582
13 *1625:B *565:62 0.000140933
14 *1626:B *565:62 0.000128496
15 *1626:C *565:62 1.21258e-05
16 *1627:B1 *565:62 4.43256e-05
17 *1644:A0 *565:62 0.000169656
18 *1645:A *565:54 0.000151566
19 *1663:B *565:54 4.97567e-06
20 *1679:A *565:54 1.92789e-05
21 *1683:B *565:54 0.000236106
22 *1689:A1 *565:54 0.000227537
23 *1689:A2 *565:54 0.000337651
24 *1721:A *565:54 3.92757e-05
25 *1737:B *1737:A 0.000250043
26 *1747:A *565:73 0
27 *1753:B1 *565:33 0.000163906
28 *1753:B1 *565:54 3.08664e-05
29 *1754:A1 *565:12 0.000150618
30 *1754:A1 *565:73 0.000247771
31 *1754:B1 *565:12 0
32 *1754:B1 *565:33 3.63281e-05
33 *1756:B *1737:A 3.18676e-05
34 *1768:S *565:73 7.252e-05
35 *1769:B *1770:A 1.61917e-05
36 *1771:A *565:73 0.000320031
37 *1773:A *565:73 9.90431e-05
38 *1773:B *565:73 0
39 *1896:A2 *565:54 0.000140341
40 *1983:C *565:62 4.45015e-05
41 *1984:A *565:62 2.59355e-05
42 *2025:A1 *565:62 1.40415e-05
43 *2025:B2 *565:62 1.58163e-05
44 *2027:D *565:62 7.85933e-05
45 *2029:A_N *565:62 1.40306e-05
46 *44:10 *565:54 0.000381617
47 *57:10 *565:54 9.91086e-05
48 *64:14 *565:54 0.000166503
49 *95:10 *565:33 0
50 *95:23 *1737:A 0.000137427
51 *95:23 *565:12 5.66157e-05
52 *95:23 *565:33 2.59355e-05
53 *110:14 *565:8 0.000394793
54 *112:10 *1737:A 1.55885e-05
55 *113:6 *565:54 7.92229e-06
56 *121:14 *565:12 0.000896363
57 *144:12 *1770:A 0.00010096
58 *145:16 *1770:A 2.47707e-05
59 *147:10 *565:73 0
60 *149:10 *565:73 0
61 *294:43 *565:62 0.00030926
62 *366:12 *565:62 1.58163e-05
63 *460:14 *565:62 5.33005e-05
64 *471:49 *565:54 0.000254549
65 *498:23 *565:73 0.000134539
66 *510:76 *565:12 0
67 *510:76 *565:73 0
68 *510:89 *565:73 0.000221102
69 *521:47 *565:62 2.88018e-06
70 *521:51 *565:62 0.000249325
71 *531:25 *565:12 1.24437e-06
72 *531:25 *565:73 0
73 *531:31 *565:12 8.44176e-05
74 *534:48 *565:33 0.000168282
75 *534:50 *565:33 0
76 *539:12 *1770:A 7.42615e-05
77 *539:12 *565:73 9.60875e-05
78 *539:22 *565:73 0
79 *541:36 *565:62 0.000117129
80 *542:55 *565:8 6.38291e-06
81 *546:121 *565:54 0.00058702
82 *548:18 *565:54 0
83 *558:8 *565:8 0.000265704
*RES
1 *2051:X *565:8 20.9071 
2 *565:8 *565:12 16.7679 
3 *565:12 *1737:A 17.2643 
4 *565:12 *565:33 17.1429 
5 *565:33 *1753:B2 9.3 
6 *565:33 *565:54 38.2679 
7 *565:54 *565:62 47.7143 
8 *565:62 *1926:B 9.3 
9 *565:8 *565:73 26.4643 
10 *565:73 *1769:A 9.3 
11 *565:73 *1770:A 11.7509 
*END

*D_NET *566 0.0108297
*CONN
*I *2059:A I *D sky130_fd_sc_hd__dlymetal6s2s_1
*I *2058:A I *D sky130_fd_sc_hd__buf_2
*I *2109:X O *D sky130_fd_sc_hd__buf_1
*CAP
1 *2059:A 0
2 *2058:A 0.000696505
3 *2109:X 0.000812859
4 *566:35 0.0016756
5 *566:14 0.00318497
6 *1891:B1 *566:35 0
7 *1893:A2 *566:35 0.000162125
8 *1893:B1 *566:35 2.26327e-05
9 *1893:B2 *566:35 0.000220463
10 *1903:B *566:35 0.000778095
11 *1923:A2 *566:35 3.32631e-05
12 *1930:B *566:35 0
13 *1930:C *566:35 5.64858e-05
14 *1933:A *2058:A 0
15 *1938:A *2058:A 0.000282794
16 *1938:B *2058:A 1.02821e-05
17 *1943:A *566:35 0
18 *1984:A *566:35 0
19 *1997:B *566:14 2.89114e-05
20 *1998:A1 *566:14 2.77173e-05
21 *1998:A2 *566:14 5.52302e-05
22 *1998:B1 *566:14 0.000152772
23 *2000:C *566:14 5.7661e-06
24 *2021:A_N *566:14 0.000130741
25 *2040:A *566:35 0
26 *253:12 *566:35 0
27 *259:12 *566:35 0
28 *305:12 *566:35 0
29 *310:12 *566:35 0
30 *317:34 *2058:A 2.89114e-05
31 *319:10 *2058:A 0.000303407
32 *319:10 *566:14 0.000126639
33 *322:8 *566:35 0
34 *381:14 *566:14 9.50968e-06
35 *381:14 *566:35 0
36 *382:10 *566:14 7.05178e-05
37 *383:6 *566:14 0.000121484
38 *383:15 *566:14 0.000141326
39 *525:28 *566:35 1.90936e-05
40 *527:34 *566:35 5.88193e-05
41 *534:147 *566:35 0.000399805
42 *540:116 *566:35 0.00017309
43 *541:18 *566:35 0.000751776
44 *541:36 *566:35 0.000288144
*RES
1 *2109:X *566:14 23.9786 
2 *566:14 *2058:A 22.6214 
3 *566:14 *566:35 48.9286 
4 *566:35 *2059:A 9.3 
*END

*D_NET *567 0.00133907
*CONN
*I *1909:B I *D sky130_fd_sc_hd__xnor2_2
*I *2122:X O *D sky130_fd_sc_hd__buf_2
*CAP
1 *1909:B 0.000471856
2 *2122:X 0.000471856
3 *1909:A *1909:B 3.51442e-05
4 *1932:A3 *1909:B 0
5 *2037:A *1909:B 0.00010326
6 *490:27 *1909:B 0.000234974
7 *521:57 *1909:B 0
8 *521:79 *1909:B 0
9 *523:16 *1909:B 2.19778e-05
*RES
1 *2122:X *1909:B 37.3679 
*END

*D_NET *568 0.00507575
*CONN
*I *2057:A I *D sky130_fd_sc_hd__clkbuf_4
*I *2110:X O *D sky130_fd_sc_hd__clkbuf_1
*CAP
1 *2057:A 0.001804
2 *2110:X 0.001804
3 *2084:A *2057:A 0.00100152
4 *475:68 *2057:A 4.32309e-05
5 *494:14 *2057:A 0.000402314
6 *515:88 *2057:A 2.06827e-05
*RES
1 *2110:X *2057:A 47.217 
*END

*D_NET *569 0.000595576
*CONN
*I *1932:B1 I *D sky130_fd_sc_hd__a31oi_2
*I *2124:X O *D sky130_fd_sc_hd__dlymetal6s2s_1
*CAP
1 *1932:B1 0.000174838
2 *2124:X 0.000174838
3 *1932:A3 *1932:B1 7.79781e-06
4 *2037:A *1932:B1 6.26466e-05
5 *2122:A *1932:B1 0.000175456
*RES
1 *2124:X *1932:B1 31.6179 
*END
