*SPEF "ieee 1481-1999"
*DESIGN "alu8bit"
*DATE "13:38:45 Wednesday August 05, 2026"
*VENDOR "The OpenROAD Project"
*PROGRAM "OpenROAD"
*VERSION "edf00dff99f6c40d67a30c0e22a8191c5d2ed9d6"
*DESIGN_FLOW "NAME_SCOPE LOCAL" "PIN_CAP NONE"
*DIVIDER /
*DELIMITER :
*BUS_DELIMITER []
*T_UNIT 1 NS
*C_UNIT 1 PF
*R_UNIT 1 OHM
*L_UNIT 1 HENRY

*NAME_MAP
*3 inst[0]
*4 inst[1]
*5 inst[2]
*6 inst[3]
*7 op_a[0]
*8 op_a[1]
*9 op_a[2]
*10 op_a[3]
*11 op_a[4]
*12 op_a[5]
*13 op_a[6]
*14 op_a[7]
*15 op_b[0]
*16 op_b[1]
*17 op_b[2]
*18 op_b[3]
*19 op_b[4]
*20 op_b[5]
*21 op_b[6]
*22 op_b[7]
*23 op_out[0]
*24 op_out[1]
*25 op_out[2]
*26 op_out[3]
*27 op_out[4]
*28 op_out[5]
*29 op_out[6]
*30 op_out[7]
*31 _000_
*32 _001_
*33 _002_
*34 _003_
*35 _004_
*36 _005_
*37 _006_
*38 _007_
*39 _008_
*40 _009_
*41 _010_
*42 _011_
*43 _012_
*44 _013_
*45 _014_
*46 _015_
*47 _016_
*48 _017_
*49 _018_
*50 _019_
*51 _020_
*52 _021_
*53 _022_
*54 _023_
*55 _024_
*56 _025_
*57 _026_
*58 _027_
*59 _028_
*60 _029_
*61 _030_
*62 _031_
*63 _032_
*64 _033_
*65 _034_
*66 _035_
*67 _036_
*68 _037_
*69 _038_
*70 _039_
*71 _040_
*72 _041_
*73 _042_
*74 _043_
*75 _044_
*76 _045_
*77 _046_
*78 _047_
*79 _048_
*80 _049_
*81 _050_
*82 _051_
*83 _052_
*84 _053_
*85 _054_
*86 _055_
*87 _056_
*88 _057_
*89 _058_
*90 _059_
*91 _060_
*92 _061_
*93 _062_
*94 _063_
*95 _064_
*96 _065_
*97 _066_
*98 _067_
*99 _068_
*100 _069_
*101 _070_
*102 _071_
*103 _072_
*104 _073_
*105 _074_
*106 _075_
*107 _076_
*108 _077_
*109 _078_
*110 _079_
*111 _080_
*112 _081_
*113 _082_
*114 _083_
*115 _084_
*116 _085_
*117 _086_
*118 _087_
*119 _088_
*120 _089_
*121 _090_
*122 _091_
*123 _092_
*124 _093_
*125 _094_
*126 _095_
*127 _096_
*128 _097_
*129 _098_
*130 _099_
*131 _100_
*132 _101_
*133 _102_
*134 _103_
*135 _104_
*136 _105_
*137 _106_
*138 _107_
*139 _108_
*140 _109_
*141 _110_
*142 _111_
*143 _112_
*144 _113_
*145 _114_
*146 _115_
*147 _116_
*148 _117_
*149 _118_
*150 _119_
*151 _120_
*152 _121_
*153 _122_
*154 _123_
*155 _124_
*156 _125_
*157 _126_
*158 _127_
*159 _128_
*160 _129_
*161 _130_
*162 _131_
*163 _132_
*164 _133_
*165 _134_
*166 _135_
*167 _136_
*168 _137_
*169 _138_
*170 _139_
*171 _140_
*172 _141_
*173 _142_
*174 _143_
*175 _144_
*176 _145_
*177 _146_
*178 _147_
*179 _148_
*180 _149_
*181 _150_
*182 _151_
*183 _152_
*184 _153_
*185 _154_
*186 _155_
*187 _156_
*188 _157_
*189 _158_
*190 _159_
*191 _160_
*192 _161_
*193 _162_
*194 _163_
*195 _164_
*196 _165_
*197 _166_
*198 _167_
*199 _168_
*200 _169_
*201 _170_
*202 _171_
*203 _172_
*204 _173_
*205 _174_
*206 _175_
*207 _176_
*208 _177_
*209 _178_
*210 _179_
*211 _180_
*212 _181_
*213 _182_
*214 _183_
*215 _184_
*216 _185_
*217 _186_
*218 _187_
*219 _188_
*220 _189_
*221 _190_
*222 _191_
*223 _192_
*224 _193_
*225 _194_
*226 _195_
*227 _196_
*228 _197_
*229 _198_
*230 _199_
*231 _200_
*232 _201_
*233 _202_
*234 _203_
*235 _204_
*236 _205_
*237 _206_
*238 _207_
*239 _208_
*240 _209_
*241 _210_
*242 _211_
*243 _212_
*244 _213_
*245 _214_
*246 _215_
*247 _216_
*248 _217_
*249 _218_
*250 _219_
*251 _220_
*252 _221_
*253 _222_
*254 _223_
*255 _224_
*256 _225_
*257 _226_
*258 _227_
*259 _228_
*260 _229_
*261 _230_
*262 _231_
*263 _232_
*264 _233_
*265 _234_
*266 _235_
*267 _236_
*268 _237_
*269 _238_
*270 _239_
*271 _240_
*272 _241_
*273 _242_
*274 _243_
*275 _244_
*276 _245_
*277 _246_
*278 _247_
*279 _248_
*280 _249_
*281 _250_
*282 _251_
*283 _252_
*284 _253_
*285 _254_
*286 _255_
*287 _256_
*288 _257_
*289 _258_
*290 _259_
*291 _260_
*292 _261_
*293 _262_
*294 _263_
*295 _264_
*296 _265_
*297 _266_
*298 _267_
*299 _268_
*300 _269_
*301 _270_
*302 _271_
*303 _272_
*304 _273_
*305 _274_
*306 _275_
*307 _276_
*308 _277_
*309 _278_
*310 _279_
*311 _280_
*312 _281_
*313 _282_
*314 _283_
*315 _284_
*316 _285_
*317 _286_
*318 _287_
*319 _288_
*320 _289_
*321 _290_
*322 _291_
*323 _292_
*324 _293_
*325 _294_
*326 _295_
*327 _296_
*328 _297_
*329 _298_
*330 _299_
*331 _300_
*332 _301_
*333 _302_
*334 _303_
*335 _304_
*336 _305_
*337 _306_
*338 _307_
*339 _308_
*340 _309_
*341 _310_
*342 _311_
*343 _312_
*344 _313_
*345 _314_
*346 _315_
*347 _316_
*348 _317_
*349 _318_
*350 _319_
*351 _320_
*352 _321_
*353 _322_
*354 _323_
*355 _324_
*356 _325_
*357 _326_
*358 _327_
*359 _328_
*360 _329_
*361 _330_
*362 _331_
*363 _332_
*364 _333_
*365 _334_
*366 _335_
*367 _336_
*368 _337_
*369 _338_
*370 _339_
*371 _340_
*372 _341_
*373 _342_
*374 _343_
*375 _344_
*376 _345_
*377 _346_
*378 _347_
*379 _348_
*380 _349_
*381 _350_
*382 _351_
*383 _352_
*384 _353_
*385 _354_
*386 _355_
*387 _356_
*388 _357_
*389 _358_
*390 _359_
*391 _360_
*392 _361_
*393 _362_
*394 _363_
*395 _364_
*396 _365_
*397 _366_
*398 _367_
*399 _368_
*400 _369_
*401 _370_
*402 _371_
*403 _372_
*404 _373_
*405 _374_
*406 _375_
*407 _376_
*408 _377_
*409 _378_
*410 _379_
*411 _380_
*412 _381_
*413 _382_
*414 _383_
*415 _384_
*416 _385_
*417 _386_
*418 _387_
*419 _388_
*420 _389_
*421 _390_
*422 _391_
*423 _392_
*424 _393_
*425 _394_
*426 _395_
*427 _396_
*428 _397_
*429 _398_
*430 _399_
*431 _400_
*432 _401_
*433 _402_
*434 _403_
*435 _404_
*436 _405_
*437 _406_
*438 _407_
*439 _408_
*440 _409_
*441 _410_
*442 _411_
*443 _412_
*444 _413_
*445 _414_
*446 _415_
*447 _416_
*448 _417_
*449 _418_
*450 _419_
*451 _420_
*452 _421_
*453 _422_
*454 _423_
*455 _424_
*456 _425_
*457 _426_
*458 _427_
*459 _428_
*460 _429_
*461 _430_
*462 _431_
*463 _432_
*464 _433_
*465 _434_
*466 _435_
*467 _436_
*468 _437_
*469 _438_
*470 _439_
*471 _440_
*472 _441_
*473 _442_
*474 _443_
*475 _444_
*476 _445_
*477 _446_
*478 _447_
*479 _448_
*480 _449_
*481 _450_
*482 _451_
*483 _452_
*484 _453_
*485 _454_
*486 _455_
*487 _456_
*488 _457_
*489 net1
*490 net10
*491 net11
*492 net12
*493 net13
*494 net14
*495 net15
*496 net16
*497 net17
*498 net18
*499 net19
*500 net2
*501 net20
*502 net21
*503 net22
*504 net23
*505 net24
*506 net25
*507 net26
*508 net27
*509 net28
*510 net29
*511 net3
*512 net30
*513 net31
*514 net32
*515 net33
*516 net34
*517 net35
*518 net36
*519 net37
*520 net38
*521 net39
*522 net4
*523 net40
*524 net41
*525 net42
*526 net43
*527 net44
*528 net45
*529 net46
*530 net47
*531 net48
*532 net49
*533 net5
*534 net50
*535 net51
*536 net52
*537 net53
*538 net54
*539 net55
*540 net56
*541 net57
*542 net58
*543 net59
*544 net6
*545 net60
*546 net61
*547 net62
*548 net63
*549 net64
*550 net65
*551 net66
*552 net67
*553 net68
*554 net69
*555 net7
*556 net70
*557 net71
*558 net72
*559 net73
*560 net74
*561 net75
*562 net76
*563 net77
*564 net78
*565 net79
*566 net8
*567 net87
*568 net9
*569 net92
*570 FILLER_0_109
*571 FILLER_0_113
*572 FILLER_0_125
*573 FILLER_0_137
*574 FILLER_0_141
*575 FILLER_0_15
*576 FILLER_0_153
*577 FILLER_0_165
*578 FILLER_0_169
*579 FILLER_0_181
*580 FILLER_0_193
*581 FILLER_0_197
*582 FILLER_0_209
*583 FILLER_0_221
*584 FILLER_0_27
*585 FILLER_0_29
*586 FILLER_0_3
*587 FILLER_0_41
*588 FILLER_0_48
*589 FILLER_0_57
*590 FILLER_0_69
*591 FILLER_0_77
*592 FILLER_0_85
*593 FILLER_0_90
*594 FILLER_0_97
*595 FILLER_10_123
*596 FILLER_10_131
*597 FILLER_10_15
*598 FILLER_10_152
*599 FILLER_10_164
*600 FILLER_10_177
*601 FILLER_10_189
*602 FILLER_10_200
*603 FILLER_10_208
*604 FILLER_10_220
*605 FILLER_10_27
*606 FILLER_10_29
*607 FILLER_10_3
*608 FILLER_10_41
*609 FILLER_10_53
*610 FILLER_10_61
*611 FILLER_10_66
*612 FILLER_10_76
*613 FILLER_10_95
*614 FILLER_11_101
*615 FILLER_11_109
*616 FILLER_11_116
*617 FILLER_11_128
*618 FILLER_11_140
*619 FILLER_11_15
*620 FILLER_11_160
*621 FILLER_11_169
*622 FILLER_11_181
*623 FILLER_11_193
*624 FILLER_11_199
*625 FILLER_11_207
*626 FILLER_11_218
*627 FILLER_11_27
*628 FILLER_11_3
*629 FILLER_11_34
*630 FILLER_11_39
*631 FILLER_11_78
*632 FILLER_11_86
*633 FILLER_11_91
*634 FILLER_12_110
*635 FILLER_12_115
*636 FILLER_12_127
*637 FILLER_12_139
*638 FILLER_12_141
*639 FILLER_12_145
*640 FILLER_12_15
*641 FILLER_12_165
*642 FILLER_12_169
*643 FILLER_12_177
*644 FILLER_12_189
*645 FILLER_12_195
*646 FILLER_12_197
*647 FILLER_12_223
*648 FILLER_12_3
*649 FILLER_12_35
*650 FILLER_12_80
*651 FILLER_12_85
*652 FILLER_12_94
*653 FILLER_13_110
*654 FILLER_13_120
*655 FILLER_13_132
*656 FILLER_13_145
*657 FILLER_13_158
*658 FILLER_13_166
*659 FILLER_13_169
*660 FILLER_13_183
*661 FILLER_13_19
*662 FILLER_13_191
*663 FILLER_13_199
*664 FILLER_13_210
*665 FILLER_13_222
*666 FILLER_13_3
*667 FILLER_13_38
*668 FILLER_13_50
*669 FILLER_13_57
*670 FILLER_13_69
*671 FILLER_13_97
*672 FILLER_14_105
*673 FILLER_14_11
*674 FILLER_14_119
*675 FILLER_14_131
*676 FILLER_14_154
*677 FILLER_14_166
*678 FILLER_14_182
*679 FILLER_14_187
*680 FILLER_14_197
*681 FILLER_14_21
*682 FILLER_14_217
*683 FILLER_14_27
*684 FILLER_14_3
*685 FILLER_14_37
*686 FILLER_14_49
*687 FILLER_14_61
*688 FILLER_14_73
*689 FILLER_14_81
*690 FILLER_14_85
*691 FILLER_14_97
*692 FILLER_15_109
*693 FILLER_15_120
*694 FILLER_15_132
*695 FILLER_15_147
*696 FILLER_15_15
*697 FILLER_15_159
*698 FILLER_15_167
*699 FILLER_15_169
*700 FILLER_15_181
*701 FILLER_15_215
*702 FILLER_15_223
*703 FILLER_15_27
*704 FILLER_15_3
*705 FILLER_15_35
*706 FILLER_15_47
*707 FILLER_15_55
*708 FILLER_15_73
*709 FILLER_15_85
*710 FILLER_15_97
*711 FILLER_16_102
*712 FILLER_16_110
*713 FILLER_16_127
*714 FILLER_16_139
*715 FILLER_16_141
*716 FILLER_16_15
*717 FILLER_16_153
*718 FILLER_16_159
*719 FILLER_16_173
*720 FILLER_16_185
*721 FILLER_16_193
*722 FILLER_16_209
*723 FILLER_16_217
*724 FILLER_16_223
*725 FILLER_16_27
*726 FILLER_16_29
*727 FILLER_16_3
*728 FILLER_16_47
*729 FILLER_16_69
*730 FILLER_16_7
*731 FILLER_16_79
*732 FILLER_16_83
*733 FILLER_16_85
*734 FILLER_17_101
*735 FILLER_17_105
*736 FILLER_17_111
*737 FILLER_17_116
*738 FILLER_17_134
*739 FILLER_17_146
*740 FILLER_17_164
*741 FILLER_17_169
*742 FILLER_17_17
*743 FILLER_17_181
*744 FILLER_17_193
*745 FILLER_17_201
*746 FILLER_17_208
*747 FILLER_17_220
*748 FILLER_17_29
*749 FILLER_17_62
*750 FILLER_17_89
*751 FILLER_18_104
*752 FILLER_18_109
*753 FILLER_18_123
*754 FILLER_18_130
*755 FILLER_18_138
*756 FILLER_18_141
*757 FILLER_18_15
*758 FILLER_18_153
*759 FILLER_18_161
*760 FILLER_18_175
*761 FILLER_18_194
*762 FILLER_18_197
*763 FILLER_18_218
*764 FILLER_18_27
*765 FILLER_18_3
*766 FILLER_18_41
*767 FILLER_18_60
*768 FILLER_18_68
*769 FILLER_18_75
*770 FILLER_18_83
*771 FILLER_18_85
*772 FILLER_18_92
*773 FILLER_19_102
*774 FILLER_19_110
*775 FILLER_19_118
*776 FILLER_19_122
*777 FILLER_19_134
*778 FILLER_19_142
*779 FILLER_19_155
*780 FILLER_19_163
*781 FILLER_19_176
*782 FILLER_19_188
*783 FILLER_19_192
*784 FILLER_19_217
*785 FILLER_19_223
*786 FILLER_19_27
*787 FILLER_19_3
*788 FILLER_19_35
*789 FILLER_19_52
*790 FILLER_19_57
*791 FILLER_19_84
*792 FILLER_19_96
*793 FILLER_1_105
*794 FILLER_1_111
*795 FILLER_1_113
*796 FILLER_1_125
*797 FILLER_1_137
*798 FILLER_1_149
*799 FILLER_1_15
*800 FILLER_1_161
*801 FILLER_1_167
*802 FILLER_1_169
*803 FILLER_1_181
*804 FILLER_1_193
*805 FILLER_1_205
*806 FILLER_1_217
*807 FILLER_1_223
*808 FILLER_1_27
*809 FILLER_1_3
*810 FILLER_1_39
*811 FILLER_1_51
*812 FILLER_1_55
*813 FILLER_1_57
*814 FILLER_1_69
*815 FILLER_1_81
*816 FILLER_1_93
*817 FILLER_20_109
*818 FILLER_20_122
*819 FILLER_20_134
*820 FILLER_20_141
*821 FILLER_20_15
*822 FILLER_20_164
*823 FILLER_20_176
*824 FILLER_20_188
*825 FILLER_20_200
*826 FILLER_20_209
*827 FILLER_20_221
*828 FILLER_20_29
*829 FILLER_20_3
*830 FILLER_20_37
*831 FILLER_20_43
*832 FILLER_20_55
*833 FILLER_20_63
*834 FILLER_20_74
*835 FILLER_20_82
*836 FILLER_20_85
*837 FILLER_20_97
*838 FILLER_21_105
*839 FILLER_21_11
*840 FILLER_21_113
*841 FILLER_21_126
*842 FILLER_21_138
*843 FILLER_21_142
*844 FILLER_21_148
*845 FILLER_21_155
*846 FILLER_21_167
*847 FILLER_21_169
*848 FILLER_21_177
*849 FILLER_21_191
*850 FILLER_21_203
*851 FILLER_21_215
*852 FILLER_21_223
*853 FILLER_21_23
*854 FILLER_21_3
*855 FILLER_21_52
*856 FILLER_21_57
*857 FILLER_21_68
*858 FILLER_21_77
*859 FILLER_21_83
*860 FILLER_21_91
*861 FILLER_21_98
*862 FILLER_22_103
*863 FILLER_22_141
*864 FILLER_22_145
*865 FILLER_22_151
*866 FILLER_22_16
*867 FILLER_22_165
*868 FILLER_22_177
*869 FILLER_22_189
*870 FILLER_22_195
*871 FILLER_22_206
*872 FILLER_22_213
*873 FILLER_22_221
*874 FILLER_22_25
*875 FILLER_22_29
*876 FILLER_22_3
*877 FILLER_22_41
*878 FILLER_22_47
*879 FILLER_22_59
*880 FILLER_22_69
*881 FILLER_22_75
*882 FILLER_22_91
*883 FILLER_23_108
*884 FILLER_23_117
*885 FILLER_23_129
*886 FILLER_23_167
*887 FILLER_23_172
*888 FILLER_23_180
*889 FILLER_23_187
*890 FILLER_23_195
*891 FILLER_23_200
*892 FILLER_23_206
*893 FILLER_23_211
*894 FILLER_23_22
*895 FILLER_23_223
*896 FILLER_23_3
*897 FILLER_23_34
*898 FILLER_23_46
*899 FILLER_23_54
*900 FILLER_23_57
*901 FILLER_23_62
*902 FILLER_23_70
*903 FILLER_23_86
*904 FILLER_23_92
*905 FILLER_23_96
*906 FILLER_24_105
*907 FILLER_24_117
*908 FILLER_24_129
*909 FILLER_24_137
*910 FILLER_24_141
*911 FILLER_24_151
*912 FILLER_24_155
*913 FILLER_24_174
*914 FILLER_24_195
*915 FILLER_24_202
*916 FILLER_24_223
*917 FILLER_24_29
*918 FILLER_24_3
*919 FILLER_24_41
*920 FILLER_24_50
*921 FILLER_24_54
*922 FILLER_24_69
*923 FILLER_24_75
*924 FILLER_24_83
*925 FILLER_24_85
*926 FILLER_24_89
*927 FILLER_24_9
*928 FILLER_24_97
*929 FILLER_25_11
*930 FILLER_25_117
*931 FILLER_25_121
*932 FILLER_25_129
*933 FILLER_25_141
*934 FILLER_25_154
*935 FILLER_25_166
*936 FILLER_25_169
*937 FILLER_25_181
*938 FILLER_25_192
*939 FILLER_25_208
*940 FILLER_25_214
*941 FILLER_25_222
*942 FILLER_25_3
*943 FILLER_25_52
*944 FILLER_25_79
*945 FILLER_25_91
*946 FILLER_25_95
*947 FILLER_26_115
*948 FILLER_26_134
*949 FILLER_26_153
*950 FILLER_26_165
*951 FILLER_26_177
*952 FILLER_26_181
*953 FILLER_26_190
*954 FILLER_26_197
*955 FILLER_26_209
*956 FILLER_26_22
*957 FILLER_26_221
*958 FILLER_26_29
*959 FILLER_26_49
*960 FILLER_26_6
*961 FILLER_26_83
*962 FILLER_26_85
*963 FILLER_27_101
*964 FILLER_27_109
*965 FILLER_27_113
*966 FILLER_27_125
*967 FILLER_27_142
*968 FILLER_27_154
*969 FILLER_27_166
*970 FILLER_27_169
*971 FILLER_27_181
*972 FILLER_27_188
*973 FILLER_27_193
*974 FILLER_27_205
*975 FILLER_27_219
*976 FILLER_27_223
*977 FILLER_27_29
*978 FILLER_27_3
*979 FILLER_27_35
*980 FILLER_27_39
*981 FILLER_27_57
*982 FILLER_27_69
*983 FILLER_27_81
*984 FILLER_27_89
*985 FILLER_28_102
*986 FILLER_28_114
*987 FILLER_28_126
*988 FILLER_28_132
*989 FILLER_28_136
*990 FILLER_28_141
*991 FILLER_28_149
*992 FILLER_28_173
*993 FILLER_28_194
*994 FILLER_28_203
*995 FILLER_28_208
*996 FILLER_28_216
*997 FILLER_28_3
*998 FILLER_28_32
*999 FILLER_28_40
*1000 FILLER_28_53
*1001 FILLER_28_65
*1002 FILLER_28_76
*1003 FILLER_28_85
*1004 FILLER_29_105
*1005 FILLER_29_11
*1006 FILLER_29_111
*1007 FILLER_29_113
*1008 FILLER_29_125
*1009 FILLER_29_131
*1010 FILLER_29_143
*1011 FILLER_29_151
*1012 FILLER_29_167
*1013 FILLER_29_169
*1014 FILLER_29_188
*1015 FILLER_29_19
*1016 FILLER_29_200
*1017 FILLER_29_220
*1018 FILLER_29_3
*1019 FILLER_29_31
*1020 FILLER_29_46
*1021 FILLER_29_54
*1022 FILLER_29_57
*1023 FILLER_29_69
*1024 FILLER_29_81
*1025 FILLER_29_93
*1026 FILLER_2_109
*1027 FILLER_2_121
*1028 FILLER_2_133
*1029 FILLER_2_139
*1030 FILLER_2_141
*1031 FILLER_2_15
*1032 FILLER_2_153
*1033 FILLER_2_165
*1034 FILLER_2_177
*1035 FILLER_2_189
*1036 FILLER_2_195
*1037 FILLER_2_197
*1038 FILLER_2_209
*1039 FILLER_2_221
*1040 FILLER_2_27
*1041 FILLER_2_29
*1042 FILLER_2_3
*1043 FILLER_2_41
*1044 FILLER_2_53
*1045 FILLER_2_65
*1046 FILLER_2_77
*1047 FILLER_2_83
*1048 FILLER_2_85
*1049 FILLER_2_97
*1050 FILLER_30_104
*1051 FILLER_30_112
*1052 FILLER_30_120
*1053 FILLER_30_124
*1054 FILLER_30_137
*1055 FILLER_30_141
*1056 FILLER_30_151
*1057 FILLER_30_157
*1058 FILLER_30_162
*1059 FILLER_30_174
*1060 FILLER_30_186
*1061 FILLER_30_194
*1062 FILLER_30_197
*1063 FILLER_30_29
*1064 FILLER_30_55
*1065 FILLER_30_67
*1066 FILLER_30_81
*1067 FILLER_30_85
*1068 FILLER_30_93
*1069 FILLER_31_111
*1070 FILLER_31_113
*1071 FILLER_31_123
*1072 FILLER_31_129
*1073 FILLER_31_135
*1074 FILLER_31_139
*1075 FILLER_31_15
*1076 FILLER_31_160
*1077 FILLER_31_169
*1078 FILLER_31_183
*1079 FILLER_31_195
*1080 FILLER_31_211
*1081 FILLER_31_27
*1082 FILLER_31_3
*1083 FILLER_31_39
*1084 FILLER_31_57
*1085 FILLER_31_63
*1086 FILLER_31_87
*1087 FILLER_32_109
*1088 FILLER_32_11
*1089 FILLER_32_119
*1090 FILLER_32_139
*1091 FILLER_32_141
*1092 FILLER_32_153
*1093 FILLER_32_166
*1094 FILLER_32_172
*1095 FILLER_32_178
*1096 FILLER_32_185
*1097 FILLER_32_205
*1098 FILLER_32_217
*1099 FILLER_32_23
*1100 FILLER_32_27
*1101 FILLER_32_29
*1102 FILLER_32_3
*1103 FILLER_32_41
*1104 FILLER_32_51
*1105 FILLER_32_70
*1106 FILLER_32_75
*1107 FILLER_32_83
*1108 FILLER_32_85
*1109 FILLER_32_97
*1110 FILLER_33_105
*1111 FILLER_33_111
*1112 FILLER_33_113
*1113 FILLER_33_125
*1114 FILLER_33_13
*1115 FILLER_33_137
*1116 FILLER_33_149
*1117 FILLER_33_191
*1118 FILLER_33_203
*1119 FILLER_33_216
*1120 FILLER_33_23
*1121 FILLER_33_27
*1122 FILLER_33_3
*1123 FILLER_33_39
*1124 FILLER_33_48
*1125 FILLER_33_57
*1126 FILLER_33_69
*1127 FILLER_33_81
*1128 FILLER_33_93
*1129 FILLER_34_103
*1130 FILLER_34_115
*1131 FILLER_34_129
*1132 FILLER_34_14
*1133 FILLER_34_150
*1134 FILLER_34_160
*1135 FILLER_34_168
*1136 FILLER_34_173
*1137 FILLER_34_185
*1138 FILLER_34_193
*1139 FILLER_34_197
*1140 FILLER_34_209
*1141 FILLER_34_21
*1142 FILLER_34_221
*1143 FILLER_34_27
*1144 FILLER_34_29
*1145 FILLER_34_3
*1146 FILLER_34_41
*1147 FILLER_34_53
*1148 FILLER_34_65
*1149 FILLER_34_73
*1150 FILLER_34_79
*1151 FILLER_34_83
*1152 FILLER_34_85
*1153 FILLER_34_89
*1154 FILLER_35_108
*1155 FILLER_35_113
*1156 FILLER_35_150
*1157 FILLER_35_164
*1158 FILLER_35_169
*1159 FILLER_35_177
*1160 FILLER_35_185
*1161 FILLER_35_197
*1162 FILLER_35_209
*1163 FILLER_35_213
*1164 FILLER_35_217
*1165 FILLER_35_223
*1166 FILLER_35_26
*1167 FILLER_35_30
*1168 FILLER_35_51
*1169 FILLER_35_55
*1170 FILLER_35_57
*1171 FILLER_35_6
*1172 FILLER_35_82
*1173 FILLER_35_94
*1174 FILLER_36_105
*1175 FILLER_36_111
*1176 FILLER_36_121
*1177 FILLER_36_138
*1178 FILLER_36_161
*1179 FILLER_36_174
*1180 FILLER_36_184
*1181 FILLER_36_19
*1182 FILLER_36_195
*1183 FILLER_36_197
*1184 FILLER_36_201
*1185 FILLER_36_216
*1186 FILLER_36_29
*1187 FILLER_36_3
*1188 FILLER_36_47
*1189 FILLER_36_55
*1190 FILLER_36_63
*1191 FILLER_36_71
*1192 FILLER_36_83
*1193 FILLER_36_85
*1194 FILLER_36_89
*1195 FILLER_36_99
*1196 FILLER_37_107
*1197 FILLER_37_113
*1198 FILLER_37_15
*1199 FILLER_37_179
*1200 FILLER_37_191
*1201 FILLER_37_195
*1202 FILLER_37_197
*1203 FILLER_37_208
*1204 FILLER_37_220
*1205 FILLER_37_23
*1206 FILLER_37_29
*1207 FILLER_37_3
*1208 FILLER_37_36
*1209 FILLER_37_43
*1210 FILLER_37_55
*1211 FILLER_37_57
*1212 FILLER_37_69
*1213 FILLER_37_77
*1214 FILLER_37_83
*1215 FILLER_37_85
*1216 FILLER_37_90
*1217 FILLER_37_98
*1218 FILLER_3_105
*1219 FILLER_3_111
*1220 FILLER_3_113
*1221 FILLER_3_125
*1222 FILLER_3_137
*1223 FILLER_3_149
*1224 FILLER_3_15
*1225 FILLER_3_161
*1226 FILLER_3_167
*1227 FILLER_3_169
*1228 FILLER_3_181
*1229 FILLER_3_193
*1230 FILLER_3_205
*1231 FILLER_3_217
*1232 FILLER_3_223
*1233 FILLER_3_27
*1234 FILLER_3_3
*1235 FILLER_3_39
*1236 FILLER_3_51
*1237 FILLER_3_55
*1238 FILLER_3_57
*1239 FILLER_3_69
*1240 FILLER_3_81
*1241 FILLER_3_93
*1242 FILLER_4_109
*1243 FILLER_4_132
*1244 FILLER_4_148
*1245 FILLER_4_15
*1246 FILLER_4_160
*1247 FILLER_4_172
*1248 FILLER_4_184
*1249 FILLER_4_197
*1250 FILLER_4_209
*1251 FILLER_4_221
*1252 FILLER_4_27
*1253 FILLER_4_29
*1254 FILLER_4_3
*1255 FILLER_4_41
*1256 FILLER_4_53
*1257 FILLER_4_65
*1258 FILLER_4_77
*1259 FILLER_4_83
*1260 FILLER_4_85
*1261 FILLER_4_97
*1262 FILLER_5_123
*1263 FILLER_5_143
*1264 FILLER_5_15
*1265 FILLER_5_155
*1266 FILLER_5_166
*1267 FILLER_5_169
*1268 FILLER_5_181
*1269 FILLER_5_193
*1270 FILLER_5_205
*1271 FILLER_5_217
*1272 FILLER_5_223
*1273 FILLER_5_27
*1274 FILLER_5_3
*1275 FILLER_5_39
*1276 FILLER_5_51
*1277 FILLER_5_55
*1278 FILLER_5_57
*1279 FILLER_5_69
*1280 FILLER_5_77
*1281 FILLER_5_85
*1282 FILLER_5_97
*1283 FILLER_6_104
*1284 FILLER_6_114
*1285 FILLER_6_126
*1286 FILLER_6_134
*1287 FILLER_6_146
*1288 FILLER_6_15
*1289 FILLER_6_158
*1290 FILLER_6_170
*1291 FILLER_6_176
*1292 FILLER_6_184
*1293 FILLER_6_194
*1294 FILLER_6_197
*1295 FILLER_6_209
*1296 FILLER_6_221
*1297 FILLER_6_27
*1298 FILLER_6_29
*1299 FILLER_6_3
*1300 FILLER_6_41
*1301 FILLER_6_53
*1302 FILLER_6_65
*1303 FILLER_6_92
*1304 FILLER_7_109
*1305 FILLER_7_113
*1306 FILLER_7_121
*1307 FILLER_7_127
*1308 FILLER_7_139
*1309 FILLER_7_15
*1310 FILLER_7_151
*1311 FILLER_7_163
*1312 FILLER_7_187
*1313 FILLER_7_199
*1314 FILLER_7_211
*1315 FILLER_7_223
*1316 FILLER_7_27
*1317 FILLER_7_3
*1318 FILLER_7_39
*1319 FILLER_7_52
*1320 FILLER_7_64
*1321 FILLER_7_69
*1322 FILLER_7_81
*1323 FILLER_7_97
*1324 FILLER_8_109
*1325 FILLER_8_113
*1326 FILLER_8_130
*1327 FILLER_8_138
*1328 FILLER_8_141
*1329 FILLER_8_15
*1330 FILLER_8_153
*1331 FILLER_8_166
*1332 FILLER_8_178
*1333 FILLER_8_187
*1334 FILLER_8_195
*1335 FILLER_8_197
*1336 FILLER_8_203
*1337 FILLER_8_223
*1338 FILLER_8_27
*1339 FILLER_8_29
*1340 FILLER_8_3
*1341 FILLER_8_41
*1342 FILLER_8_45
*1343 FILLER_8_56
*1344 FILLER_8_72
*1345 FILLER_8_97
*1346 FILLER_9_101
*1347 FILLER_9_109
*1348 FILLER_9_113
*1349 FILLER_9_117
*1350 FILLER_9_134
*1351 FILLER_9_146
*1352 FILLER_9_15
*1353 FILLER_9_161
*1354 FILLER_9_167
*1355 FILLER_9_177
*1356 FILLER_9_189
*1357 FILLER_9_193
*1358 FILLER_9_203
*1359 FILLER_9_210
*1360 FILLER_9_218
*1361 FILLER_9_27
*1362 FILLER_9_3
*1363 FILLER_9_39
*1364 FILLER_9_48
*1365 FILLER_9_57
*1366 FILLER_9_67
*1367 FILLER_9_73
*1368 FILLER_9_85
*1369 PHY_EDGE_ROW_0_Left_38
*1370 PHY_EDGE_ROW_0_Right_0
*1371 PHY_EDGE_ROW_10_Left_48
*1372 PHY_EDGE_ROW_10_Right_10
*1373 PHY_EDGE_ROW_11_Left_49
*1374 PHY_EDGE_ROW_11_Right_11
*1375 PHY_EDGE_ROW_12_Left_50
*1376 PHY_EDGE_ROW_12_Right_12
*1377 PHY_EDGE_ROW_13_Left_51
*1378 PHY_EDGE_ROW_13_Right_13
*1379 PHY_EDGE_ROW_14_Left_52
*1380 PHY_EDGE_ROW_14_Right_14
*1381 PHY_EDGE_ROW_15_Left_53
*1382 PHY_EDGE_ROW_15_Right_15
*1383 PHY_EDGE_ROW_16_Left_54
*1384 PHY_EDGE_ROW_16_Right_16
*1385 PHY_EDGE_ROW_17_Left_55
*1386 PHY_EDGE_ROW_17_Right_17
*1387 PHY_EDGE_ROW_18_Left_56
*1388 PHY_EDGE_ROW_18_Right_18
*1389 PHY_EDGE_ROW_19_Left_57
*1390 PHY_EDGE_ROW_19_Right_19
*1391 PHY_EDGE_ROW_1_Left_39
*1392 PHY_EDGE_ROW_1_Right_1
*1393 PHY_EDGE_ROW_20_Left_58
*1394 PHY_EDGE_ROW_20_Right_20
*1395 PHY_EDGE_ROW_21_Left_59
*1396 PHY_EDGE_ROW_21_Right_21
*1397 PHY_EDGE_ROW_22_Left_60
*1398 PHY_EDGE_ROW_22_Right_22
*1399 PHY_EDGE_ROW_23_Left_61
*1400 PHY_EDGE_ROW_23_Right_23
*1401 PHY_EDGE_ROW_24_Left_62
*1402 PHY_EDGE_ROW_24_Right_24
*1403 PHY_EDGE_ROW_25_Left_63
*1404 PHY_EDGE_ROW_25_Right_25
*1405 PHY_EDGE_ROW_26_Left_64
*1406 PHY_EDGE_ROW_26_Right_26
*1407 PHY_EDGE_ROW_27_Left_65
*1408 PHY_EDGE_ROW_27_Right_27
*1409 PHY_EDGE_ROW_28_Left_66
*1410 PHY_EDGE_ROW_28_Right_28
*1411 PHY_EDGE_ROW_29_Left_67
*1412 PHY_EDGE_ROW_29_Right_29
*1413 PHY_EDGE_ROW_2_Left_40
*1414 PHY_EDGE_ROW_2_Right_2
*1415 PHY_EDGE_ROW_30_Left_68
*1416 PHY_EDGE_ROW_30_Right_30
*1417 PHY_EDGE_ROW_31_Left_69
*1418 PHY_EDGE_ROW_31_Right_31
*1419 PHY_EDGE_ROW_32_Left_70
*1420 PHY_EDGE_ROW_32_Right_32
*1421 PHY_EDGE_ROW_33_Left_71
*1422 PHY_EDGE_ROW_33_Right_33
*1423 PHY_EDGE_ROW_34_Left_72
*1424 PHY_EDGE_ROW_34_Right_34
*1425 PHY_EDGE_ROW_35_Left_73
*1426 PHY_EDGE_ROW_35_Right_35
*1427 PHY_EDGE_ROW_36_Left_74
*1428 PHY_EDGE_ROW_36_Right_36
*1429 PHY_EDGE_ROW_37_Left_75
*1430 PHY_EDGE_ROW_37_Right_37
*1431 PHY_EDGE_ROW_3_Left_41
*1432 PHY_EDGE_ROW_3_Right_3
*1433 PHY_EDGE_ROW_4_Left_42
*1434 PHY_EDGE_ROW_4_Right_4
*1435 PHY_EDGE_ROW_5_Left_43
*1436 PHY_EDGE_ROW_5_Right_5
*1437 PHY_EDGE_ROW_6_Left_44
*1438 PHY_EDGE_ROW_6_Right_6
*1439 PHY_EDGE_ROW_7_Left_45
*1440 PHY_EDGE_ROW_7_Right_7
*1441 PHY_EDGE_ROW_8_Left_46
*1442 PHY_EDGE_ROW_8_Right_8
*1443 PHY_EDGE_ROW_9_Left_47
*1444 PHY_EDGE_ROW_9_Right_9
*1445 TAP_TAPCELL_ROW_0_76
*1446 TAP_TAPCELL_ROW_0_77
*1447 TAP_TAPCELL_ROW_0_78
*1448 TAP_TAPCELL_ROW_0_79
*1449 TAP_TAPCELL_ROW_0_80
*1450 TAP_TAPCELL_ROW_0_81
*1451 TAP_TAPCELL_ROW_0_82
*1452 TAP_TAPCELL_ROW_10_114
*1453 TAP_TAPCELL_ROW_10_115
*1454 TAP_TAPCELL_ROW_10_116
*1455 TAP_TAPCELL_ROW_10_117
*1456 TAP_TAPCELL_ROW_11_118
*1457 TAP_TAPCELL_ROW_11_119
*1458 TAP_TAPCELL_ROW_11_120
*1459 TAP_TAPCELL_ROW_12_121
*1460 TAP_TAPCELL_ROW_12_122
*1461 TAP_TAPCELL_ROW_12_123
*1462 TAP_TAPCELL_ROW_12_124
*1463 TAP_TAPCELL_ROW_13_125
*1464 TAP_TAPCELL_ROW_13_126
*1465 TAP_TAPCELL_ROW_13_127
*1466 TAP_TAPCELL_ROW_14_128
*1467 TAP_TAPCELL_ROW_14_129
*1468 TAP_TAPCELL_ROW_14_130
*1469 TAP_TAPCELL_ROW_14_131
*1470 TAP_TAPCELL_ROW_15_132
*1471 TAP_TAPCELL_ROW_15_133
*1472 TAP_TAPCELL_ROW_15_134
*1473 TAP_TAPCELL_ROW_16_135
*1474 TAP_TAPCELL_ROW_16_136
*1475 TAP_TAPCELL_ROW_16_137
*1476 TAP_TAPCELL_ROW_16_138
*1477 TAP_TAPCELL_ROW_17_139
*1478 TAP_TAPCELL_ROW_17_140
*1479 TAP_TAPCELL_ROW_17_141
*1480 TAP_TAPCELL_ROW_18_142
*1481 TAP_TAPCELL_ROW_18_143
*1482 TAP_TAPCELL_ROW_18_144
*1483 TAP_TAPCELL_ROW_18_145
*1484 TAP_TAPCELL_ROW_19_146
*1485 TAP_TAPCELL_ROW_19_147
*1486 TAP_TAPCELL_ROW_19_148
*1487 TAP_TAPCELL_ROW_1_83
*1488 TAP_TAPCELL_ROW_1_84
*1489 TAP_TAPCELL_ROW_1_85
*1490 TAP_TAPCELL_ROW_20_149
*1491 TAP_TAPCELL_ROW_20_150
*1492 TAP_TAPCELL_ROW_20_151
*1493 TAP_TAPCELL_ROW_20_152
*1494 TAP_TAPCELL_ROW_21_153
*1495 TAP_TAPCELL_ROW_21_154
*1496 TAP_TAPCELL_ROW_21_155
*1497 TAP_TAPCELL_ROW_22_156
*1498 TAP_TAPCELL_ROW_22_157
*1499 TAP_TAPCELL_ROW_22_158
*1500 TAP_TAPCELL_ROW_22_159
*1501 TAP_TAPCELL_ROW_23_160
*1502 TAP_TAPCELL_ROW_23_161
*1503 TAP_TAPCELL_ROW_23_162
*1504 TAP_TAPCELL_ROW_24_163
*1505 TAP_TAPCELL_ROW_24_164
*1506 TAP_TAPCELL_ROW_24_165
*1507 TAP_TAPCELL_ROW_24_166
*1508 TAP_TAPCELL_ROW_25_167
*1509 TAP_TAPCELL_ROW_25_168
*1510 TAP_TAPCELL_ROW_25_169
*1511 TAP_TAPCELL_ROW_26_170
*1512 TAP_TAPCELL_ROW_26_171
*1513 TAP_TAPCELL_ROW_26_172
*1514 TAP_TAPCELL_ROW_26_173
*1515 TAP_TAPCELL_ROW_27_174
*1516 TAP_TAPCELL_ROW_27_175
*1517 TAP_TAPCELL_ROW_27_176
*1518 TAP_TAPCELL_ROW_28_177
*1519 TAP_TAPCELL_ROW_28_178
*1520 TAP_TAPCELL_ROW_28_179
*1521 TAP_TAPCELL_ROW_28_180
*1522 TAP_TAPCELL_ROW_29_181
*1523 TAP_TAPCELL_ROW_29_182
*1524 TAP_TAPCELL_ROW_29_183
*1525 TAP_TAPCELL_ROW_2_86
*1526 TAP_TAPCELL_ROW_2_87
*1527 TAP_TAPCELL_ROW_2_88
*1528 TAP_TAPCELL_ROW_2_89
*1529 TAP_TAPCELL_ROW_30_184
*1530 TAP_TAPCELL_ROW_30_185
*1531 TAP_TAPCELL_ROW_30_186
*1532 TAP_TAPCELL_ROW_30_187
*1533 TAP_TAPCELL_ROW_31_188
*1534 TAP_TAPCELL_ROW_31_189
*1535 TAP_TAPCELL_ROW_31_190
*1536 TAP_TAPCELL_ROW_32_191
*1537 TAP_TAPCELL_ROW_32_192
*1538 TAP_TAPCELL_ROW_32_193
*1539 TAP_TAPCELL_ROW_32_194
*1540 TAP_TAPCELL_ROW_33_195
*1541 TAP_TAPCELL_ROW_33_196
*1542 TAP_TAPCELL_ROW_33_197
*1543 TAP_TAPCELL_ROW_34_198
*1544 TAP_TAPCELL_ROW_34_199
*1545 TAP_TAPCELL_ROW_34_200
*1546 TAP_TAPCELL_ROW_34_201
*1547 TAP_TAPCELL_ROW_35_202
*1548 TAP_TAPCELL_ROW_35_203
*1549 TAP_TAPCELL_ROW_35_204
*1550 TAP_TAPCELL_ROW_36_205
*1551 TAP_TAPCELL_ROW_36_206
*1552 TAP_TAPCELL_ROW_36_207
*1553 TAP_TAPCELL_ROW_36_208
*1554 TAP_TAPCELL_ROW_37_209
*1555 TAP_TAPCELL_ROW_37_210
*1556 TAP_TAPCELL_ROW_37_211
*1557 TAP_TAPCELL_ROW_37_212
*1558 TAP_TAPCELL_ROW_37_213
*1559 TAP_TAPCELL_ROW_37_214
*1560 TAP_TAPCELL_ROW_37_215
*1561 TAP_TAPCELL_ROW_3_90
*1562 TAP_TAPCELL_ROW_3_91
*1563 TAP_TAPCELL_ROW_3_92
*1564 TAP_TAPCELL_ROW_4_93
*1565 TAP_TAPCELL_ROW_4_94
*1566 TAP_TAPCELL_ROW_4_95
*1567 TAP_TAPCELL_ROW_4_96
*1568 TAP_TAPCELL_ROW_5_97
*1569 TAP_TAPCELL_ROW_5_98
*1570 TAP_TAPCELL_ROW_5_99
*1571 TAP_TAPCELL_ROW_6_100
*1572 TAP_TAPCELL_ROW_6_101
*1573 TAP_TAPCELL_ROW_6_102
*1574 TAP_TAPCELL_ROW_6_103
*1575 TAP_TAPCELL_ROW_7_104
*1576 TAP_TAPCELL_ROW_7_105
*1577 TAP_TAPCELL_ROW_7_106
*1578 TAP_TAPCELL_ROW_8_107
*1579 TAP_TAPCELL_ROW_8_108
*1580 TAP_TAPCELL_ROW_8_109
*1581 TAP_TAPCELL_ROW_8_110
*1582 TAP_TAPCELL_ROW_9_111
*1583 TAP_TAPCELL_ROW_9_112
*1584 TAP_TAPCELL_ROW_9_113
*1585 _458_
*1586 _459_
*1587 _460_
*1588 _461_
*1589 _462_
*1590 _463_
*1591 _464_
*1592 _465_
*1593 _466_
*1594 _467_
*1595 _468_
*1596 _469_
*1597 _470_
*1598 _471_
*1599 _472_
*1600 _473_
*1601 _474_
*1602 _475_
*1603 _476_
*1604 _477_
*1605 _478_
*1606 _479_
*1607 _480_
*1608 _481_
*1609 _482_
*1610 _483_
*1611 _484_
*1612 _485_
*1613 _486_
*1614 _487_
*1615 _488_
*1616 _489_
*1617 _490_
*1618 _491_
*1619 _492_
*1620 _493_
*1621 _494_
*1622 _495_
*1623 _496_
*1624 _497_
*1625 _498_
*1626 _499_
*1627 _500_
*1628 _501_
*1629 _502_
*1630 _503_
*1631 _504_
*1632 _505_
*1633 _506_
*1634 _507_
*1635 _508_
*1636 _509_
*1637 _510_
*1638 _511_
*1639 _512_
*1640 _513_
*1641 _514_
*1642 _515_
*1643 _516_
*1644 _517_
*1645 _518_
*1646 _519_
*1647 _520_
*1648 _521_
*1649 _522_
*1650 _523_
*1651 _524_
*1652 _525_
*1653 _526_
*1654 _527_
*1655 _528_
*1656 _529_
*1657 _530_
*1658 _531_
*1659 _532_
*1660 _533_
*1661 _534_
*1662 _535_
*1663 _536_
*1664 _537_
*1665 _538_
*1666 _539_
*1667 _540_
*1668 _541_
*1669 _542_
*1670 _543_
*1671 _544_
*1672 _545_
*1673 _546_
*1674 _547_
*1675 _548_
*1676 _549_
*1677 _550_
*1678 _551_
*1679 _552_
*1680 _553_
*1681 _554_
*1682 _555_
*1683 _556_
*1684 _557_
*1685 _558_
*1686 _559_
*1687 _560_
*1688 _561_
*1689 _562_
*1690 _563_
*1691 _564_
*1692 _565_
*1693 _566_
*1694 _567_
*1695 _568_
*1696 _569_
*1697 _570_
*1698 _571_
*1699 _572_
*1700 _573_
*1701 _574_
*1702 _575_
*1703 _576_
*1704 _577_
*1705 _578_
*1706 _579_
*1707 _580_
*1708 _581_
*1709 _582_
*1710 _583_
*1711 _584_
*1712 _585_
*1713 _586_
*1714 _587_
*1715 _588_
*1716 _589_
*1717 _590_
*1718 _591_
*1719 _592_
*1720 _593_
*1721 _594_
*1722 _595_
*1723 _596_
*1724 _597_
*1725 _598_
*1726 _599_
*1727 _600_
*1728 _601_
*1729 _602_
*1730 _603_
*1731 _604_
*1732 _605_
*1733 _606_
*1734 _607_
*1735 _608_
*1736 _609_
*1737 _610_
*1738 _611_
*1739 _612_
*1740 _613_
*1741 _614_
*1742 _615_
*1743 _616_
*1744 _617_
*1745 _618_
*1746 _619_
*1747 _620_
*1748 _621_
*1749 _622_
*1750 _623_
*1751 _624_
*1752 _625_
*1753 _626_
*1754 _627_
*1755 _628_
*1756 _629_
*1757 _630_
*1758 _631_
*1759 _632_
*1760 _633_
*1761 _634_
*1762 _635_
*1763 _636_
*1764 _637_
*1765 _638_
*1766 _639_
*1767 _640_
*1768 _641_
*1769 _642_
*1770 _643_
*1771 _644_
*1772 _645_
*1773 _646_
*1774 _647_
*1775 _648_
*1776 _649_
*1777 _650_
*1778 _651_
*1779 _652_
*1780 _653_
*1781 _654_
*1782 _655_
*1783 _656_
*1784 _657_
*1785 _658_
*1786 _659_
*1787 _660_
*1788 _661_
*1789 _662_
*1790 _663_
*1791 _664_
*1792 _665_
*1793 _666_
*1794 _667_
*1795 _668_
*1796 _669_
*1797 _670_
*1798 _671_
*1799 _672_
*1800 _673_
*1801 _674_
*1802 _675_
*1803 _676_
*1804 _677_
*1805 _678_
*1806 _679_
*1807 _680_
*1808 _681_
*1809 _682_
*1810 _683_
*1811 _684_
*1812 _685_
*1813 _686_
*1814 _687_
*1815 _688_
*1816 _689_
*1817 _690_
*1818 _691_
*1819 _692_
*1820 _693_
*1821 _694_
*1822 _695_
*1823 _696_
*1824 _697_
*1825 _698_
*1826 _699_
*1827 _700_
*1828 _701_
*1829 _702_
*1830 _703_
*1831 _704_
*1832 _705_
*1833 _706_
*1834 _707_
*1835 _708_
*1836 _709_
*1837 _710_
*1838 _711_
*1839 _712_
*1840 _713_
*1841 _714_
*1842 _715_
*1843 _716_
*1844 _717_
*1845 _718_
*1846 _719_
*1847 _720_
*1848 _721_
*1849 _722_
*1850 _723_
*1851 _724_
*1852 _725_
*1853 _726_
*1854 _727_
*1855 _728_
*1856 _729_
*1857 _730_
*1858 _731_
*1859 _732_
*1860 _733_
*1861 _734_
*1862 _735_
*1863 _736_
*1864 _737_
*1865 _738_
*1866 _739_
*1867 _740_
*1868 _741_
*1869 _742_
*1870 _743_
*1871 _744_
*1872 _745_
*1873 _746_
*1874 _747_
*1875 _748_
*1876 _749_
*1877 _750_
*1878 _751_
*1879 _752_
*1880 _753_
*1881 _754_
*1882 _755_
*1883 _756_
*1884 _757_
*1885 _758_
*1886 _759_
*1887 _760_
*1888 _761_
*1889 _762_
*1890 _763_
*1891 _764_
*1892 _765_
*1893 _766_
*1894 _767_
*1895 _768_
*1896 _769_
*1897 _770_
*1898 _771_
*1899 _772_
*1900 _773_
*1901 _774_
*1902 _775_
*1903 _776_
*1904 _777_
*1905 _778_
*1906 _779_
*1907 _780_
*1908 _781_
*1909 _782_
*1910 _783_
*1911 _784_
*1912 _785_
*1913 _786_
*1914 _787_
*1915 _788_
*1916 _789_
*1917 _790_
*1918 _791_
*1919 _792_
*1920 _793_
*1921 _794_
*1922 _795_
*1923 _796_
*1924 _797_
*1925 _798_
*1926 _799_
*1927 _800_
*1928 _801_
*1929 _802_
*1930 _803_
*1931 _804_
*1932 _805_
*1933 _806_
*1934 _807_
*1935 _808_
*1936 _809_
*1937 _810_
*1938 _811_
*1939 _812_
*1940 _813_
*1941 _814_
*1942 _815_
*1943 _816_
*1944 _817_
*1945 _818_
*1946 _819_
*1947 _820_
*1948 _821_
*1949 _822_
*1950 _823_
*1951 _824_
*1952 _825_
*1953 _826_
*1954 _827_
*1955 _828_
*1956 _829_
*1957 _830_
*1958 _831_
*1959 _832_
*1960 _833_
*1961 _834_
*1962 _835_
*1963 _836_
*1964 _837_
*1965 _838_
*1966 _839_
*1967 _840_
*1968 _841_
*1969 _842_
*1970 _843_
*1971 _844_
*1972 _845_
*1973 _846_
*1974 _847_
*1975 _848_
*1976 _849_
*1977 _850_
*1978 _851_
*1979 _852_
*1980 _853_
*1981 _854_
*1982 _855_
*1983 _856_
*1984 _857_
*1985 _858_
*1986 _859_
*1987 _860_
*1988 _861_
*1989 _862_
*1990 _863_
*1991 _864_
*1992 _865_
*1993 _866_
*1994 _867_
*1995 _868_
*1996 _869_
*1997 _870_
*1998 _871_
*1999 _872_
*2000 _873_
*2001 _874_
*2002 _875_
*2003 _876_
*2004 _877_
*2005 _878_
*2006 _879_
*2007 _880_
*2008 _881_
*2009 _882_
*2010 _883_
*2011 _884_
*2012 _885_
*2013 _886_
*2014 _887_
*2015 _888_
*2016 _889_
*2017 _890_
*2018 _891_
*2019 _892_
*2020 _893_
*2021 _894_
*2022 _895_
*2023 _896_
*2024 _897_
*2025 _898_
*2026 _899_
*2027 _900_
*2028 _901_
*2029 _902_
*2030 _903_
*2031 _904_
*2032 _905_
*2033 _906_
*2034 _907_
*2035 _908_
*2036 _909_
*2037 _910_
*2038 _911_
*2039 _912_
*2040 _913_
*2041 _914_
*2042 _915_
*2043 _916_
*2044 _917_
*2045 _918_
*2046 _919_
*2047 _920_
*2048 _921_
*2049 _922_
*2050 _923_
*2051 clone10
*2052 clone8
*2053 fanout29
*2054 fanout33
*2055 fanout34
*2056 fanout35
*2057 fanout36
*2058 fanout37
*2059 fanout38
*2060 fanout39
*2061 fanout40
*2062 fanout41
*2063 fanout42
*2064 fanout43
*2065 fanout44
*2066 fanout45
*2067 fanout46
*2068 fanout47
*2069 fanout48
*2070 fanout49
*2071 fanout50
*2072 fanout51
*2073 fanout52
*2074 fanout53
*2075 fanout54
*2076 fanout55
*2077 fanout56
*2078 fanout57
*2079 fanout58
*2080 fanout59
*2081 fanout60
*2082 fanout61
*2083 fanout62
*2084 fanout63
*2085 fanout64
*2086 fanout65
*2087 fanout66
*2088 fanout67
*2089 fanout68
*2090 fanout69
*2091 input1
*2092 input10
*2093 input11
*2094 input12
*2095 input13
*2096 input14
*2097 input15
*2098 input16
*2099 input17
*2100 input18
*2101 input19
*2102 input2
*2103 input20
*2104 input3
*2105 input4
*2106 input5
*2107 input6
*2108 input7
*2109 input8
*2110 input9
*2111 max_cap30
*2112 max_cap31
*2113 output21
*2114 output22
*2115 output23
*2116 output24
*2117 output25
*2118 output26
*2119 output27
*2120 output28
*2121 rebuffer1
*2122 rebuffer18
*2123 rebuffer2
*2124 rebuffer23
*2125 rebuffer3
*2126 rebuffer4
*2127 rebuffer5
*2128 rebuffer6
*2129 rebuffer7
*2130 rebuffer9
*2131 wire32

*PORTS
inst[0] I
inst[1] I
inst[2] I
inst[3] I
op_a[0] I
op_a[1] I
op_a[2] I
op_a[3] I
op_a[4] I
op_a[5] I
op_a[6] I
op_a[7] I
op_b[0] I
op_b[1] I
op_b[2] I
op_b[3] I
op_b[4] I
op_b[5] I
op_b[6] I
op_b[7] I
op_out[0] O
op_out[1] O
op_out[2] O
op_out[3] O
op_out[4] O
op_out[5] O
op_out[6] O
op_out[7] O

*D_NET *3 0.00136411
*CONN
*P inst[0] I
*I *2091:A I *D sky130_fd_sc_hd__dlymetal6s2s_1
*CAP
1 inst[0] 0.000469912
2 *2091:A 0.000469912
3 *2091:A op_out[1] 0
4 *2091:A *1594:A 6.77417e-05
5 *2091:A *1594:B 6.53932e-05
6 *2091:A *2105:A 0
7 *2091:A *326:18 0.000200615
8 *2091:A *511:51 9.05352e-05
*RES
1 inst[0] *2091:A 13.455 
*END

*D_NET *4 0.000877455
*CONN
*P inst[1] I
*I *2102:A I *D sky130_fd_sc_hd__dlymetal6s2s_1
*CAP
1 inst[1] 0.000438728
2 *2102:A 0.000438728
3 *2102:A op_out[0] 0
4 *2102:A op_out[3] 0
5 *2102:A *2113:A 0
6 *2102:A *2116:A 0
*RES
1 inst[1] *2102:A 11.37 
*END

*D_NET *5 0.00244562
*CONN
*P inst[2] I
*I *2104:A I *D sky130_fd_sc_hd__buf_2
*CAP
1 inst[2] 0.000628028
2 *2104:A 0.000628028
3 *2104:A op_out[5] 3.23663e-05
4 *2104:A *1595:A_N 3.25831e-05
5 *2104:A *2094:A 0
6 *2104:A *2105:A 0.000548022
7 *2104:A *326:6 0.000163204
8 *2104:A *326:18 4.82863e-05
9 *2104:A *511:8 9.21168e-05
10 *2104:A *522:10 0.000272984
*RES
1 inst[2] *2104:A 18.645 
*END

*D_NET *6 0.00260691
*CONN
*P inst[3] I
*I *2105:A I *D sky130_fd_sc_hd__buf_1
*CAP
1 inst[3] 0.00065747
2 *2105:A 0.00065747
3 *2105:A op_out[5] 5.30673e-05
4 *2105:A *2094:A 4.99619e-05
5 *2105:A *326:18 8.65439e-05
6 *2105:A *489:21 2.75145e-05
7 *2105:A *511:45 0.000149419
8 *2105:A *511:51 0.000377443
9 *2091:A *2105:A 0
10 *2104:A *2105:A 0.000548022
*RES
1 inst[3] *2105:A 19.965 
*END

*D_NET *7 0.000556165
*CONN
*P op_a[0] I
*I *2106:A I *D sky130_fd_sc_hd__clkbuf_1
*CAP
1 op_a[0] 0.000208065
2 *2106:A 0.000208065
3 *2106:A *2107:A 7.56675e-05
4 *2106:A *544:18 6.4368e-05
*RES
1 op_a[0] *2106:A 6.3185 
*END

*D_NET *8 0.000588647
*CONN
*P op_a[1] I
*I *2107:A I *D sky130_fd_sc_hd__clkbuf_2
*CAP
1 op_a[1] 0.0002197
2 *2107:A 0.0002197
3 *2107:A *2108:A 0
4 *2107:A *544:18 7.3579e-05
5 *2106:A *2107:A 7.56675e-05
*RES
1 op_a[1] *2107:A 6.12177 
*END

*D_NET *9 0.000491204
*CONN
*P op_a[2] I
*I *2108:A I *D sky130_fd_sc_hd__clkbuf_1
*CAP
1 op_a[2] 0.000208997
2 *2108:A 0.000208997
3 *2108:A *2109:A 7.32103e-05
4 *2108:A *385:23 0
5 *2107:A *2108:A 0
*RES
1 op_a[2] *2108:A 5.8085 
*END

*D_NET *10 0.000665995
*CONN
*P op_a[3] I
*I *2109:A I *D sky130_fd_sc_hd__buf_1
*CAP
1 op_a[3] 0.000219823
2 *2109:A 0.000219823
3 *2109:A *2021:A_N 0.000153139
4 *2109:A *385:23 0
5 *2108:A *2109:A 7.32103e-05
*RES
1 op_a[3] *2109:A 6.5735 
*END

*D_NET *11 0.000798065
*CONN
*P op_a[4] I
*I *2110:A I *D sky130_fd_sc_hd__clkbuf_1
*CAP
1 op_a[4] 0.000385271
2 *2110:A 0.000385271
3 *2110:A *2092:A 0
4 *2110:A *2096:A 0
5 *2110:A *490:10 2.75229e-05
*RES
1 op_a[4] *2110:A 10.35 
*END

*D_NET *12 0.000812724
*CONN
*P op_a[5] I
*I *2092:A I *D sky130_fd_sc_hd__clkbuf_2
*CAP
1 op_a[5] 0.000406362
2 *2092:A 0.000406362
3 *2092:A *2095:A 0
4 *2110:A *2092:A 0
*RES
1 op_a[5] *2092:A 10.44 
*END

*D_NET *13 0.000874227
*CONN
*P op_a[6] I
*I *2093:A I *D sky130_fd_sc_hd__buf_1
*CAP
1 op_a[6] 0.000437114
2 *2093:A 0.000437114
3 *2093:A op_out[2] 0
4 *2093:A *2103:A 0
5 *2093:A *2115:A 0
*RES
1 op_a[6] *2093:A 11.37 
*END

*D_NET *14 0.00105153
*CONN
*P op_a[7] I
*I *2094:A I *D sky130_fd_sc_hd__clkbuf_4
*CAP
1 op_a[7] 0.00047664
2 *2094:A 0.00047664
3 *2094:A op_out[5] 0
4 *2094:A *511:45 4.82919e-05
5 *2104:A *2094:A 0
6 *2105:A *2094:A 4.99619e-05
*RES
1 op_a[7] *2094:A 12.255 
*END

*D_NET *15 0.000812724
*CONN
*P op_b[0] I
*I *2095:A I *D sky130_fd_sc_hd__clkbuf_2
*CAP
1 op_b[0] 0.000406362
2 *2095:A 0.000406362
3 *2092:A *2095:A 0
*RES
1 op_b[0] *2095:A 10.44 
*END

*D_NET *16 0.000794837
*CONN
*P op_b[1] I
*I *2096:A I *D sky130_fd_sc_hd__buf_1
*CAP
1 op_b[1] 0.000383657
2 *2096:A 0.000383657
3 *2096:A *490:10 2.75229e-05
4 *2110:A *2096:A 0
*RES
1 op_b[1] *2096:A 10.35 
*END

*D_NET *17 0.00076825
*CONN
*P op_b[2] I
*I *2097:A I *D sky130_fd_sc_hd__clkbuf_1
*CAP
1 op_b[2] 0.000384125
2 *2097:A 0.000384125
*RES
1 op_b[2] *2097:A 10.455 
*END

*D_NET *18 0.000535568
*CONN
*P op_b[3] I
*I *2098:A I *D sky130_fd_sc_hd__clkbuf_1
*CAP
1 op_b[3] 0.000267784
2 *2098:A 0.000267784
*RES
1 op_b[3] *2098:A 6.8343 
*END

*D_NET *19 0.000627925
*CONN
*P op_b[4] I
*I *2099:A I *D sky130_fd_sc_hd__buf_6
*CAP
1 op_b[4] 0.000313963
2 *2099:A 0.000313963
*RES
1 op_b[4] *2099:A 7.6893 
*END

*D_NET *20 0.00101676
*CONN
*P op_b[5] I
*I *2100:A I *D sky130_fd_sc_hd__clkbuf_2
*CAP
1 op_b[5] 0.000390444
2 *2100:A 0.000390444
3 *2100:A *2073:A 3.25831e-05
4 *2100:A *2076:A 0.000128991
5 *2100:A *2101:A 2.24901e-05
6 *2100:A *534:27 5.1805e-05
*RES
1 op_b[5] *2100:A 6.5879 
*END

*D_NET *21 0.000619452
*CONN
*P op_b[6] I
*I *2101:A I *D sky130_fd_sc_hd__buf_1
*CAP
1 op_b[6] 0.000298481
2 *2101:A 0.000298481
3 *2100:A *2101:A 2.24901e-05
*RES
1 op_b[6] *2101:A 7.5993 
*END

*D_NET *22 0.000874227
*CONN
*P op_b[7] I
*I *2103:A I *D sky130_fd_sc_hd__buf_1
*CAP
1 op_b[7] 0.000437114
2 *2103:A 0.000437114
3 *2093:A *2103:A 0
*RES
1 op_b[7] *2103:A 11.37 
*END

*D_NET *23 0.00147283
*CONN
*P op_out[0] O
*I *2113:X O *D sky130_fd_sc_hd__buf_8
*CAP
1 op_out[0] 0.000518615
2 *2113:X 0.000518615
3 op_out[0] op_out[1] 0
4 op_out[0] *2113:A 0.000155817
5 op_out[0] *326:18 0.000279787
6 *2102:A op_out[0] 0
*RES
1 *2113:X op_out[0] 14.145 
*END

*D_NET *24 0.00185264
*CONN
*P op_out[1] O
*I *2114:X O *D sky130_fd_sc_hd__buf_2
*CAP
1 op_out[1] 0.000773514
2 *2114:X 0.000773514
3 op_out[1] *1586:A 0
4 op_out[1] *1816:D_N 2.8185e-05
5 op_out[1] *1827:A 7.9642e-06
6 op_out[1] *1827:C 1.38676e-05
7 op_out[1] *2113:A 0
8 op_out[1] *2114:A 0.000122331
9 op_out[1] *491:26 0.000133268
10 op_out[1] *511:51 0
11 op_out[0] op_out[1] 0
12 *2091:A op_out[1] 0
*RES
1 *2114:X op_out[1] 16.695 
*END

*D_NET *25 0.00085605
*CONN
*P op_out[2] O
*I *2115:X O *D sky130_fd_sc_hd__buf_2
*CAP
1 op_out[2] 0.000428025
2 *2115:X 0.000428025
3 op_out[2] op_out[4] 0
4 *2093:A op_out[2] 0
*RES
1 *2115:X op_out[2] 11.205 
*END

*D_NET *26 0.00114146
*CONN
*P op_out[3] O
*I *2116:X O *D sky130_fd_sc_hd__buf_2
*CAP
1 op_out[3] 0.000426942
2 *2116:X 0.000426942
3 op_out[3] op_out[4] 0.000267689
4 op_out[3] *491:26 1.98869e-05
5 *2102:A op_out[3] 0
*RES
1 *2116:X op_out[3] 12.345 
*END

*D_NET *27 0.00103774
*CONN
*P op_out[4] O
*I *2117:X O *D sky130_fd_sc_hd__buf_4
*CAP
1 op_out[4] 0.000376334
2 *2117:X 0.000376334
3 op_out[4] *491:26 1.7386e-05
4 op_out[2] op_out[4] 0
5 op_out[3] op_out[4] 0.000267689
*RES
1 *2117:X op_out[4] 12.255 
*END

*D_NET *28 0.00154934
*CONN
*P op_out[5] O
*I *2118:X O *D sky130_fd_sc_hd__clkbuf_4
*CAP
1 op_out[5] 0.000724673
2 *2118:X 0.000724673
3 op_out[5] *511:8 1.0124e-05
4 op_out[5] *511:45 4.43871e-06
5 *2094:A op_out[5] 0
6 *2104:A op_out[5] 3.23663e-05
7 *2105:A op_out[5] 5.30673e-05
*RES
1 *2118:X op_out[5] 14.76 
*END

*D_NET *29 0.000722466
*CONN
*P op_out[6] O
*I *2119:X O *D sky130_fd_sc_hd__clkbuf_4
*CAP
1 op_out[6] 0.000280085
2 *2119:X 0.000280085
3 op_out[6] op_out[7] 0.000162297
4 op_out[6] *2119:A 0
*RES
1 *2119:X op_out[6] 7.0835 
*END

*D_NET *30 0.000621872
*CONN
*P op_out[7] O
*I *2120:X O *D sky130_fd_sc_hd__buf_2
*CAP
1 op_out[7] 0.000210311
2 *2120:X 0.000210311
3 op_out[7] *2050:C1 0
4 op_out[7] *2119:A 3.89528e-05
5 op_out[6] op_out[7] 0.000162297
*RES
1 *2120:X op_out[7] 5.86677 
*END

*D_NET *31 0.00175311
*CONN
*I *1659:B1 I *D sky130_fd_sc_hd__o211a_1
*I *1658:B1 I *D sky130_fd_sc_hd__o21ai_1
*I *1656:X O *D sky130_fd_sc_hd__a211o_1
*CAP
1 *1659:B1 0.000132799
2 *1658:B1 9.27872e-05
3 *1656:X 0.000144161
4 *31:6 0.000369747
5 *1658:B1 *1658:A1 4.82863e-05
6 *1658:B1 *1658:A2 8.43862e-05
7 *1658:B1 *1706:B1 3.64998e-06
8 *1658:B1 *551:37 0.000151574
9 *1659:B1 *1660:B1 6.55328e-05
10 *1659:B1 *241:28 0.000114492
11 *1659:B1 *475:10 8.45475e-05
12 *1659:B1 *475:12 3.09164e-05
13 *1659:B1 *475:51 6.52181e-05
14 *1659:B1 *475:68 0.000149179
15 *1659:B1 *517:14 4.07555e-05
16 *31:6 *1658:A2 5.83121e-06
17 *31:6 *551:37 0.000169251
*RES
1 *1656:X *31:6 4.465 
2 *31:6 *1658:B1 4.12 
3 *31:6 *1659:B1 9.53 
*END

*D_NET *32 0.0010651
*CONN
*I *1660:B1 I *D sky130_fd_sc_hd__o211ai_2
*I *1657:X O *D sky130_fd_sc_hd__a211o_1
*CAP
1 *1660:B1 0.0003143
2 *1657:X 0.0003143
3 *1660:B1 *1659:A2 8.40213e-05
4 *1660:B1 *1659:C1 4.88478e-05
5 *1660:B1 *1986:A 8.65961e-05
6 *1660:B1 *294:55 7.92464e-06
7 *1660:B1 *517:8 1.63849e-05
8 *1660:B1 *517:14 0.000127195
9 *1659:B1 *1660:B1 6.55328e-05
*RES
1 *1657:X *1660:B1 12.135 
*END

*D_NET *33 0.00282059
*CONN
*I *1706:B1 I *D sky130_fd_sc_hd__a21o_1
*I *1658:Y O *D sky130_fd_sc_hd__o21ai_1
*CAP
1 *1706:B1 0.00105153
2 *1658:Y 0.00105153
3 *1706:B1 *1670:A1 2.49909e-05
4 *1706:B1 *1670:A2 2.49909e-05
5 *1706:B1 *1670:B1 2.0514e-05
6 *1706:B1 *1670:C1 0.000163204
7 *1706:B1 *1698:B1 0.000419392
8 *1706:B1 *45:12 3.99545e-05
9 *1706:B1 *45:56 1.03323e-05
10 *1706:B1 *48:12 4.18603e-06
11 *1706:B1 *82:20 0
12 *1706:B1 *283:26 0
13 *1706:B1 *551:37 6.3124e-06
14 *1658:B1 *1706:B1 3.64998e-06
*RES
1 *1658:Y *1706:B1 20.07 
*END

*D_NET *34 0.00323231
*CONN
*I *1666:C1 I *D sky130_fd_sc_hd__a221o_1
*I *1665:B1 I *D sky130_fd_sc_hd__a21oi_1
*I *1661:A_N I *D sky130_fd_sc_hd__and2b_1
*I *1659:X O *D sky130_fd_sc_hd__o211a_1
*CAP
1 *1666:C1 1.66962e-05
2 *1665:B1 0
3 *1661:A_N 7.87918e-06
4 *1659:X 0.00036439
5 *34:14 0.00012761
6 *34:8 0.000500817
7 *1661:A_N *1661:B 2.11084e-05
8 *1661:A_N *1697:A 4.99619e-05
9 *1666:C1 *1665:A2 5.16418e-05
10 *1666:C1 *1699:C 1.73877e-05
11 *34:8 *1664:A 0.000141323
12 *34:8 *1666:A1 0.000120655
13 *34:8 *1705:B 4.66108e-05
14 *34:8 *39:10 0.000106091
15 *34:8 *39:12 1.26803e-05
16 *34:8 *294:55 0.000957337
17 *34:14 *1661:B 4.85494e-05
18 *34:14 *1665:A1 0.000207828
19 *34:14 *1665:A2 0.0003213
20 *34:14 *1697:A 4.08022e-05
21 *34:14 *1699:C 7.16437e-05
*RES
1 *1659:X *34:8 14.055 
2 *34:8 *34:14 6.665 
3 *34:14 *1661:A_N 2.05 
4 *34:14 *1665:B1 1.6 
5 *34:8 *1666:C1 4.215 
*END

*D_NET *35 0.00439398
*CONN
*I *1666:B1 I *D sky130_fd_sc_hd__a221o_1
*I *1661:B I *D sky130_fd_sc_hd__and2b_1
*I *1665:A1 I *D sky130_fd_sc_hd__a21oi_1
*I *1660:Y O *D sky130_fd_sc_hd__o211ai_2
*CAP
1 *1666:B1 0
2 *1661:B 0.000278729
3 *1665:A1 0.000242022
4 *1660:Y 0.000440213
5 *35:12 0.000574457
6 *35:10 0.000493918
7 *1661:B *1665:A2 0.000111901
8 *1661:B *1697:A 3.99879e-05
9 *1665:A1 *1665:A2 5.16915e-05
10 *1665:A1 *485:12 9.84957e-05
11 *35:10 *1698:B1 1.82476e-05
12 *35:10 *1699:C 0
13 *35:10 *1707:C 0
14 *35:10 *241:28 0.000690079
15 *35:10 *485:12 0.000163992
16 *35:10 *485:25 0.00015806
17 *35:10 *493:23 0.000464493
18 *35:10 *551:6 4.70919e-05
19 *35:12 *1665:A2 8.07863e-05
20 *35:12 *485:12 0.000162332
21 *1661:A_N *1661:B 2.11084e-05
22 *34:14 *1661:B 4.85494e-05
23 *34:14 *1665:A1 0.000207828
*RES
1 *1660:Y *35:10 15.075 
2 *35:10 *35:12 1.89 
3 *35:12 *1665:A1 7.59 
4 *35:12 *1661:B 8.535 
5 *35:10 *1666:B1 3.6 
*END

*D_NET *36 0.000433166
*CONN
*I *1705:A I *D sky130_fd_sc_hd__xnor2_1
*I *1661:X O *D sky130_fd_sc_hd__and2b_1
*CAP
1 *1705:A 0.000216583
2 *1661:X 0.000216583
*RES
1 *1661:X *1705:A 9.975 
*END

*D_NET *37 0.000976988
*CONN
*I *1676:A I *D sky130_fd_sc_hd__or4_1
*I *1662:Y O *D sky130_fd_sc_hd__nor2_1
*CAP
1 *1676:A 0.00026455
2 *1662:Y 0.00026455
3 *1676:A *1663:B 0.000170897
4 *1676:A *1676:B 9.27255e-06
5 *1676:A *38:19 0.000157959
6 *1676:A *45:56 0.000109758
*RES
1 *1662:Y *1676:A 8.87 
*END

*D_NET *38 0.00837908
*CONN
*I *1880:C I *D sky130_fd_sc_hd__and3_1
*I *1881:B1 I *D sky130_fd_sc_hd__a21oi_1
*I *1907:C I *D sky130_fd_sc_hd__and3_1
*I *1676:B I *D sky130_fd_sc_hd__or4_1
*I *1663:Y O *D sky130_fd_sc_hd__nor2_4
*CAP
1 *1880:C 0
2 *1881:B1 0.000142415
3 *1907:C 0.000576539
4 *1676:B 0.000186217
5 *1663:Y 0
6 *38:34 0.00031711
7 *38:19 0.00221805
8 *38:4 0.00165303
9 *1676:B *1663:B 0.000231634
10 *1881:B1 *1862:A 6.99752e-05
11 *1881:B1 *1881:A2 8.20228e-05
12 *1881:B1 *256:12 0.000117702
13 *1881:B1 *521:83 1.70616e-05
14 *1907:C *1907:B 2.91741e-05
15 *1907:C *1908:B1 5.4003e-05
16 *1907:C *2028:A2 0
17 *1907:C *2029:B 6.4422e-05
18 *1907:C *410:8 0
19 *1907:C *492:87 0
20 *1907:C *517:58 2.97004e-06
21 *1907:C *519:25 0
22 *1907:C *521:89 2.92496e-05
23 *1907:C *529:35 0.000441811
24 *38:19 *1610:C 0.00011891
25 *38:19 *1617:B 8.65961e-05
26 *38:19 *1617:C 3.23663e-05
27 *38:19 *1620:B1 4.99619e-05
28 *38:19 *1620:C1 4.99619e-05
29 *38:19 *1662:B 0.000309618
30 *38:19 *2129:A 0.000158066
31 *38:19 *439:10 5.85479e-05
32 *38:19 *444:30 0.000177533
33 *38:19 *450:10 8.05167e-05
34 *38:19 *519:58 0.000386221
35 *38:19 *519:62 0.000255288
36 *38:19 *521:89 4.66108e-05
37 *38:34 *1881:A2 2.0857e-06
38 *38:34 *521:83 1.6408e-05
39 *38:34 *521:89 0.000149759
40 *1676:A *1676:B 9.27255e-06
41 *1676:A *38:19 0.000157959
*RES
1 *1663:Y *38:4 1.6 
2 *38:4 *1676:B 4.39 
3 *38:4 *38:19 24.54 
4 *38:19 *1907:C 17.09 
5 *38:19 *38:34 2.235 
6 *38:34 *1881:B1 8.54 
7 *38:34 *1880:C 1.6 
*END

*D_NET *39 0.00245497
*CONN
*I *1666:B2 I *D sky130_fd_sc_hd__a221o_1
*I *1665:A2 I *D sky130_fd_sc_hd__a21oi_1
*I *1705:B I *D sky130_fd_sc_hd__xnor2_1
*I *1664:Y O *D sky130_fd_sc_hd__nand2_1
*CAP
1 *1666:B2 0
2 *1665:A2 0.000131836
3 *1705:B 0.000315953
4 *1664:Y 0.000245982
5 *39:12 0.000464724
6 *39:10 0.000262918
7 *1705:B *1666:A1 9.72742e-06
8 *1705:B *1707:C 0.000162575
9 *39:10 *1666:A1 6.57312e-05
10 *39:10 *1666:A2 1.2818e-05
11 *1661:B *1665:A2 0.000111901
12 *1665:A1 *1665:A2 5.16915e-05
13 *1666:C1 *1665:A2 5.16418e-05
14 *34:8 *1705:B 4.66108e-05
15 *34:8 *39:10 0.000106091
16 *34:8 *39:12 1.26803e-05
17 *34:14 *1665:A2 0.0003213
18 *35:12 *1665:A2 8.07863e-05
*RES
1 *1664:Y *39:10 5.755 
2 *39:10 *39:12 0.315 
3 *39:12 *1705:B 7.585 
4 *39:12 *1665:A2 9.83 
5 *39:10 *1666:B2 1.6 
*END

*D_NET *40 0.000643175
*CONN
*I *1697:A I *D sky130_fd_sc_hd__xnor2_1
*I *1665:Y O *D sky130_fd_sc_hd__a21oi_1
*CAP
1 *1697:A 0.000256212
2 *1665:Y 0.000256212
3 *1697:A *1699:C 0
4 *1661:A_N *1697:A 4.99619e-05
5 *1661:B *1697:A 3.99879e-05
6 *34:14 *1697:A 4.08022e-05
*RES
1 *1665:Y *1697:A 10.7775 
*END

*D_NET *41 0.00136621
*CONN
*I *1671:A2 I *D sky130_fd_sc_hd__a311o_1
*I *1670:A3 I *D sky130_fd_sc_hd__a311oi_2
*I *1667:B I *D sky130_fd_sc_hd__nand2_1
*I *1666:X O *D sky130_fd_sc_hd__a221o_1
*CAP
1 *1671:A2 8.46323e-05
2 *1670:A3 0
3 *1667:B 2.61242e-05
4 *1666:X 3.57103e-05
5 *41:19 0.000143249
6 *41:8 0.000120451
7 *1667:B *485:25 4.66108e-05
8 *1671:A2 *1671:A3 0.000127366
9 *1671:A2 *1687:B 5.38986e-05
10 *1671:A2 *1689:A2 8.23457e-05
11 *1671:A2 *1698:B1 2.07184e-05
12 *1671:A2 *2121:A 4.41506e-05
13 *1671:A2 *485:25 9.50342e-06
14 *41:8 *1698:B1 0.00011852
15 *41:8 *546:73 6.55328e-05
16 *41:19 *1698:B1 0.000193564
17 *41:19 *485:25 0.00018305
18 *41:19 *546:73 1.07797e-05
*RES
1 *1666:X *41:8 4.98 
2 *41:8 *1667:B 4.05 
3 *41:8 *41:19 2.4 
4 *41:19 *1670:A3 3.6 
5 *41:19 *1671:A2 6.03 
*END

*D_NET *42 0.000841659
*CONN
*I *1687:B I *D sky130_fd_sc_hd__xnor2_1
*I *1667:Y O *D sky130_fd_sc_hd__nand2_1
*CAP
1 *1687:B 0.000193976
2 *1667:Y 0.000193976
3 *1687:B *1671:A3 9.3062e-06
4 *1687:B *1687:A 7.61024e-05
5 *1687:B *1698:B1 0.000162318
6 *1687:B *1707:C 0
7 *1687:B *46:10 7.10578e-05
8 *1687:B *49:14 8.10233e-05
9 *1687:B *546:73 0
10 *1671:A2 *1687:B 5.38986e-05
*RES
1 *1667:Y *1687:B 12.015 
*END

*D_NET *43 0.0032922
*CONN
*I *1669:A2 I *D sky130_fd_sc_hd__a21oi_1
*I *1692:B1 I *D sky130_fd_sc_hd__a21o_1
*I *1672:C I *D sky130_fd_sc_hd__and3_1
*I *1668:X O *D sky130_fd_sc_hd__or2_1
*CAP
1 *1669:A2 2.08101e-05
2 *1692:B1 0.000280567
3 *1672:C 4.30129e-05
4 *1668:X 0.000248487
5 *43:12 0.000491778
6 *43:6 0.000437495
7 *1672:C *1673:A 7.23533e-05
8 *1672:C *2112:A 6.37488e-06
9 *1672:C *49:14 3.67779e-05
10 *1692:B1 *1692:A1 2.59295e-05
11 *1692:B1 *1692:A2 0.00013184
12 *1692:B1 *1716:A1 3.09088e-05
13 *43:6 *1689:A2 0.000196376
14 *43:6 *44:10 0.000122331
15 *43:6 *64:14 2.30292e-05
16 *43:6 *471:10 0.000177455
17 *43:6 *471:20 1.19928e-05
18 *43:6 *544:30 0.000110563
19 *43:12 *1673:A 6.61973e-05
20 *43:12 *1677:A1 2.45351e-05
21 *43:12 *1677:B1 0.00015639
22 *43:12 *1692:A1 0.000271308
23 *43:12 *1692:A2 0.000158072
24 *43:12 *44:10 1.08758e-05
25 *43:12 *49:14 1.71013e-05
26 *43:12 *49:42 2.23407e-05
27 *43:12 *52:10 2.75145e-05
28 *43:12 *471:20 1.19928e-05
29 *43:12 *513:23 4.82863e-05
30 *43:12 *536:24 9.50342e-06
*RES
1 *1668:X *43:6 7.915 
2 *43:6 *43:12 7.115 
3 *43:12 *1672:C 4.635 
4 *43:12 *1692:B1 7.635 
5 *43:6 *1669:A2 1.96 
*END

*D_NET *44 0.00276012
*CONN
*I *1671:B1 I *D sky130_fd_sc_hd__a311o_1
*I *1670:B1 I *D sky130_fd_sc_hd__a311oi_2
*I *1669:Y O *D sky130_fd_sc_hd__a21oi_1
*CAP
1 *1671:B1 0
2 *1670:B1 6.53823e-05
3 *1669:Y 0.00028693
4 *44:10 0.000352313
5 *1670:B1 *1670:C1 0.000188506
6 *1670:B1 *45:12 8.8266e-05
7 *1670:B1 *45:56 0
8 *1670:B1 *241:39 0.000159964
9 *44:10 *1663:B 5.16418e-05
10 *44:10 *1670:C1 9.50342e-06
11 *44:10 *1689:A2 0.000142434
12 *44:10 *64:14 8.23457e-05
13 *44:10 *241:39 0.000696784
14 *44:10 *478:10 0.000129047
15 *44:10 *565:58 0.00035328
16 *1706:B1 *1670:B1 2.0514e-05
17 *43:6 *44:10 0.000122331
18 *43:12 *44:10 1.08758e-05
*RES
1 *1669:Y *44:10 13.515 
2 *44:10 *1670:B1 6.285 
3 *44:10 *1671:B1 3.6 
*END

*D_NET *45 0.00487293
*CONN
*I *1676:C I *D sky130_fd_sc_hd__or4_1
*I *1675:A I *D sky130_fd_sc_hd__nor2_1
*I *1707:A I *D sky130_fd_sc_hd__or3_4
*I *1699:A I *D sky130_fd_sc_hd__or3_4
*I *1670:Y O *D sky130_fd_sc_hd__a311oi_2
*CAP
1 *1676:C 0
2 *1675:A 9.87618e-05
3 *1707:A 0
4 *1699:A 0.000198997
5 *1670:Y 0
6 *45:56 0.00103914
7 *45:12 0.000497534
8 *45:4 0.00123892
9 *1675:A *1645:A 5.16418e-05
10 *1675:A *1663:B 8.03494e-05
11 *1675:A *1676:D 2.55502e-05
12 *1675:A *49:42 9.35611e-05
13 *1675:A *52:10 5.33085e-05
14 *1675:A *64:14 1.33285e-05
15 *1699:A *1698:B1 0.000170617
16 *1699:A *1699:B 9.56482e-05
17 *1699:A *49:14 2.0514e-05
18 *1699:A *82:20 6.71823e-05
19 *45:12 *1670:A1 4.82863e-05
20 *45:12 *1670:A2 4.66108e-05
21 *45:12 *1670:C1 6.90876e-05
22 *45:12 *1698:B1 0.00019637
23 *45:12 *82:20 7.40446e-05
24 *45:56 *1663:A 0
25 *45:56 *1663:B 2.75025e-05
26 *45:56 *1688:B1 0.000121688
27 *45:56 *1689:A1 0.000117011
28 *45:56 *1689:A2 0
29 *45:56 *1689:B1 9.50036e-05
30 *45:56 *2026:D_N 0
31 *45:56 *49:42 1.31519e-05
32 *45:56 *50:8 5.99393e-05
33 *45:56 *64:14 1.08758e-05
34 *45:56 *241:39 0
35 *45:56 *544:34 0
36 *45:56 *551:107 0
37 *1670:B1 *45:12 8.8266e-05
38 *1670:B1 *45:56 0
39 *1676:A *45:56 0.000109758
40 *1706:B1 *45:12 3.99545e-05
41 *1706:B1 *45:56 1.03323e-05
*RES
1 *1670:Y *45:4 1.6 
2 *45:4 *45:12 6.45 
3 *45:12 *1699:A 9.14 
4 *45:12 *1707:A 1.6 
5 *45:4 *45:56 20.425 
6 *45:56 *1675:A 8.165 
7 *45:56 *1676:C 1.6 
*END

*D_NET *46 0.00176635
*CONN
*I *2121:A I *D sky130_fd_sc_hd__dlygate4sd1_1
*I *1706:A1 I *D sky130_fd_sc_hd__a21o_1
*I *1698:A1 I *D sky130_fd_sc_hd__a21o_1
*I *1671:X O *D sky130_fd_sc_hd__a311o_1
*CAP
1 *2121:A 0.000101878
2 *1706:A1 0
3 *1698:A1 0.000182189
4 *1671:X 1.77753e-05
5 *46:10 0.000392742
6 *46:6 0.000330207
7 *1698:A1 *1698:A2 5.5626e-05
8 *1698:A1 *81:8 8.8266e-05
9 *2121:A *1687:A 2.30292e-05
10 *2121:A *1689:A2 6.97643e-05
11 *2121:A *556:10 0.000265265
12 *46:6 *1687:A 0
13 *46:10 *1687:A 2.24098e-05
14 *46:10 *1689:A2 4.82919e-05
15 *46:10 *1698:A2 3.00381e-05
16 *46:10 *82:20 2.36616e-05
17 *1671:A2 *2121:A 4.41506e-05
18 *1687:B *46:10 7.10578e-05
*RES
1 *1671:X *46:6 1.96 
2 *46:6 *46:10 3.825 
3 *46:10 *1698:A1 4.135 
4 *46:10 *1706:A1 1.6 
5 *46:6 *2121:A 4.465 
*END

*D_NET *47 0.000578269
*CONN
*I *1673:D I *D sky130_fd_sc_hd__nor4_1
*I *1674:D I *D sky130_fd_sc_hd__or4_4
*I *1672:X O *D sky130_fd_sc_hd__and3_1
*CAP
1 *1673:D 0
2 *1674:D 4.87536e-05
3 *1672:X 8.88131e-05
4 *47:8 0.000137567
5 *1674:D *283:12 0.000116165
6 *1674:D *471:26 6.55328e-05
7 *47:8 *1673:A 0.000121437
8 *47:8 *539:85 0
*RES
1 *1672:X *47:8 3.1 
2 *47:8 *1674:D 6.98 
3 *47:8 *1673:D 1.6 
*END

*D_NET *48 0.00199687
*CONN
*I *2112:A I *D sky130_fd_sc_hd__buf_1
*I *1698:A2 I *D sky130_fd_sc_hd__a21o_1
*I *1706:A2 I *D sky130_fd_sc_hd__a21o_1
*I *1673:Y O *D sky130_fd_sc_hd__nor4_1
*CAP
1 *2112:A 8.46867e-05
2 *1698:A2 7.83512e-05
3 *1706:A2 0
4 *1673:Y 2.63842e-05
5 *48:12 0.000390354
6 *48:6 0.000423073
7 *1698:A2 *1687:A 1.37328e-05
8 *1698:A2 *81:8 3.00381e-05
9 *1698:A2 *82:20 0.000142661
10 *2112:A *1672:A 1.83847e-05
11 *2112:A *1673:A 2.75229e-05
12 *2112:A *471:20 0.000124007
13 *2112:A *471:26 7.57202e-05
14 *2112:A *539:104 3.26889e-05
15 *48:6 *1673:A 2.05056e-05
16 *48:6 *1673:C 8.57024e-05
17 *48:6 *471:26 0.000122331
18 *48:12 *49:14 0
19 *48:12 *82:20 4.13171e-05
20 *48:12 *283:12 0.000163185
21 *48:12 *283:26 0
22 *1672:C *2112:A 6.37488e-06
23 *1698:A1 *1698:A2 5.5626e-05
24 *1706:B1 *48:12 4.18603e-06
25 *46:10 *1698:A2 3.00381e-05
*RES
1 *1673:Y *48:6 2.74 
2 *48:6 *48:12 9.97 
3 *48:12 *1706:A2 1.6 
4 *48:12 *1698:A2 4.495 
5 *48:6 *2112:A 4.045 
*END

*D_NET *49 0.0033467
*CONN
*I *1676:D I *D sky130_fd_sc_hd__or4_1
*I *1675:B I *D sky130_fd_sc_hd__nor2_1
*I *1707:B I *D sky130_fd_sc_hd__or3_4
*I *1699:B I *D sky130_fd_sc_hd__or3_4
*I *1674:X O *D sky130_fd_sc_hd__or4_4
*CAP
1 *1676:D 1.01321e-05
2 *1675:B 0
3 *1707:B 0
4 *1699:B 8.08146e-05
5 *1674:X 2.89988e-05
6 *49:42 0.000260128
7 *49:14 0.000741595
8 *49:8 0.000939775
9 *1676:D *64:14 4.82863e-05
10 *49:8 *1692:A2 4.66108e-05
11 *49:14 *1673:A 1.82563e-05
12 *49:14 *82:20 0.000220247
13 *49:14 *539:85 9.54399e-05
14 *49:14 *556:10 0
15 *49:14 *556:21 0
16 *49:42 *64:14 0.000183447
17 *49:42 *64:24 5.83121e-06
18 *49:42 *536:24 5.93761e-05
19 *49:42 *539:85 0.000202095
20 *1672:C *49:14 3.67779e-05
21 *1675:A *1676:D 2.55502e-05
22 *1675:A *49:42 9.35611e-05
23 *1687:B *49:14 8.10233e-05
24 *1699:A *1699:B 9.56482e-05
25 *1699:A *49:14 2.0514e-05
26 *43:12 *49:14 1.71013e-05
27 *43:12 *49:42 2.23407e-05
28 *45:56 *49:42 1.31519e-05
29 *48:12 *49:14 0
*RES
1 *1674:X *49:8 4.05 
2 *49:8 *49:14 13.445 
3 *49:14 *1699:B 7.55 
4 *49:14 *1707:B 1.6 
5 *49:8 *49:42 7.97 
6 *49:42 *1675:B 1.6 
7 *49:42 *1676:D 2.05 
*END

*D_NET *50 0.00554035
*CONN
*I *1896:A2 I *D sky130_fd_sc_hd__a211o_1
*I *1689:A1 I *D sky130_fd_sc_hd__a21oi_1
*I *1675:Y O *D sky130_fd_sc_hd__nor2_1
*CAP
1 *1896:A2 0.000983169
2 *1689:A1 0.000227011
3 *1675:Y 0.000145355
4 *50:8 0.00135554
5 *1689:A1 *1663:A 0
6 *1689:A1 *1689:A2 5.46923e-05
7 *1689:A1 *1689:B1 9.50342e-06
8 *1689:A1 *51:8 4.43871e-06
9 *1689:A1 *471:10 4.82863e-05
10 *1689:A1 *565:58 0.000210093
11 *1896:A2 *1600:B 0.000183731
12 *1896:A2 *1613:A 0.000131069
13 *1896:A2 *1637:B1 3.64998e-06
14 *1896:A2 *1682:A 6.00201e-05
15 *1896:A2 *1728:A0 0.000180689
16 *1896:A2 *2084:A 0.000109539
17 *1896:A2 *51:8 8.78813e-05
18 *1896:A2 *51:12 8.49205e-05
19 *1896:A2 *57:10 8.53113e-06
20 *1896:A2 *294:43 0.000354305
21 *1896:A2 *443:16 0.000118081
22 *1896:A2 *446:10 1.33293e-05
23 *1896:A2 *515:10 2.17185e-05
24 *1896:A2 *515:12 3.08892e-05
25 *1896:A2 *518:54 0.000468926
26 *1896:A2 *519:88 0.000216832
27 *1896:A2 *565:58 0.000130547
28 *50:8 *64:14 0.000120655
29 *45:56 *1689:A1 0.000117011
30 *45:56 *50:8 5.99393e-05
*RES
1 *1675:Y *50:8 5.43 
2 *50:8 *1689:A1 8.115 
3 *50:8 *1896:A2 30.4 
*END

*D_NET *51 0.00175819
*CONN
*I *1681:A1 I *D sky130_fd_sc_hd__a21o_1
*I *1682:B I *D sky130_fd_sc_hd__and3_1
*I *1678:A I *D sky130_fd_sc_hd__nand2_1
*I *1676:X O *D sky130_fd_sc_hd__or4_1
*CAP
1 *1681:A1 6.16952e-05
2 *1682:B 0
3 *1678:A 0.00027549
4 *1676:X 8.92261e-05
5 *51:12 0.000395186
6 *51:8 0.000270617
7 *1678:A *52:23 7.89689e-05
8 *1678:A *57:10 8.23457e-05
9 *1678:A *61:26 0.00010607
10 *1678:A *536:20 0
11 *1681:A1 *1682:A 7.63204e-05
12 *1681:A1 *1683:B 2.75707e-05
13 *1681:A1 *57:10 2.16389e-05
14 *51:8 *1663:A 0
15 *51:8 *1682:A 5.28781e-05
16 *51:8 *57:10 7.21296e-06
17 *51:12 *57:10 3.57349e-05
18 *1689:A1 *51:8 4.43871e-06
19 *1896:A2 *51:8 8.78813e-05
20 *1896:A2 *51:12 8.49205e-05
*RES
1 *1676:X *51:8 5.745 
2 *51:8 *51:12 3.485 
3 *51:12 *1678:A 9.755 
4 *51:12 *1682:B 1.6 
5 *51:8 *1681:A1 5.235 
*END

*D_NET *52 0.00195567
*CONN
*I *1681:A2 I *D sky130_fd_sc_hd__a21o_1
*I *1678:B I *D sky130_fd_sc_hd__nand2_1
*I *1682:C I *D sky130_fd_sc_hd__and3_1
*I *1677:X O *D sky130_fd_sc_hd__a21o_1
*CAP
1 *1681:A2 0.000180144
2 *1678:B 0
3 *1682:C 0.000107545
4 *1677:X 0.000190623
5 *52:23 0.000275744
6 *52:10 0.000393769
7 *1681:A2 *1686:A1 8.73389e-06
8 *1681:A2 *1686:A2 0.000193289
9 *1681:A2 *1686:B1 4.99619e-05
10 *1681:A2 *53:10 4.99619e-05
11 *1682:C *57:10 2.25561e-05
12 *1682:C *61:26 6.97202e-05
13 *52:10 *1645:A 0.000107524
14 *52:10 *536:22 0
15 *52:10 *539:85 0
16 *52:10 *546:121 1.88904e-05
17 *52:23 *1645:A 0.000127416
18 *52:23 *536:20 0
19 *1675:A *52:10 5.33085e-05
20 *1678:A *52:23 7.89689e-05
21 *43:12 *52:10 2.75145e-05
*RES
1 *1677:X *52:10 7.215 
2 *52:10 *1682:C 5.31 
3 *52:10 *52:23 4.655 
4 *52:23 *1678:B 1.6 
5 *52:23 *1681:A2 5.29 
*END

*D_NET *53 0.000938249
*CONN
*I *1679:A I *D sky130_fd_sc_hd__inv_2
*I *1680:B I *D sky130_fd_sc_hd__and2_1
*I *1678:Y O *D sky130_fd_sc_hd__nand2_1
*CAP
1 *1679:A 0.00011185
2 *1680:B 0
3 *1678:Y 0.000141932
4 *53:10 0.000253782
5 *1679:A *1645:A 4.82863e-05
6 *1679:A *515:33 0.000208477
7 *1679:A *565:58 1.83756e-05
8 *53:10 *1645:A 7.46606e-05
9 *53:10 *515:33 3.09233e-05
10 *1681:A2 *53:10 4.99619e-05
*RES
1 *1678:Y *53:10 5.775 
2 *53:10 *1680:B 3.6 
3 *53:10 *1679:A 6.45 
*END

*D_NET *54 0.000316635
*CONN
*I *1722:A0 I *D sky130_fd_sc_hd__mux2_1
*I *1679:Y O *D sky130_fd_sc_hd__inv_2
*CAP
1 *1722:A0 0.000114185
2 *1679:Y 0.000114185
3 *1722:A0 *1645:A 8.8266e-05
4 *1722:A0 *515:33 0
5 *1722:A0 *536:20 0
*RES
1 *1679:Y *1722:A0 8.865 
*END

*D_NET *55 9.69969e-05
*CONN
*I *1683:A I *D sky130_fd_sc_hd__nor2_1
*I *1680:X O *D sky130_fd_sc_hd__and2_1
*CAP
1 *1683:A 2.51931e-05
2 *1680:X 2.51931e-05
3 *1683:A *515:20 4.66108e-05
*RES
1 *1680:X *1683:A 3.65 
*END

*D_NET *56 0.000401158
*CONN
*I *1686:B1 I *D sky130_fd_sc_hd__o21ai_2
*I *1681:X O *D sky130_fd_sc_hd__a21o_1
*CAP
1 *1686:B1 0.000121886
2 *1681:X 0.000121886
3 *1686:B1 *1686:A2 0.000107424
4 *1681:A2 *1686:B1 4.99619e-05
*RES
1 *1681:X *1686:B1 5.375 
*END

*D_NET *57 0.00132666
*CONN
*I *1683:B I *D sky130_fd_sc_hd__nor2_1
*I *1686:A1 I *D sky130_fd_sc_hd__o21ai_2
*I *1682:X O *D sky130_fd_sc_hd__and3_1
*CAP
1 *1683:B 0.000102858
2 *1686:A1 0.000166974
3 *1682:X 8.96114e-05
4 *57:10 0.000359444
5 *1683:B *548:18 0
6 *1683:B *565:58 0.000218324
7 *1686:A1 *1686:A2 7.28446e-05
8 *57:10 *61:26 1.08758e-05
9 *57:10 *565:58 9.14049e-05
10 *1678:A *57:10 8.23457e-05
11 *1681:A1 *1683:B 2.75707e-05
12 *1681:A1 *57:10 2.16389e-05
13 *1681:A2 *1686:A1 8.73389e-06
14 *1682:C *57:10 2.25561e-05
15 *1896:A2 *57:10 8.53113e-06
16 *51:8 *57:10 7.21296e-06
17 *51:12 *57:10 3.57349e-05
*RES
1 *1682:X *57:10 5.865 
2 *57:10 *1686:A1 5.7 
3 *57:10 *1683:B 6.255 
*END

*D_NET *58 0.000329027
*CONN
*I *1721:A I *D sky130_fd_sc_hd__xnor2_1
*I *1683:Y O *D sky130_fd_sc_hd__nor2_1
*CAP
1 *1721:A 0.000106877
2 *1683:Y 0.000106877
3 *1721:A *1721:B 3.25831e-05
4 *1721:A *515:20 1.4399e-05
5 *1721:A *546:121 2.96383e-05
6 *1721:A *548:18 0
7 *1721:A *565:58 3.86529e-05
*RES
1 *1683:Y *1721:A 9.285 
*END

*D_NET *59 0.000826011
*CONN
*I *1686:A2 I *D sky130_fd_sc_hd__o21ai_2
*I *1684:Y O *D sky130_fd_sc_hd__nor2_1
*CAP
1 *1686:A2 0.000211208
2 *1684:Y 0.000211208
3 *1686:A2 *1684:B 3.00381e-05
4 *1681:A2 *1686:A2 0.000193289
5 *1686:A1 *1686:A2 7.28446e-05
6 *1686:B1 *1686:A2 0.000107424
*RES
1 *1684:Y *1686:A2 7.805 
*END

*D_NET *60 0.000631683
*CONN
*I *1727:A I *D sky130_fd_sc_hd__nand2_1
*I *1721:B I *D sky130_fd_sc_hd__xnor2_1
*I *1685:X O *D sky130_fd_sc_hd__or2_1
*CAP
1 *1727:A 0
2 *1721:B 0.000117361
3 *1685:X 5.64398e-05
4 *60:8 0.000173801
5 *1721:B *512:51 2.0514e-05
6 *1721:B *546:121 0
7 *1721:B *548:18 7.39261e-05
8 *60:8 *1685:A 0
9 *60:8 *1727:B 4.82863e-05
10 *60:8 *1728:A1 2.05056e-05
11 *60:8 *512:51 8.8266e-05
12 *1721:A *1721:B 3.25831e-05
*RES
1 *1685:X *60:8 3.1 
2 *60:8 *1721:B 8.195 
3 *60:8 *1727:A 1.6 
*END

*D_NET *61 0.00768762
*CONN
*I *1718:A1 I *D sky130_fd_sc_hd__a31o_1
*I *1740:A1 I *D sky130_fd_sc_hd__a21o_1
*I *1745:A I *D sky130_fd_sc_hd__xnor2_1
*I *1713:D_N I *D sky130_fd_sc_hd__or4b_4
*I *1686:Y O *D sky130_fd_sc_hd__o21ai_2
*CAP
1 *1718:A1 4.90585e-05
2 *1740:A1 0.000131196
3 *1745:A 0.000112643
4 *1713:D_N 0.000235864
5 *1686:Y 0.000781838
6 *61:62 0.000319679
7 *61:49 0.000470604
8 *61:26 0.00123624
9 *1713:D_N *1713:A 5.98384e-05
10 *1713:D_N *1713:B 2.5736e-05
11 *1713:D_N *1717:A2 7.23533e-05
12 *1713:D_N *70:24 0.000155601
13 *1718:A1 *1718:B1 4.82863e-05
14 *1740:A1 *1704:B 4.9253e-06
15 *1740:A1 *1740:A2 4.66108e-05
16 *1740:A1 *1742:A0 0.000116853
17 *1740:A1 *1742:A1 6.36578e-05
18 *1740:A1 *79:6 2.10134e-05
19 *1745:A *1691:A 0.000318248
20 *1745:A *1691:B 0.000119096
21 *61:26 *1645:A 0.000159269
22 *61:26 *1691:A 0
23 *61:26 *1694:A2 0.00023167
24 *61:26 *1694:B1 8.23457e-05
25 *61:26 *1717:A2 6.21553e-05
26 *61:26 *1746:A0 0.000120655
27 *61:26 *1746:S 6.21763e-05
28 *61:26 *69:6 0.000108935
29 *61:26 *539:37 0
30 *61:26 *539:68 0.000574251
31 *61:26 *546:121 0.000156901
32 *61:26 *561:6 0.00022201
33 *61:49 *1691:A 0.000224692
34 *61:49 *1691:B 3.64998e-06
35 *61:49 *64:24 0.000260777
36 *61:62 *1720:A1 9.14049e-05
37 *61:62 *1742:A0 0.00051578
38 *61:62 *1742:A1 0.00023494
39 *1678:A *61:26 0.00010607
40 *1682:C *61:26 6.97202e-05
41 *57:10 *61:26 1.08758e-05
*RES
1 *1686:Y *61:26 26.395 
2 *61:26 *1713:D_N 8.055 
3 *61:26 *61:49 6.71 
4 *61:49 *1745:A 5.08 
5 *61:49 *61:62 7.97 
6 *61:62 *1740:A1 6.12 
7 *61:62 *1718:A1 4.395 
*END

*D_NET *62 0.00286547
*CONN
*I *1689:A2 I *D sky130_fd_sc_hd__a21oi_1
*I *1687:Y O *D sky130_fd_sc_hd__xnor2_1
*CAP
1 *1689:A2 0.000608226
2 *1687:Y 0.000608226
3 *1689:A2 *1669:B1 9.47454e-05
4 *1689:A2 *1670:C1 5.4003e-05
5 *1689:A2 *1688:B1 0.000358951
6 *1689:A2 *1689:B1 1.79098e-05
7 *1689:A2 *471:10 8.05251e-05
8 *1689:A2 *478:10 0.000136877
9 *1689:A2 *565:58 0.000312097
10 *1671:A2 *1689:A2 8.23457e-05
11 *1689:A1 *1689:A2 5.46923e-05
12 *2121:A *1689:A2 6.97643e-05
13 *43:6 *1689:A2 0.000196376
14 *44:10 *1689:A2 0.000142434
15 *45:56 *1689:A2 0
16 *46:10 *1689:A2 4.82919e-05
*RES
1 *1687:Y *1689:A2 21.015 
*END

*D_NET *63 0.000625124
*CONN
*I *1689:B1 I *D sky130_fd_sc_hd__a21oi_1
*I *1688:Y O *D sky130_fd_sc_hd__a21oi_1
*CAP
1 *1689:B1 0.000152204
2 *1688:Y 0.000152204
3 *1689:B1 *1669:B1 9.30787e-05
4 *1689:B1 *1688:B1 9.64869e-05
5 *1689:B1 *2026:D_N 8.73389e-06
6 *1689:A1 *1689:B1 9.50342e-06
7 *1689:A2 *1689:B1 1.79098e-05
8 *45:56 *1689:B1 9.50036e-05
*RES
1 *1688:Y *1689:B1 10.485 
*END

*D_NET *64 0.00678393
*CONN
*I *1690:B I *D sky130_fd_sc_hd__or2_1
*I *1720:A0 I *D sky130_fd_sc_hd__mux2_4
*I *1691:B I *D sky130_fd_sc_hd__xnor2_1
*I *1689:Y O *D sky130_fd_sc_hd__a21oi_1
*CAP
1 *1690:B 0
2 *1720:A0 0.000143914
3 *1691:B 0.000267765
4 *1689:Y 0.000349429
5 *64:24 0.00109768
6 *64:14 0.00103543
7 *1691:B *1691:A 0.000127803
8 *1691:B *1746:A1 0.00015806
9 *1720:A0 *1720:A1 0.000317494
10 *1720:A0 *1742:A0 0.000317494
11 *64:14 *1663:B 5.53549e-06
12 *64:14 *539:85 4.82863e-05
13 *64:14 *546:121 0.000141865
14 *64:14 *565:58 0.00015356
15 *64:24 *1693:B 4.82919e-05
16 *64:24 *1717:A3 0.000448017
17 *64:24 *1746:A1 0.000358865
18 *64:24 *70:24 0.000192125
19 *64:24 *534:66 9.47972e-06
20 *64:24 *534:74 0.000526175
21 *64:24 *539:68 9.6578e-05
22 *64:24 *539:85 6.87687e-05
23 *1675:A *64:14 1.33285e-05
24 *1676:D *64:14 4.82863e-05
25 *1745:A *1691:B 0.000119096
26 *43:6 *64:14 2.30292e-05
27 *44:10 *64:14 8.23457e-05
28 *45:56 *64:14 1.08758e-05
29 *49:42 *64:14 0.000183447
30 *49:42 *64:24 5.83121e-06
31 *50:8 *64:14 0.000120655
32 *61:49 *1691:B 3.64998e-06
33 *61:49 *64:24 0.000260777
*RES
1 *1689:Y *64:14 12.53 
2 *64:14 *64:24 16.2 
3 *64:24 *1691:B 7.15 
4 *64:24 *1720:A0 10.07 
5 *64:14 *1690:B 1.6 
*END

*D_NET *65 0.00146889
*CONN
*I *1716:A1 I *D sky130_fd_sc_hd__a21o_1
*I *1690:X O *D sky130_fd_sc_hd__or2_1
*CAP
1 *1716:A1 0.000346447
2 *1690:X 0.000346447
3 *1716:A1 *1674:B 0.000197269
4 *1716:A1 *1692:A1 8.65961e-05
5 *1716:A1 *1693:A 8.65961e-05
6 *1716:A1 *1716:B1 4.795e-05
7 *1716:A1 *283:12 0.000199734
8 *1716:A1 *471:26 4.75576e-05
9 *1716:A1 *471:41 6.02202e-05
10 *1716:A1 *539:68 1.91597e-05
11 *1692:B1 *1716:A1 3.09088e-05
*RES
1 *1690:X *1716:A1 14.775 
*END

*D_NET *66 0.00194321
*CONN
*I *1713:A I *D sky130_fd_sc_hd__or4b_4
*I *1715:A I *D sky130_fd_sc_hd__or3b_1
*I *1719:A I *D sky130_fd_sc_hd__xor2_1
*I *1691:Y O *D sky130_fd_sc_hd__xnor2_1
*CAP
1 *1713:A 7.77458e-05
2 *1715:A 0.000114681
3 *1719:A 0
4 *1691:Y 0.000138887
5 *66:19 0.000679698
6 *66:12 0.000626158
7 *1715:A *1715:B 0
8 *1715:A *1715:C_N 4.18603e-06
9 *1715:A *1742:A0 0
10 *66:12 *1691:A 8.65905e-05
11 *66:12 *1719:B 3.09233e-05
12 *66:12 *1745:B 4.28396e-05
13 *66:19 *1720:A1 8.16598e-05
14 *1713:D_N *1713:A 5.98384e-05
*RES
1 *1691:Y *66:12 8.03 
2 *66:12 *1719:A 1.6 
3 *66:12 *66:19 7.35 
4 *66:19 *1715:A 7.49 
5 *66:19 *1713:A 3.1 
*END

*D_NET *67 0.00405333
*CONN
*I *1761:A I *D sky130_fd_sc_hd__or3_1
*I *1738:A1 I *D sky130_fd_sc_hd__o21ai_1
*I *1694:A2 I *D sky130_fd_sc_hd__a21o_1
*I *1693:C I *D sky130_fd_sc_hd__and3_1
*I *1692:X O *D sky130_fd_sc_hd__a21o_1
*CAP
1 *1761:A 8.83087e-05
2 *1738:A1 0
3 *1694:A2 0.000147789
4 *1693:C 6.6759e-05
5 *1692:X 4.44806e-05
6 *67:32 0.000279323
7 *67:19 0.000380593
8 *67:8 0.000153029
9 *1693:C *68:8 0.000119762
10 *1693:C *534:74 3.96737e-05
11 *1693:C *539:68 0.000109013
12 *1694:A2 *1694:A1 8.49205e-05
13 *1694:A2 *1694:B1 8.49205e-05
14 *1694:A2 *471:41 0.00015896
15 *1694:A2 *539:68 8.23457e-05
16 *1761:A *1761:C 8.49205e-05
17 *1761:A *136:18 8.51879e-05
18 *1761:A *512:25 9.68787e-05
19 *1761:A *512:36 2.05056e-05
20 *1761:A *531:72 0.000185398
21 *67:8 *1673:B 9.50342e-06
22 *67:8 *1716:B1 0.00016163
23 *67:8 *531:72 2.14129e-05
24 *67:8 *531:74 0.000129047
25 *67:19 *1695:A_N 9.14049e-05
26 *67:19 *1716:B1 2.14129e-05
27 *67:19 *531:72 0.000112123
28 *67:32 *1695:A_N 0.000193564
29 *67:32 *2111:A 1.07797e-05
30 *67:32 *512:12 0.000173965
31 *67:32 *512:25 4.43871e-06
32 *67:32 *531:72 0.000579609
33 *61:26 *1694:A2 0.00023167
*RES
1 *1692:X *67:8 5.49 
2 *67:8 *1693:C 5.31 
3 *67:8 *67:19 1.38 
4 *67:19 *1694:A2 7.86 
5 *67:19 *67:32 6.735 
6 *67:32 *1738:A1 3.6 
7 *67:32 *1761:A 6.885 
*END

*D_NET *68 0.0023746
*CONN
*I *1695:A_N I *D sky130_fd_sc_hd__nand2b_1
*I *1716:B1 I *D sky130_fd_sc_hd__a21o_1
*I *1693:X O *D sky130_fd_sc_hd__and3_1
*CAP
1 *1695:A_N 0.000231489
2 *1716:B1 0.000218815
3 *1693:X 0.000122435
4 *68:8 0.000572739
5 *1695:A_N *2111:A 0.000268328
6 *1695:A_N *92:8 0.00010596
7 *1695:A_N *512:12 1.19928e-05
8 *1716:B1 *1673:B 4.92284e-05
9 *1716:B1 *1716:A2 0.000113316
10 *1716:B1 *92:8 3.25831e-05
11 *68:8 *534:74 1.19928e-05
12 *1693:C *68:8 0.000119762
13 *1716:A1 *1716:B1 4.795e-05
14 *67:8 *1716:B1 0.00016163
15 *67:19 *1695:A_N 9.14049e-05
16 *67:19 *1716:B1 2.14129e-05
17 *67:32 *1695:A_N 0.000193564
*RES
1 *1693:X *68:8 5.085 
2 *68:8 *1716:B1 8.61 
3 *68:8 *1695:A_N 9.21 
*END

*D_NET *69 0.00226003
*CONN
*I *1716:A2 I *D sky130_fd_sc_hd__a21o_1
*I *1695:B I *D sky130_fd_sc_hd__nand2b_1
*I *1694:X O *D sky130_fd_sc_hd__a21o_1
*CAP
1 *1716:A2 0.000302743
2 *1695:B 0.000206149
3 *1694:X 0.000253403
4 *69:6 0.000762295
5 *1695:B *534:66 0.000137709
6 *1695:B *561:6 9.28507e-05
7 *1716:A2 *2111:A 4.21484e-05
8 *1716:A2 *70:24 2.99731e-05
9 *1716:A2 *92:8 0.000133875
10 *69:6 *561:6 7.66388e-05
11 *1716:B1 *1716:A2 0.000113316
12 *61:26 *69:6 0.000108935
*RES
1 *1694:X *69:6 4.81 
2 *69:6 *1695:B 8.82875 
3 *69:6 *1716:A2 11.105 
*END

*D_NET *70 0.00278212
*CONN
*I *1713:C I *D sky130_fd_sc_hd__or4b_4
*I *1715:B I *D sky130_fd_sc_hd__or3b_1
*I *1695:Y O *D sky130_fd_sc_hd__nand2b_1
*CAP
1 *1713:C 0
2 *1715:B 0.000296353
3 *1695:Y 0.000534453
4 *70:24 0.000830806
5 *1715:B *1713:B 0.00014179
6 *1715:B *1715:C_N 0
7 *1715:B *1717:A1 8.5188e-06
8 *70:24 *1713:B 8.41307e-05
9 *70:24 *1717:A1 3.52639e-05
10 *70:24 *1717:A3 7.01303e-05
11 *70:24 *1746:A0 1.59561e-05
12 *70:24 *1746:A1 0.000110492
13 *70:24 *121:14 0
14 *70:24 *534:66 0.00017423
15 *70:24 *561:23 0.000102302
16 *1713:D_N *70:24 0.000155601
17 *1715:A *1715:B 0
18 *1716:A2 *70:24 2.99731e-05
19 *64:24 *70:24 0.000192125
*RES
1 *1695:Y *70:24 19.725 
2 *70:24 *1715:B 10.25 
3 *70:24 *1713:C 1.6 
*END

*D_NET *71 0.000512417
*CONN
*I *1697:B I *D sky130_fd_sc_hd__xnor2_1
*I *1696:Y O *D sky130_fd_sc_hd__xnor2_1
*CAP
1 *1697:B 0.000220857
2 *1696:Y 0.000220857
3 *1697:B *1699:C 7.07032e-05
*RES
1 *1696:Y *1697:B 6.77 
*END

*D_NET *72 0.00163515
*CONN
*I *1699:C I *D sky130_fd_sc_hd__or3_4
*I *1697:Y O *D sky130_fd_sc_hd__xnor2_1
*CAP
1 *1699:C 0.000548095
2 *1697:Y 0.000548095
3 *1699:C *1698:B1 4.99619e-05
4 *1699:C *1707:C 0.000329262
5 *1666:C1 *1699:C 1.73877e-05
6 *1697:A *1699:C 0
7 *1697:B *1699:C 7.07032e-05
8 *34:14 *1699:C 7.16437e-05
9 *35:10 *1699:C 0
*RES
1 *1697:Y *1699:C 17.34 
*END

*D_NET *73 0.00258449
*CONN
*I *1703:A1 I *D sky130_fd_sc_hd__a21o_1
*I *1701:C I *D sky130_fd_sc_hd__and3_1
*I *1700:A I *D sky130_fd_sc_hd__nand2_1
*I *1702:A1 I *D sky130_fd_sc_hd__a21oi_1
*I *1698:X O *D sky130_fd_sc_hd__a21o_1
*CAP
1 *1703:A1 0
2 *1701:C 0
3 *1700:A 0.00015425
4 *1702:A1 2.98896e-05
5 *1698:X 0.000250648
6 *73:31 0.000356334
7 *73:18 0.000269597
8 *73:12 0.000288272
9 *1700:A *1700:B 0.000137247
10 *1700:A *1711:B 3.61929e-05
11 *1702:A1 *1703:A2 3.62197e-05
12 *1702:A1 *84:44 7.23533e-05
13 *73:12 *1701:A 0
14 *73:12 *1709:A1 4.82919e-05
15 *73:12 *1710:C 3.33212e-06
16 *73:12 *1711:B 0
17 *73:12 *81:8 8.07828e-05
18 *73:12 *81:17 0.000252849
19 *73:12 *82:24 0.000194796
20 *73:12 *85:6 0.000123955
21 *73:18 *1703:A2 2.68016e-05
22 *73:18 *1711:B 5.83121e-06
23 *73:18 *84:44 4.38051e-05
24 *73:18 *85:6 1.43253e-05
25 *73:31 *1700:B 5.45067e-05
26 *73:31 *1701:A 6.97034e-05
27 *73:31 *1703:B1 1.91597e-05
28 *73:31 *1711:B 1.53483e-05
*RES
1 *1698:X *73:12 7.525 
2 *73:12 *73:18 3.065 
3 *73:18 *1702:A1 4.47 
4 *73:18 *73:31 4.58 
5 *73:31 *1700:A 3.985 
6 *73:31 *1701:C 1.6 
7 *73:12 *1703:A1 1.6 
*END

*D_NET *74 0.00265947
*CONN
*I *1702:A2 I *D sky130_fd_sc_hd__a21oi_1
*I *1703:A2 I *D sky130_fd_sc_hd__a21o_1
*I *1700:B I *D sky130_fd_sc_hd__nand2_1
*I *1701:B I *D sky130_fd_sc_hd__and3_1
*I *1699:X O *D sky130_fd_sc_hd__or3_4
*CAP
1 *1702:A2 0
2 *1703:A2 9.60031e-05
3 *1700:B 8.2185e-05
4 *1701:B 7.2454e-05
5 *1699:X 0.000230905
6 *74:14 0.000364885
7 *74:8 0.000537154
8 *1700:B *1701:A 0
9 *1700:B *1711:B 0.000148043
10 *1700:B *77:12 6.57653e-06
11 *1701:B *1714:A1 5.53249e-06
12 *1701:B *1740:B1 0
13 *1701:B *76:12 5.53249e-06
14 *1701:B *77:12 0
15 *1701:B *84:18 0
16 *1703:A2 *1709:A1 4.22574e-05
17 *1703:A2 *1709:B1 2.56752e-06
18 *1703:A2 *84:44 1.53032e-05
19 *1703:A2 *283:26 4.77719e-05
20 *74:8 *1709:B1 8.52845e-05
21 *74:8 *84:8 9.18576e-05
22 *74:8 *283:26 0.000172779
23 *74:14 *77:12 0
24 *74:14 *84:8 3.76642e-05
25 *74:14 *84:18 0.000237243
26 *74:14 *283:26 0.000122699
27 *1700:A *1700:B 0.000137247
28 *1702:A1 *1703:A2 3.62197e-05
29 *73:18 *1703:A2 2.68016e-05
30 *73:31 *1700:B 5.45067e-05
*RES
1 *1699:X *74:8 6.895 
2 *74:8 *74:14 6.6275 
3 *74:14 *1701:B 4.5975 
4 *74:14 *1700:B 6.1275 
5 *74:8 *1703:A2 7.94 
6 *74:8 *1702:A2 1.6 
*END

*D_NET *75 0.00282623
*CONN
*I *1742:A0 I *D sky130_fd_sc_hd__mux2_4
*I *1700:Y O *D sky130_fd_sc_hd__nand2_1
*CAP
1 *1742:A0 0.000676625
2 *1700:Y 0.000676625
3 *1742:A0 *1691:A 0
4 *1742:A0 *1714:B1 0
5 *1742:A0 *1715:C_N 0
6 *1742:A0 *1717:A2 0
7 *1742:A0 *1720:A1 4.58835e-05
8 *1742:A0 *1742:A1 0.000155122
9 *1742:A0 *1742:S 0.000164686
10 *1742:A0 *76:12 7.81954e-05
11 *1742:A0 *89:10 7.89689e-05
12 *1742:A0 *539:37 0
13 *1715:A *1742:A0 0
14 *1720:A0 *1742:A0 0.000317494
15 *1740:A1 *1742:A0 0.000116853
16 *61:62 *1742:A0 0.00051578
*RES
1 *1700:Y *1742:A0 23.91 
*END

*D_NET *76 0.00137709
*CONN
*I *2130:A I *D sky130_fd_sc_hd__dlygate4sd3_1
*I *1712:D I *D sky130_fd_sc_hd__or4_4
*I *1704:A I *D sky130_fd_sc_hd__nor2_1
*I *1701:X O *D sky130_fd_sc_hd__and3_1
*CAP
1 *2130:A 0.000226377
2 *1712:D 0
3 *1704:A 0
4 *1701:X 8.34512e-05
5 *76:21 0.000380473
6 *76:12 0.000237548
7 *2130:A *1712:A 2.68526e-05
8 *2130:A *1712:B 8.34281e-06
9 *2130:A *1713:B 4.92121e-05
10 *2130:A *1714:A2 7.49327e-05
11 *2130:A *1714:B1 0
12 *76:12 *1704:B 4.82863e-05
13 *76:12 *1714:A1 0
14 *76:12 *1714:B1 4.43871e-06
15 *76:21 *1704:B 0.000103481
16 *76:21 *1714:A2 4.99619e-05
17 *76:21 *1740:A2 0
18 *1701:B *76:12 5.53249e-06
19 *1742:A0 *76:12 7.81954e-05
*RES
1 *1701:X *76:12 7.685 
2 *76:12 *1704:A 1.6 
3 *76:12 *76:21 2.88 
4 *76:21 *1712:D 1.6 
5 *76:21 *2130:A 9.41 
*END

*D_NET *77 0.00167669
*CONN
*I *1712:B I *D sky130_fd_sc_hd__or4_4
*I *1704:B I *D sky130_fd_sc_hd__nor2_1
*I *1702:Y O *D sky130_fd_sc_hd__a21oi_1
*CAP
1 *1712:B 8.1082e-05
2 *1704:B 0.000216144
3 *1702:Y 0.000223998
4 *77:12 0.000521224
5 *1704:B *1714:A2 2.75145e-05
6 *1704:B *1740:A2 5.4155e-06
7 *1704:B *79:6 1.16578e-05
8 *1712:B *1712:A 1.08758e-05
9 *1712:B *1712:C 1.82559e-05
10 *1712:B *1714:A2 4.80285e-05
11 *77:12 *1714:A1 5.02217e-05
12 *77:12 *1714:A2 1.1561e-05
13 *77:12 *84:18 4.82919e-05
14 *77:12 *84:44 9.15738e-05
15 *77:12 *283:32 0.000139238
16 *1700:B *77:12 6.57653e-06
17 *1701:B *77:12 0
18 *1740:A1 *1704:B 4.9253e-06
19 *2130:A *1712:B 8.34281e-06
20 *74:14 *77:12 0
21 *76:12 *1704:B 4.82863e-05
22 *76:21 *1704:B 0.000103481
*RES
1 *1702:Y *77:12 10.235 
2 *77:12 *1704:B 5.635 
3 *77:12 *1712:B 3.1 
*END

*D_NET *78 0.00046287
*CONN
*I *1714:A1 I *D sky130_fd_sc_hd__a21o_1
*I *1703:X O *D sky130_fd_sc_hd__a21o_1
*CAP
1 *1714:A1 0.000157496
2 *1703:X 0.000157496
3 *1714:A1 *1711:B 8.65905e-05
4 *1714:A1 *1714:A2 0
5 *1714:A1 *1714:B1 5.53249e-06
6 *1701:B *1714:A1 5.53249e-06
7 *76:12 *1714:A1 0
8 *77:12 *1714:A1 5.02217e-05
*RES
1 *1703:X *1714:A1 9.63 
*END

*D_NET *79 0.00141158
*CONN
*I *1718:A2 I *D sky130_fd_sc_hd__a31o_1
*I *1741:A I *D sky130_fd_sc_hd__xnor2_1
*I *1704:Y O *D sky130_fd_sc_hd__nor2_1
*CAP
1 *1718:A2 9.98145e-05
2 *1741:A 0.000147146
3 *1704:Y 5.58873e-05
4 *79:6 0.000302847
5 *1718:A2 *1740:B1 5.23362e-05
6 *1718:A2 *1742:A1 0.000206123
7 *1718:A2 *86:10 0
8 *1718:A2 *86:23 0
9 *1741:A *1740:A2 3.79854e-05
10 *1741:A *1740:B1 2.75145e-05
11 *1741:A *1741:B 0.000163199
12 *1741:A *1742:A1 0.000234674
13 *79:6 *1740:A2 1.56428e-05
14 *79:6 *1742:A1 3.57349e-05
15 *1704:B *79:6 1.16578e-05
16 *1740:A1 *79:6 2.10134e-05
*RES
1 *1704:Y *79:6 2.74 
2 *79:6 *1741:A 5.425 
3 *79:6 *1718:A2 8 
*END

*D_NET *80 0.00134452
*CONN
*I *1707:C I *D sky130_fd_sc_hd__or3_4
*I *1705:Y O *D sky130_fd_sc_hd__xnor2_1
*CAP
1 *1707:C 0.000426343
2 *1705:Y 0.000426343
3 *1707:C *1698:B1 0
4 *1687:B *1707:C 0
5 *1699:C *1707:C 0.000329262
6 *1705:B *1707:C 0.000162575
7 *35:10 *1707:C 0
*RES
1 *1705:Y *1707:C 14.535 
*END

*D_NET *81 0.00158573
*CONN
*I *1710:B I *D sky130_fd_sc_hd__and3_1
*I *1709:A1 I *D sky130_fd_sc_hd__a21oi_1
*I *1708:A I *D sky130_fd_sc_hd__and2_1
*I *1706:X O *D sky130_fd_sc_hd__a21o_1
*CAP
1 *1710:B 2.08101e-05
2 *1709:A1 0.000111745
3 *1708:A 0
4 *1706:X 0.000121313
5 *81:17 0.00025079
6 *81:8 0.000239548
7 *1709:A1 *1709:A2 9.35189e-05
8 *1709:A1 *1709:B1 6.29385e-06
9 *1709:A1 *84:44 0
10 *81:8 *82:20 6.617e-05
11 *81:17 *1746:A0 4.77719e-05
12 *81:17 *82:20 8.52883e-05
13 *1698:A1 *81:8 8.8266e-05
14 *1698:A2 *81:8 3.00381e-05
15 *1703:A2 *1709:A1 4.22574e-05
16 *73:12 *1709:A1 4.82919e-05
17 *73:12 *81:8 8.07828e-05
18 *73:12 *81:17 0.000252849
*RES
1 *1706:X *81:8 4.48 
2 *81:8 *1708:A 1.6 
3 *81:8 *81:17 3.135 
4 *81:17 *1709:A1 7.94 
5 *81:17 *1710:B 1.96 
*END

*D_NET *82 0.00295323
*CONN
*I *1708:B I *D sky130_fd_sc_hd__and2_1
*I *1709:A2 I *D sky130_fd_sc_hd__a21oi_1
*I *1710:C I *D sky130_fd_sc_hd__and3_1
*I *1707:X O *D sky130_fd_sc_hd__or3_4
*CAP
1 *1708:B 0
2 *1709:A2 7.09636e-05
3 *1710:C 1.02164e-05
4 *1707:X 0.000673502
5 *82:24 0.000183271
6 *82:20 0.000775593
7 *1709:A2 *1709:B1 0.000145185
8 *82:20 *546:81 3.45117e-05
9 *82:24 *1710:A 4.77719e-05
10 *1698:A2 *82:20 0.000142661
11 *1699:A *82:20 6.71823e-05
12 *1706:B1 *82:20 0
13 *1709:A1 *1709:A2 9.35189e-05
14 *45:12 *82:20 7.40446e-05
15 *46:10 *82:20 2.36616e-05
16 *48:12 *82:20 4.13171e-05
17 *49:14 *82:20 0.000220247
18 *73:12 *1710:C 3.33212e-06
19 *73:12 *82:24 0.000194796
20 *81:8 *82:20 6.617e-05
21 *81:17 *82:20 8.52883e-05
*RES
1 *1707:X *82:20 20.145 
2 *82:20 *82:24 2.19 
3 *82:24 *1710:C 1.765 
4 *82:24 *1709:A2 7.235 
5 *82:20 *1708:B 1.6 
*END

*D_NET *83 0.00228639
*CONN
*I *1746:A0 I *D sky130_fd_sc_hd__mux2_4
*I *1708:X O *D sky130_fd_sc_hd__and2_1
*CAP
1 *1746:A0 0.000602037
2 *1708:X 0.000602037
3 *1746:A0 *1713:B 0.000215155
4 *1746:A0 *1714:A2 0
5 *1746:A0 *1717:A1 0.000309722
6 *1746:A0 *1717:A3 0.000110486
7 *1746:A0 *1746:S 8.40269e-05
8 *1746:A0 *534:66 7.17811e-05
9 *1746:A0 *546:81 7.01359e-05
10 *1746:A0 *561:6 3.66286e-05
11 *61:26 *1746:A0 0.000120655
12 *70:24 *1746:A0 1.59561e-05
13 *81:17 *1746:A0 4.77719e-05
*RES
1 *1708:X *1746:A0 20.37 
*END

*D_NET *84 0.00319726
*CONN
*I *1714:A2 I *D sky130_fd_sc_hd__a21o_1
*I *1712:C I *D sky130_fd_sc_hd__or4_4
*I *1740:B1 I *D sky130_fd_sc_hd__a21o_1
*I *1711:A I *D sky130_fd_sc_hd__nor2_1
*I *1709:Y O *D sky130_fd_sc_hd__a21oi_1
*CAP
1 *1714:A2 6.69462e-05
2 *1712:C 1.44755e-05
3 *1740:B1 0.000196146
4 *1711:A 0
5 *1709:Y 9.564e-05
6 *84:44 0.000217091
7 *84:18 0.000625616
8 *84:8 0.000660779
9 *1714:A2 *1712:A 5.16418e-05
10 *1740:B1 *1740:A2 4.82863e-05
11 *1740:B1 *1742:A1 1.07797e-05
12 *1740:B1 *86:10 3.03087e-05
13 *84:44 *1712:A 9.37731e-05
14 *84:44 *283:32 0.000137578
15 *1701:B *1740:B1 0
16 *1701:B *84:18 0
17 *1702:A1 *84:44 7.23533e-05
18 *1703:A2 *84:44 1.53032e-05
19 *1704:B *1714:A2 2.75145e-05
20 *1709:A1 *84:44 0
21 *1712:B *1712:C 1.82559e-05
22 *1712:B *1714:A2 4.80285e-05
23 *1714:A1 *1714:A2 0
24 *1718:A2 *1740:B1 5.23362e-05
25 *1741:A *1740:B1 2.75145e-05
26 *1746:A0 *1714:A2 0
27 *2130:A *1714:A2 7.49327e-05
28 *73:18 *84:44 4.38051e-05
29 *74:8 *84:8 9.18576e-05
30 *74:14 *84:8 3.76642e-05
31 *74:14 *84:18 0.000237243
32 *76:21 *1714:A2 4.99619e-05
33 *77:12 *1714:A2 1.1561e-05
34 *77:12 *84:18 4.82919e-05
35 *77:12 *84:44 9.15738e-05
*RES
1 *1709:Y *84:8 3.445 
2 *84:8 *84:18 9.29 
3 *84:18 *1711:A 3.6 
4 *84:18 *1740:B1 7.005 
5 *84:8 *84:44 5.675 
6 *84:44 *1712:C 3.77625 
7 *84:44 *1714:A2 5.61 
*END

*D_NET *85 0.00171324
*CONN
*I *1712:A I *D sky130_fd_sc_hd__or4_4
*I *1711:B I *D sky130_fd_sc_hd__nor2_1
*I *1710:X O *D sky130_fd_sc_hd__and3_1
*CAP
1 *1712:A 0.000116248
2 *1711:B 0.000298344
3 *1710:X 7.74374e-05
4 *85:6 0.00049203
5 *1711:B *1701:A 7.91002e-05
6 *1711:B *1703:B1 2.49909e-05
7 *1711:B *86:10 1.16578e-05
8 *1700:A *1711:B 3.61929e-05
9 *1700:B *1711:B 0.000148043
10 *1712:B *1712:A 1.08758e-05
11 *1714:A1 *1711:B 8.65905e-05
12 *1714:A2 *1712:A 5.16418e-05
13 *2130:A *1712:A 2.68526e-05
14 *73:12 *1711:B 0
15 *73:12 *85:6 0.000123955
16 *73:18 *1711:B 5.83121e-06
17 *73:18 *85:6 1.43253e-05
18 *73:31 *1711:B 1.53483e-05
19 *84:44 *1712:A 9.37731e-05
*RES
1 *1710:X *85:6 3.085 
2 *85:6 *1711:B 8.245 
3 *85:6 *1712:A 7.685 
*END

*D_NET *86 0.00233248
*CONN
*I *1745:B I *D sky130_fd_sc_hd__xnor2_1
*I *1718:A3 I *D sky130_fd_sc_hd__a31o_1
*I *1740:A2 I *D sky130_fd_sc_hd__a21o_1
*I *1711:Y O *D sky130_fd_sc_hd__nor2_1
*CAP
1 *1745:B 0.00030814
2 *1718:A3 6.89916e-05
3 *1740:A2 0.000122258
4 *1711:Y 0.000321871
5 *86:23 0.00049681
6 *86:10 0.000563808
7 *1718:A3 *1719:B 2.75229e-05
8 *1740:A2 *1741:B 5.83121e-06
9 *1745:B *1719:B 0.000178504
10 *1745:B *1742:A1 0
11 *86:23 *1742:A1 0
12 *1704:B *1740:A2 5.4155e-06
13 *1711:B *86:10 1.16578e-05
14 *1718:A2 *86:10 0
15 *1718:A2 *86:23 0
16 *1740:A1 *1740:A2 4.66108e-05
17 *1740:B1 *1740:A2 4.82863e-05
18 *1740:B1 *86:10 3.03087e-05
19 *1741:A *1740:A2 3.79854e-05
20 *66:12 *1745:B 4.28396e-05
21 *76:21 *1740:A2 0
22 *79:6 *1740:A2 1.56428e-05
*RES
1 *1711:Y *86:10 7.665 
2 *86:10 *1740:A2 5.79 
3 *86:10 *86:23 1.89 
4 *86:23 *1718:A3 4.74 
5 *86:23 *1745:B 9.57 
*END

*D_NET *87 0.00138147
*CONN
*I *1713:B I *D sky130_fd_sc_hd__or4b_4
*I *1712:X O *D sky130_fd_sc_hd__or4_4
*CAP
1 *1713:B 0.000342039
2 *1712:X 0.000342039
3 *1713:B *1715:C_N 0
4 *1713:B *1717:A1 0.000181369
5 *1713:D_N *1713:B 2.5736e-05
6 *1715:B *1713:B 0.00014179
7 *1746:A0 *1713:B 0.000215155
8 *2130:A *1713:B 4.92121e-05
9 *70:24 *1713:B 8.41307e-05
*RES
1 *1712:X *1713:B 15.27 
*END

*D_NET *88 0.000584179
*CONN
*I *1717:A2 I *D sky130_fd_sc_hd__a311oi_4
*I *1713:X O *D sky130_fd_sc_hd__or4b_4
*CAP
1 *1717:A2 0.000130317
2 *1713:X 0.000130317
3 *1717:A2 *1691:A 0
4 *1717:A2 *1717:A3 0.000121023
5 *1717:A2 *1746:A1 6.80137e-05
6 *1713:D_N *1717:A2 7.23533e-05
7 *1742:A0 *1717:A2 0
8 *61:26 *1717:A2 6.21553e-05
*RES
1 *1713:X *1717:A2 9.975 
*END

*D_NET *89 0.00100396
*CONN
*I *1715:C_N I *D sky130_fd_sc_hd__or3b_1
*I *1718:B1 I *D sky130_fd_sc_hd__a31o_1
*I *1714:X O *D sky130_fd_sc_hd__a21o_1
*CAP
1 *1715:C_N 0.00023032
2 *1718:B1 0.000102904
3 *1714:X 5.73917e-05
4 *89:10 0.000390616
5 *1715:C_N *1714:B1 5.0751e-05
6 *89:10 *1714:B1 4.05358e-05
7 *1713:B *1715:C_N 0
8 *1715:A *1715:C_N 4.18603e-06
9 *1715:B *1715:C_N 0
10 *1718:A1 *1718:B1 4.82863e-05
11 *1742:A0 *1715:C_N 0
12 *1742:A0 *89:10 7.89689e-05
*RES
1 *1714:X *89:10 7.235 
2 *89:10 *1718:B1 3.085 
3 *89:10 *1715:C_N 9.575 
*END

*D_NET *90 0.00112366
*CONN
*I *1717:A1 I *D sky130_fd_sc_hd__a311oi_4
*I *1715:X O *D sky130_fd_sc_hd__or3b_1
*CAP
1 *1717:A1 0.000294393
2 *1715:X 0.000294393
3 *1713:B *1717:A1 0.000181369
4 *1715:B *1717:A1 8.5188e-06
5 *1746:A0 *1717:A1 0.000309722
6 *70:24 *1717:A1 3.52639e-05
*RES
1 *1715:X *1717:A1 12.705 
*END

*D_NET *91 0.00122519
*CONN
*I *1717:A3 I *D sky130_fd_sc_hd__a311oi_4
*I *1716:X O *D sky130_fd_sc_hd__a21o_1
*CAP
1 *1717:A3 0.000182252
2 *1716:X 0.000182252
3 *1717:A3 *1746:A1 4.51961e-05
4 *1717:A3 *534:66 6.58339e-05
5 *1717:A2 *1717:A3 0.000121023
6 *1746:A0 *1717:A3 0.000110486
7 *64:24 *1717:A3 0.000448017
8 *70:24 *1717:A3 7.01303e-05
*RES
1 *1716:X *1717:A3 12.84 
*END

*D_NET *92 0.000964328
*CONN
*I *2111:A I *D sky130_fd_sc_hd__buf_6
*I *2128:A I *D sky130_fd_sc_hd__buf_6
*I *1717:Y O *D sky130_fd_sc_hd__a311oi_4
*CAP
1 *2111:A 0.000140189
2 *2128:A 0
3 *1717:Y 4.22225e-05
4 *92:8 0.000182411
5 *2111:A *512:12 5.83121e-06
6 *1695:A_N *2111:A 0.000268328
7 *1695:A_N *92:8 0.00010596
8 *1716:A2 *2111:A 4.21484e-05
9 *1716:A2 *92:8 0.000133875
10 *1716:B1 *92:8 3.25831e-05
11 *67:32 *2111:A 1.07797e-05
*RES
1 *1717:Y *92:8 5.235 
2 *92:8 *2128:A 3.6 
3 *92:8 *2111:A 6.795 
*END

*D_NET *93 0.000753625
*CONN
*I *1719:B I *D sky130_fd_sc_hd__xor2_1
*I *1718:X O *D sky130_fd_sc_hd__a31o_1
*CAP
1 *1719:B 0.000258337
2 *1718:X 0.000258337
3 *1718:A3 *1719:B 2.75229e-05
4 *1745:B *1719:B 0.000178504
5 *66:12 *1719:B 3.09233e-05
*RES
1 *1718:X *1719:B 12.015 
*END

*D_NET *94 0.00157069
*CONN
*I *1720:A1 I *D sky130_fd_sc_hd__mux2_4
*I *1719:X O *D sky130_fd_sc_hd__xor2_1
*CAP
1 *1720:A1 0.0002723
2 *1719:X 0.0002723
3 *1720:A1 *1742:A1 0.000489644
4 *1720:A0 *1720:A1 0.000317494
5 *1742:A0 *1720:A1 4.58835e-05
6 *61:62 *1720:A1 9.14049e-05
7 *66:19 *1720:A1 8.16598e-05
*RES
1 *1719:X *1720:A1 14.745 
*END

*D_NET *95 0.00232082
*CONN
*I *1737:B I *D sky130_fd_sc_hd__xor2_1
*I *1756:A I *D sky130_fd_sc_hd__nor2_1
*I *1752:B1_N I *D sky130_fd_sc_hd__o21bai_1
*I *1720:X O *D sky130_fd_sc_hd__mux2_4
*CAP
1 *1737:B 0.000160232
2 *1756:A 0
3 *1752:B1_N 0
4 *1720:X 0.000258946
5 *95:23 0.000379404
6 *95:10 0.000478118
7 *1737:B *1737:A 0.000223209
8 *1737:B *1756:B 4.82863e-05
9 *1737:B *1760:B1 3.00381e-05
10 *1737:B *112:10 2.75229e-05
11 *95:10 *121:14 0.00018116
12 *95:10 *534:50 0
13 *95:10 *534:66 0
14 *95:10 *561:23 0.000198945
15 *95:10 *565:33 0
16 *95:23 *1737:A 0.00013106
17 *95:23 *1754:B1 0
18 *95:23 *121:14 6.3685e-05
19 *95:23 *534:48 6.28843e-05
20 *95:23 *565:12 5.23362e-05
21 *95:23 *565:33 2.49909e-05
*RES
1 *1720:X *95:10 9.105 
2 *95:10 *1752:B1_N 3.6 
3 *95:10 *95:23 6.665 
4 *95:23 *1756:A 1.6 
5 *95:23 *1737:B 5.515 
*END

*D_NET *96 0.00055118
*CONN
*I *1722:A1 I *D sky130_fd_sc_hd__mux2_1
*I *1721:Y O *D sky130_fd_sc_hd__xnor2_1
*CAP
1 *1722:A1 0.000171681
2 *1721:Y 0.000171681
3 *1722:A1 *512:36 3.07153e-05
4 *1722:A1 *512:51 3.23955e-05
5 *1722:A1 *515:33 7.23533e-05
6 *1722:A1 *546:121 7.23533e-05
*RES
1 *1721:Y *1722:A1 9.9 
*END

*D_NET *97 0.00556143
*CONN
*I *1785:A I *D sky130_fd_sc_hd__nor2_1
*I *1723:A I *D sky130_fd_sc_hd__inv_2
*I *1725:B I *D sky130_fd_sc_hd__and2_1
*I *1724:B I *D sky130_fd_sc_hd__nor2_1
*I *1722:X O *D sky130_fd_sc_hd__mux2_1
*CAP
1 *1785:A 0.0001239
2 *1723:A 0.000119417
3 *1725:B 0.000160389
4 *1724:B 3.40563e-05
5 *1722:X 0.000428971
6 *97:25 0.000421108
7 *97:21 0.000300487
8 *97:10 0.000498312
9 *1723:A *1784:B1 9.78082e-05
10 *1723:A *1786:A2 0.000141599
11 *1723:A *1788:B 0.000229904
12 *1723:A *497:29 0.000118081
13 *1724:B *1782:A 1.16578e-05
14 *1725:B *1725:A 3.96284e-05
15 *1785:A *1785:B 2.7881e-05
16 *1785:A *155:14 0.000108543
17 *1785:A *283:85 0.00038133
18 *1785:A *542:109 4.14369e-05
19 *97:10 *1596:C 3.82741e-05
20 *97:10 *1735:B1 0.000116165
21 *97:10 *283:85 0.000827477
22 *97:10 *512:36 0.000236355
23 *97:10 *542:63 0.000600971
24 *97:10 *542:109 8.53113e-06
25 *97:21 *283:85 0.00013994
26 *97:21 *542:109 0.000131408
27 *97:25 *1725:A 2.39856e-05
28 *97:25 *1783:A 0.000153816
*RES
1 *1722:X *97:10 15.57 
2 *97:10 *1724:B 4.05 
3 *97:10 *97:21 1.635 
4 *97:21 *97:25 4.175 
5 *97:25 *1725:B 3.79 
6 *97:25 *1723:A 9.395 
7 *97:21 *1785:A 8.04 
*END

*D_NET *98 0.000672739
*CONN
*I *1787:A1 I *D sky130_fd_sc_hd__o211a_1
*I *1723:Y O *D sky130_fd_sc_hd__inv_2
*CAP
1 *1787:A1 0.000167968
2 *1723:Y 0.000167968
3 *1787:A1 *2051:A 1.79483e-05
4 *1787:A1 *136:18 0.000111393
5 *1787:A1 *283:93 0.000158532
6 *1787:A1 *497:29 4.89295e-05
*RES
1 *1723:Y *1787:A1 10.515 
*END

*D_NET *99 0.00129272
*CONN
*I *1782:A I *D sky130_fd_sc_hd__or2_1
*I *1735:B1 I *D sky130_fd_sc_hd__a211oi_4
*I *1724:Y O *D sky130_fd_sc_hd__nor2_1
*CAP
1 *1782:A 0.000123274
2 *1735:B1 0.000128665
3 *1724:Y 0
4 *99:4 0.000251939
5 *1735:B1 *1596:C 6.08215e-05
6 *1735:B1 *1777:B 0.000105508
7 *1735:B1 *110:14 0.000308719
8 *1735:B1 *542:63 0.000117832
9 *1782:A *542:55 6.81378e-05
10 *1724:B *1782:A 1.16578e-05
11 *97:10 *1735:B1 0.000116165
*RES
1 *1724:Y *99:4 1.6 
2 *99:4 *1735:B1 8.5375 
3 *99:4 *1782:A 3.715 
*END

*D_NET *100 0.00450224
*CONN
*I *1782:B I *D sky130_fd_sc_hd__or2_1
*I *1766:A1 I *D sky130_fd_sc_hd__o32a_1
*I *1757:A1 I *D sky130_fd_sc_hd__o31a_1
*I *1754:A1 I *D sky130_fd_sc_hd__o31a_1
*I *1736:A I *D sky130_fd_sc_hd__nor2_1
*I *1725:X O *D sky130_fd_sc_hd__and2_1
*CAP
1 *1782:B 0.000157405
2 *1766:A1 3.15705e-05
3 *1757:A1 2.88144e-05
4 *1754:A1 0.000166694
5 *1736:A 0
6 *1725:X 3.11602e-05
7 *100:36 0.000577487
8 *100:8 0.000864622
9 *100:6 0.000369392
10 *1754:A1 *1754:A2 1.91597e-05
11 *1754:A1 *129:8 8.52883e-05
12 *1754:A1 *531:25 0.00031209
13 *1754:A1 *565:12 0.000139238
14 *1754:A1 *565:73 0.000229203
15 *1757:A1 *135:18 0.000118513
16 *1757:A1 *534:27 0.000120186
17 *1766:A1 *1748:B 2.49909e-05
18 *1766:A1 *123:8 4.66108e-05
19 *1766:A1 *135:18 4.9968e-05
20 *1766:A1 *534:27 4.38051e-05
21 *1782:B *1784:B1 6.61627e-05
22 *1782:B *1787:B1 0.000166085
23 *1782:B *110:14 5.22747e-05
24 *1782:B *542:55 0.000305554
25 *100:8 *531:25 0.000135009
26 *100:36 *1736:B 0.000182414
27 *100:36 *1766:A2 3.37859e-05
28 *100:36 *1766:A3 3.74161e-05
29 *100:36 *1766:B1 2.49909e-05
30 *100:36 *123:8 8.23457e-05
*RES
1 *1725:X *100:6 2.05 
2 *100:6 *100:8 3.21 
3 *100:8 *1736:A 1.6 
4 *100:8 *1754:A1 10.925 
5 *100:8 *100:36 9.305 
6 *100:36 *1757:A1 4.98 
7 *100:36 *1766:A1 4.665 
8 *100:6 *1782:B 10.1 
*END

*D_NET *101 0.000413623
*CONN
*I *1727:B I *D sky130_fd_sc_hd__nand2_1
*I *1726:Y O *D sky130_fd_sc_hd__nand2_1
*CAP
1 *1727:B 7.90544e-05
2 *1726:Y 7.90544e-05
3 *1727:B *1728:A1 8.34281e-06
4 *1727:B *516:23 0.00011852
5 *1727:B *548:10 5.83121e-06
6 *1727:B *548:18 7.45339e-05
7 *60:8 *1727:B 4.82863e-05
*RES
1 *1726:Y *1727:B 9.375 
*END

*D_NET *102 0.000721262
*CONN
*I *1728:A1 I *D sky130_fd_sc_hd__mux2_4
*I *1727:Y O *D sky130_fd_sc_hd__nand2_1
*CAP
1 *1728:A1 0.000161041
2 *1727:Y 0.000161041
3 *1728:A1 *512:51 4.82863e-05
4 *1728:A1 *516:112 0.000136877
5 *1728:A1 *548:10 4.82919e-05
6 *1728:A1 *548:38 0.000136877
7 *1727:B *1728:A1 8.34281e-06
8 *60:8 *1728:A1 2.05056e-05
*RES
1 *1727:Y *1728:A1 10.32 
*END

*D_NET *103 0.00205039
*CONN
*I *1731:B I *D sky130_fd_sc_hd__xnor2_2
*I *1730:B I *D sky130_fd_sc_hd__and2_1
*I *1781:A1 I *D sky130_fd_sc_hd__o211a_1
*I *1729:A I *D sky130_fd_sc_hd__inv_2
*I *1728:X O *D sky130_fd_sc_hd__mux2_4
*CAP
1 *1731:B 0.000177374
2 *1730:B 0
3 *1781:A1 0.000152836
4 *1729:A 3.81051e-05
5 *1728:X 0
6 *103:10 0.000258592
7 *103:8 0.000242402
8 *103:4 0.000352125
9 *1729:A *1596:D 3.72916e-05
10 *1731:B *1776:B 0.000182062
11 *1731:B *1867:A2 0
12 *1731:B *546:121 4.92014e-05
13 *1731:B *548:38 0
14 *1781:A1 *1777:B 0
15 *1781:A1 *1778:B1 1.08758e-05
16 *1781:A1 *1780:C1 2.7441e-05
17 *1781:A1 *1781:B1 5.54268e-05
18 *1781:A1 *1781:C1 4.82863e-05
19 *1781:A1 *105:10 4.94326e-05
20 *1781:A1 *151:6 0.000199833
21 *1781:A1 *273:27 0
22 *1781:A1 *536:20 0
23 *103:8 *273:27 0.000103471
24 *103:10 *1596:D 5.98073e-05
25 *103:10 *273:27 5.83121e-06
*RES
1 *1728:X *103:4 1.6 
2 *103:4 *103:8 2.88 
3 *103:8 *103:10 1.485 
4 *103:10 *1729:A 2.395 
5 *103:10 *1781:A1 9.425 
6 *103:8 *1730:B 1.6 
7 *103:4 *1731:B 9.275 
*END

*D_NET *104 0.00170858
*CONN
*I *1780:A1 I *D sky130_fd_sc_hd__o211a_1
*I *1729:Y O *D sky130_fd_sc_hd__inv_2
*CAP
1 *1780:A1 0.000425601
2 *1729:Y 0.000425601
3 *1780:A1 *1596:D 3.44217e-05
4 *1780:A1 *1761:C 0.000103977
5 *1780:A1 *2053:A 1.19928e-05
6 *1780:A1 *108:8 8.63479e-05
7 *1780:A1 *130:14 1.07797e-05
8 *1780:A1 *510:39 0.000305632
9 *1780:A1 *542:63 0.000304226
*RES
1 *1729:Y *1780:A1 15.225 
*END

*D_NET *105 0.00187928
*CONN
*I *1734:B1 I *D sky130_fd_sc_hd__a21o_1
*I *1735:C1 I *D sky130_fd_sc_hd__a211oi_4
*I *1730:X O *D sky130_fd_sc_hd__and2_1
*CAP
1 *1734:B1 0.000211177
2 *1735:C1 0
3 *1730:X 0.000252634
4 *105:10 0.000463811
5 *1734:B1 *1596:C 0.000472297
6 *1734:B1 *1734:A1 8.31156e-05
7 *1734:B1 *1734:A2 5.90938e-05
8 *105:10 *1777:B 0
9 *105:10 *2080:A 3.96153e-05
10 *105:10 *273:27 0.000248104
11 *105:10 *510:12 0
12 *105:10 *536:20 0
13 *1781:A1 *105:10 4.94326e-05
*RES
1 *1730:X *105:10 11.06 
2 *105:10 *1735:C1 1.6 
3 *105:10 *1734:B1 7.36 
*END

*D_NET *106 0.00280867
*CONN
*I *1734:A1 I *D sky130_fd_sc_hd__a21o_1
*I *1735:A2 I *D sky130_fd_sc_hd__a211oi_4
*I *1776:A I *D sky130_fd_sc_hd__or2_1
*I *1733:A I *D sky130_fd_sc_hd__nand2_1
*I *1731:Y O *D sky130_fd_sc_hd__xnor2_2
*CAP
1 *1734:A1 5.55067e-05
2 *1735:A2 0
3 *1776:A 8.54136e-05
4 *1733:A 0.000365243
5 *1731:Y 0
6 *106:36 0.000286045
7 *106:17 0.000524599
8 *106:4 0.00057389
9 *1733:A *1733:B 4.66108e-05
10 *1733:A *2053:A 6.20056e-05
11 *1733:A *108:8 1.08758e-05
12 *1733:A *510:12 3.00381e-05
13 *1733:A *510:39 0
14 *1733:A *510:50 0
15 *1734:A1 *1596:C 3.73232e-05
16 *1734:A1 *1734:A2 0.000210556
17 *1776:A *1776:B 0.000216033
18 *1776:A *107:23 3.14383e-05
19 *1776:A *515:42 8.05319e-05
20 *1776:A *546:121 3.82741e-05
21 *106:36 *1731:A 3.00381e-05
22 *106:36 *107:12 0
23 *106:36 *107:23 4.11281e-05
24 *106:36 *548:53 0
25 *1734:B1 *1734:A1 8.31156e-05
*RES
1 *1731:Y *106:4 1.6 
2 *106:4 *1733:A 6.91 
3 *106:4 *106:17 2.175 
4 *106:17 *1776:A 8.51 
5 *106:17 *106:36 7.12 
6 *106:36 *1735:A2 1.6 
7 *106:36 *1734:A1 3.895 
*END

*D_NET *107 0.00511809
*CONN
*I *1791:A I *D sky130_fd_sc_hd__nand2_1
*I *1734:A2 I *D sky130_fd_sc_hd__a21o_1
*I *1733:B I *D sky130_fd_sc_hd__nand2_1
*I *1776:B I *D sky130_fd_sc_hd__or2_1
*I *1735:A1 I *D sky130_fd_sc_hd__a211oi_4
*I *1732:X O *D sky130_fd_sc_hd__or2_1
*CAP
1 *1791:A 0.000349224
2 *1734:A2 0.000230984
3 *1733:B 0.000565008
4 *1776:B 7.82872e-05
5 *1735:A1 0
6 *1732:X 3.58965e-05
7 *107:23 0.000769753
8 *107:12 0.000151728
9 *107:10 0.000469964
10 *107:6 0.000598829
11 *1733:B *2053:A 1.83847e-05
12 *1733:B *2080:A 8.34464e-05
13 *1733:B *2081:A 2.57272e-05
14 *1733:B *283:85 1.88904e-05
15 *1733:B *510:20 2.68831e-05
16 *1733:B *536:20 1.7635e-05
17 *1734:A2 *1596:C 1.34503e-05
18 *1776:B *1781:C1 4.82863e-05
19 *1776:B *543:23 4.66108e-05
20 *1776:B *548:38 0
21 *1791:A *1795:B1 3.09233e-05
22 *1791:A *1803:A 4.18603e-06
23 *1791:A *219:40 0.00026898
24 *1791:A *516:112 4.6084e-05
25 *1791:A *542:109 0.000195943
26 *1791:A *544:34 0
27 *107:6 *542:109 2.75145e-05
28 *107:10 *1732:B 3.68682e-05
29 *107:10 *1783:A 0
30 *107:10 *515:42 0.000149242
31 *107:10 *548:53 0
32 *107:12 *515:42 2.24423e-05
33 *107:12 *548:53 0
34 *107:23 *548:53 0
35 *1731:B *1776:B 0.000182062
36 *1733:A *1733:B 4.66108e-05
37 *1734:A1 *1734:A2 0.000210556
38 *1734:B1 *1734:A2 5.90938e-05
39 *1776:A *1776:B 0.000216033
40 *1776:A *107:23 3.14383e-05
41 *106:36 *107:12 0
42 *106:36 *107:23 4.11281e-05
*RES
1 *1732:X *107:6 2.05 
2 *107:6 *107:10 6.44 
3 *107:10 *107:12 0.615 
4 *107:12 *1735:A1 3.6 
5 *107:12 *107:23 2.2125 
6 *107:23 *1776:B 6.5775 
7 *107:23 *1733:B 6.31103 
8 *107:10 *1734:A2 7.98 
9 *107:6 *1791:A 11.885 
*END

*D_NET *108 0.0013717
*CONN
*I *1777:A I *D sky130_fd_sc_hd__nand2_1
*I *1778:B2 I *D sky130_fd_sc_hd__a221o_1
*I *1733:Y O *D sky130_fd_sc_hd__nand2_1
*CAP
1 *1777:A 4.22046e-05
2 *1778:B2 8.36671e-05
3 *1733:Y 0.000158452
4 *108:8 0.000284324
5 *1777:A *1788:B 0.000113373
6 *1777:A *136:18 0.00010125
7 *1778:B2 *1778:B1 7.25921e-06
8 *1778:B2 *1781:B1 1.12643e-05
9 *1778:B2 *1788:B 0.000180682
10 *1778:B2 *136:18 0.000244817
11 *1778:B2 *510:39 7.0263e-06
12 *1778:B2 *531:70 2.94243e-05
13 *1778:B2 *531:72 8.53113e-06
14 *108:8 *2053:A 2.19562e-06
15 *1733:A *108:8 1.08758e-05
16 *1780:A1 *108:8 8.63479e-05
*RES
1 *1733:Y *108:8 5.43 
2 *108:8 *1778:B2 6.61875 
3 *108:8 *1777:A 4.98 
*END

*D_NET *109 0.00246364
*CONN
*I *1783:A I *D sky130_fd_sc_hd__xnor2_1
*I *1734:X O *D sky130_fd_sc_hd__a21o_1
*CAP
1 *1783:A 0.000555263
2 *1734:X 0.000555263
3 *1783:A *1725:A 3.24882e-05
4 *1783:A *1732:A 9.66021e-05
5 *1783:A *1732:B 1.70935e-05
6 *1783:A *1783:B 4.66108e-05
7 *1783:A *219:40 2.86623e-05
8 *1783:A *516:112 0
9 *1783:A *542:109 0.00090708
10 *1783:A *543:125 4.19797e-05
11 *1783:A *548:53 2.87867e-05
12 *97:25 *1783:A 0.000153816
13 *107:10 *1783:A 0
*RES
1 *1734:X *1783:A 20.04 
*END

*D_NET *110 0.00247019
*CONN
*I *2125:A I *D sky130_fd_sc_hd__buf_1
*I *1754:A3 I *D sky130_fd_sc_hd__o31a_1
*I *1735:Y O *D sky130_fd_sc_hd__a211oi_4
*CAP
1 *2125:A 3.55506e-05
2 *1754:A3 0.000125217
3 *1735:Y 0.000429921
4 *110:14 0.000590689
5 *1754:A3 *1787:B1 4.19967e-05
6 *1754:A3 *129:8 8.64421e-05
7 *110:14 *1777:B 5.9964e-05
8 *110:14 *1784:B1 0.000121547
9 *110:14 *1787:B1 8.52845e-05
10 *110:14 *1788:B 0.00011686
11 *110:14 *136:18 6.28687e-05
12 *110:14 *542:55 9.77048e-06
13 *110:14 *565:8 0.000343082
14 *1735:B1 *110:14 0.000308719
15 *1782:B *110:14 5.22747e-05
*RES
1 *1735:Y *110:14 15.125 
2 *110:14 *1754:A3 7.775 
3 *110:14 *2125:A 2.215 
*END

*D_NET *111 0.00164066
*CONN
*I *1771:A I *D sky130_fd_sc_hd__xnor2_1
*I *1736:Y O *D sky130_fd_sc_hd__nor2_1
*CAP
1 *1771:A 0.000350869
2 *1736:Y 0.000350869
3 *1771:A *1772:A0 0.00015639
4 *1771:A *1772:A1 2.16833e-05
5 *1771:A *1772:S 8.40213e-05
6 *1771:A *497:29 0.000153482
7 *1771:A *510:76 0
8 *1771:A *510:85 0.000227261
9 *1771:A *565:73 0.000296088
*RES
1 *1736:Y *1771:A 15.9 
*END

*D_NET *112 0.00248101
*CONN
*I *1749:A I *D sky130_fd_sc_hd__nand4_1
*I *1751:D_N I *D sky130_fd_sc_hd__or4bb_4
*I *1759:B1_N I *D sky130_fd_sc_hd__o21bai_1
*I *1758:C_N I *D sky130_fd_sc_hd__or3b_1
*I *1737:X O *D sky130_fd_sc_hd__xor2_1
*CAP
1 *1749:A 6.76483e-05
2 *1751:D_N 3.76639e-05
3 *1759:B1_N 0.000164636
4 *1758:C_N 0
5 *1737:X 0.000266053
6 *112:30 0.00014061
7 *112:19 0.000268426
8 *112:10 0.000334545
9 *1749:A *1754:A2 2.49909e-05
10 *1749:A *135:18 0.000163019
11 *1749:A *534:27 0.000154488
12 *1759:B1_N *1760:A3 8.23457e-05
13 *112:10 *1737:A 1.47256e-05
14 *112:10 *1758:A 4.18603e-06
15 *112:10 *1760:B1 0
16 *112:10 *534:27 0.000139238
17 *112:19 *1758:A 5.92849e-05
18 *112:19 *118:12 2.97122e-05
19 *112:19 *135:18 8.53113e-06
20 *112:19 *534:27 0.000222054
21 *112:30 *135:18 0.000139933
22 *112:30 *534:27 0.000131401
23 *1737:B *112:10 2.75229e-05
*RES
1 *1737:X *112:10 7.41 
2 *112:10 *1758:C_N 3.6 
3 *112:10 *112:19 2.655 
4 *112:19 *1759:B1_N 5.43 
5 *112:19 *112:30 1.635 
6 *112:30 *1751:D_N 4.05 
7 *112:30 *1749:A 5.94 
*END

*D_NET *113 0.00270753
*CONN
*I *1753:A2_N I *D sky130_fd_sc_hd__o2bb2a_1
*I *1752:A2 I *D sky130_fd_sc_hd__o21bai_1
*I *1739:B I *D sky130_fd_sc_hd__xnor2_1
*I *1738:Y O *D sky130_fd_sc_hd__o21ai_1
*CAP
1 *1753:A2_N 1.97594e-05
2 *1752:A2 0
3 *1739:B 0.000412652
4 *1738:Y 0.000124328
5 *113:10 0.000515931
6 *113:6 0.000247365
7 *1739:B *1739:A 0.000289321
8 *1739:B *1753:B1 1.14169e-05
9 *1739:B *534:48 0.000716211
10 *113:6 *1753:B1 6.50242e-05
11 *113:6 *304:12 7.20899e-05
12 *113:6 *471:49 5.83121e-06
13 *113:6 *565:58 8.12896e-06
14 *113:10 *1752:A1 0.000104045
15 *113:10 *1753:B1 3.63206e-05
16 *113:10 *1754:B1 4.89295e-05
17 *113:10 *304:12 3.01732e-05
*RES
1 *1738:Y *113:6 3.775 
2 *113:6 *113:10 2.19 
3 *113:10 *1739:B 11.38 
4 *113:10 *1752:A2 1.6 
5 *113:6 *1753:A2_N 1.96 
*END

*D_NET *114 0.00150506
*CONN
*I *1749:B I *D sky130_fd_sc_hd__nand4_1
*I *1751:C_N I *D sky130_fd_sc_hd__or4bb_4
*I *1739:Y O *D sky130_fd_sc_hd__xnor2_1
*CAP
1 *1749:B 0.000142225
2 *1751:C_N 8.34255e-05
3 *1739:Y 0.000388872
4 *114:8 0.000614523
5 *1749:B *1749:D 5.05521e-05
6 *1749:B *132:10 5.51158e-05
7 *114:8 *1758:B 9.99492e-05
8 *114:8 *132:10 7.03934e-05
9 *114:8 *534:27 0
*RES
1 *1739:Y *114:8 11.1 
2 *114:8 *1751:C_N 4.74 
3 *114:8 *1749:B 6.03 
*END

*D_NET *115 0.000286656
*CONN
*I *1741:B I *D sky130_fd_sc_hd__xnor2_1
*I *1740:X O *D sky130_fd_sc_hd__a21o_1
*CAP
1 *1741:B 5.88131e-05
2 *1740:X 5.88131e-05
3 *1740:A2 *1741:B 5.83121e-06
4 *1741:A *1741:B 0.000163199
*RES
1 *1740:X *1741:B 4.685 
*END

*D_NET *116 0.00314551
*CONN
*I *1742:A1 I *D sky130_fd_sc_hd__mux2_4
*I *1741:Y O *D sky130_fd_sc_hd__xnor2_1
*CAP
1 *1742:A1 0.000857418
2 *1741:Y 0.000857418
3 *1718:A2 *1742:A1 0.000206123
4 *1720:A1 *1742:A1 0.000489644
5 *1740:A1 *1742:A1 6.36578e-05
6 *1740:B1 *1742:A1 1.07797e-05
7 *1741:A *1742:A1 0.000234674
8 *1742:A0 *1742:A1 0.000155122
9 *1745:B *1742:A1 0
10 *61:62 *1742:A1 0.00023494
11 *79:6 *1742:A1 3.57349e-05
12 *86:23 *1742:A1 0
*RES
1 *1741:Y *1742:A1 25.41 
*END

*D_NET *117 0.00661767
*CONN
*I *1750:A2 I *D sky130_fd_sc_hd__o22a_1
*I *1768:A0 I *D sky130_fd_sc_hd__mux2_1
*I *1744:B I *D sky130_fd_sc_hd__xor2_1
*I *1743:B I *D sky130_fd_sc_hd__and2_1
*I *1742:X O *D sky130_fd_sc_hd__mux2_4
*CAP
1 *1750:A2 0
2 *1768:A0 0.000124248
3 *1744:B 0.000217243
4 *1743:B 0
5 *1742:X 0.000331194
6 *117:27 0.00076269
7 *117:23 0.00059756
8 *117:10 0.000507554
9 *1744:B *1744:A 0.000504641
10 *1744:B *119:8 4.66108e-05
11 *1768:A0 *1768:A1 3.00381e-05
12 *1768:A0 *1769:B 4.99619e-05
13 *1768:A0 *2072:A 0.000229904
14 *1768:A0 *135:18 0
15 *1768:A0 *536:16 4.31056e-05
16 *117:10 *1756:B 0.000205376
17 *117:10 *539:37 0.000695022
18 *117:23 *1750:A1 4.82863e-05
19 *117:23 *1754:A2 0.0001947
20 *117:23 *1756:B 1.1561e-05
21 *117:23 *510:52 0.000125541
22 *117:23 *510:76 7.44375e-05
23 *117:23 *539:35 0.000474117
24 *117:23 *539:37 9.50342e-06
25 *117:27 *1750:B2 4.9968e-05
26 *117:27 *1772:A0 0.00015829
27 *117:27 *2072:A 1.88904e-05
28 *117:27 *121:29 0.000287337
29 *117:27 *121:40 4.9968e-05
30 *117:27 *121:53 0.00013994
31 *117:27 *135:18 0
32 *117:27 *539:18 9.51151e-07
33 *117:27 *539:22 0.000469075
34 *117:27 *559:12 0.000159957
*RES
1 *1742:X *117:10 12.405 
2 *117:10 *1743:B 3.6 
3 *117:10 *117:23 8.27 
4 *117:23 *117:27 14.09 
5 *117:27 *1744:B 8.55 
6 *117:27 *1768:A0 7.05 
7 *117:23 *1750:A2 1.6 
*END

*D_NET *118 0.00126885
*CONN
*I *1751:A I *D sky130_fd_sc_hd__or4bb_4
*I *1759:A1 I *D sky130_fd_sc_hd__o21bai_1
*I *1758:A I *D sky130_fd_sc_hd__or3b_1
*I *1743:X O *D sky130_fd_sc_hd__and2_1
*CAP
1 *1751:A 6.31141e-05
2 *1759:A1 8.35434e-05
3 *1758:A 4.82755e-05
4 *1743:X 0.000119735
5 *118:12 0.000227601
6 *118:8 0.000278631
7 *1751:A *1751:B 3.25831e-05
8 *1751:A *135:18 3.05807e-05
9 *1751:A *510:52 0
10 *1758:A *1760:A2 9.54399e-05
11 *1758:A *1760:B1 2.03321e-05
12 *1759:A1 *1760:A3 6.74743e-05
13 *118:8 *1760:A1 7.35729e-05
14 *118:12 *1756:B 0
15 *118:12 *1760:A2 2.92496e-05
16 *118:12 *135:18 5.53249e-06
17 *118:12 *510:52 0
18 *112:10 *1758:A 4.18603e-06
19 *112:19 *1758:A 5.92849e-05
20 *112:19 *118:12 2.97122e-05
*RES
1 *1743:X *118:8 5.085 
2 *118:8 *118:12 1.575 
3 *118:12 *1758:A 5.235 
4 *118:12 *1759:A1 5.205 
5 *118:8 *1751:A 4.98 
*END

*D_NET *119 0.00294558
*CONN
*I *1767:A I *D sky130_fd_sc_hd__xor2_1
*I *1749:C I *D sky130_fd_sc_hd__nand4_1
*I *1744:X O *D sky130_fd_sc_hd__xor2_1
*CAP
1 *1767:A 0.000154619
2 *1749:C 0.000357131
3 *1744:X 2.61242e-05
4 *119:8 0.000537874
5 *1749:C *1748:A 8.77073e-05
6 *1749:C *1749:D 0.000517454
7 *1749:C *1767:B 0.00017562
8 *1749:C *1771:B 0.000226082
9 *1749:C *2076:A 0.000360604
10 *1749:C *2079:A 0
11 *1749:C *132:10 1.26548e-05
12 *1749:C *534:27 0.000194531
13 *1767:A *2076:A 0.000156155
14 *1767:A *534:27 9.24127e-05
15 *1744:B *119:8 4.66108e-05
*RES
1 *1744:X *119:8 4.05 
2 *119:8 *1749:C 16.455 
3 *119:8 *1767:A 6.99 
*END

*D_NET *120 0.00194416
*CONN
*I *1746:A1 I *D sky130_fd_sc_hd__mux2_4
*I *1745:Y O *D sky130_fd_sc_hd__xnor2_1
*CAP
1 *1746:A1 0.000601768
2 *1745:Y 0.000601768
3 *1746:A1 *539:37 0
4 *1691:B *1746:A1 0.00015806
5 *1717:A2 *1746:A1 6.80137e-05
6 *1717:A3 *1746:A1 4.51961e-05
7 *64:24 *1746:A1 0.000358865
8 *70:24 *1746:A1 0.000110492
*RES
1 *1745:Y *1746:A1 15.585 
*END

*D_NET *121 0.00676429
*CONN
*I *1772:A0 I *D sky130_fd_sc_hd__mux2_1
*I *1747:B I *D sky130_fd_sc_hd__xnor2_1
*I *1748:B I *D sky130_fd_sc_hd__xnor2_1
*I *1766:B1 I *D sky130_fd_sc_hd__o32a_1
*I *1750:B2 I *D sky130_fd_sc_hd__o22a_1
*I *1746:X O *D sky130_fd_sc_hd__mux2_4
*CAP
1 *1772:A0 0.000129126
2 *1747:B 3.64111e-05
3 *1748:B 0.000208944
4 *1766:B1 1.65033e-05
5 *1750:B2 6.45058e-05
6 *1746:X 0.000803371
7 *121:53 0.000231356
8 *121:40 0.000300547
9 *121:29 0.00014291
10 *121:14 0.000968501
11 *1747:B *1747:A 8.65905e-05
12 *1748:B *1766:A2 0.000124895
13 *1748:B *1767:B 0.00015806
14 *1748:B *123:8 3.23284e-05
15 *1750:B2 *1751:B 4.9968e-05
16 *1750:B2 *1754:A2 4.66108e-05
17 *1750:B2 *1757:B1 8.53113e-06
18 *1766:B1 *1766:A2 4.66108e-05
19 *1772:A0 *1772:A1 0.000120655
20 *1772:A0 *135:18 0
21 *121:14 *1754:A2 0.000383652
22 *121:14 *539:35 0.000147066
23 *121:14 *539:37 0.000425969
24 *121:14 *561:23 0
25 *121:14 *565:12 0.000829472
26 *121:29 *1757:B1 0.00012904
27 *121:29 *1766:B2 0.000116158
28 *121:29 *542:36 1.97849e-05
29 *121:40 *135:18 0
30 *121:53 *135:18 0
31 *1766:A1 *1748:B 2.49909e-05
32 *1771:A *1772:A0 0.00015639
33 *70:24 *121:14 0
34 *95:10 *121:14 0.00018116
35 *95:23 *121:14 6.3685e-05
36 *100:36 *1766:B1 2.49909e-05
37 *117:27 *1750:B2 4.9968e-05
38 *117:27 *1772:A0 0.00015829
39 *117:27 *121:29 0.000287337
40 *117:27 *121:40 4.9968e-05
41 *117:27 *121:53 0.00013994
*RES
1 *1746:X *121:14 28.09 
2 *121:14 *1750:B2 5.025 
3 *121:14 *121:29 3.42 
4 *121:29 *1766:B1 4.05 
5 *121:29 *121:40 0.615 
6 *121:40 *1748:B 7.515 
7 *121:40 *121:53 1.635 
8 *121:53 *1747:B 4.395 
9 *121:53 *1772:A0 6.975 
*END

*D_NET *122 0.00208501
*CONN
*I *1771:B I *D sky130_fd_sc_hd__xnor2_1
*I *1749:D I *D sky130_fd_sc_hd__nand4_1
*I *1747:Y O *D sky130_fd_sc_hd__xnor2_1
*CAP
1 *1771:B 7.02491e-05
2 *1749:D 0.00018399
3 *1747:Y 0
4 *122:6 0.000254239
5 *1749:D *132:10 0.000139933
6 *1749:D *534:27 0.000361983
7 *1771:B *497:29 4.66108e-05
8 *1771:B *534:27 0.000233918
9 *1749:B *1749:D 5.05521e-05
10 *1749:C *1749:D 0.000517454
11 *1749:C *1771:B 0.000226082
*RES
1 *1747:Y *122:6 3.6 
2 *122:6 *1749:D 10.365 
3 *122:6 *1771:B 6.705 
*END

*D_NET *123 0.000813086
*CONN
*I *1766:A3 I *D sky130_fd_sc_hd__o32a_1
*I *1757:A3 I *D sky130_fd_sc_hd__o31a_1
*I *1748:Y O *D sky130_fd_sc_hd__xnor2_1
*CAP
1 *1766:A3 2.79199e-05
2 *1757:A3 4.35286e-05
3 *1748:Y 9.96697e-05
4 *123:8 0.000171118
5 *1757:A3 *1766:B2 4.39001e-05
6 *1757:A3 *135:18 0.000139231
7 *1757:A3 *542:36 5.56629e-05
8 *1766:A3 *1766:A2 2.75229e-05
9 *123:8 *1766:A2 5.83121e-06
10 *1748:B *123:8 3.23284e-05
11 *1766:A1 *123:8 4.66108e-05
12 *100:36 *1766:A3 3.74161e-05
13 *100:36 *123:8 8.23457e-05
*RES
1 *1748:Y *123:8 3.445 
2 *123:8 *1757:A3 7.235 
3 *123:8 *1766:A3 2.41 
*END

*D_NET *124 0.00166227
*CONN
*I *1754:A2 I *D sky130_fd_sc_hd__o31a_1
*I *1749:Y O *D sky130_fd_sc_hd__nand4_1
*CAP
1 *1754:A2 0.00036572
2 *1749:Y 0.00036572
3 *1754:A2 *125:8 0.000119756
4 *1754:A2 *129:8 0.000122801
5 *1754:A2 *539:35 1.91597e-05
6 *1749:A *1754:A2 2.49909e-05
7 *1750:B2 *1754:A2 4.66108e-05
8 *1754:A1 *1754:A2 1.91597e-05
9 *117:23 *1754:A2 0.0001947
10 *121:14 *1754:A2 0.000383652
*RES
1 *1749:Y *1754:A2 10.895 
*END

*D_NET *125 0.00128052
*CONN
*I *1757:B1 I *D sky130_fd_sc_hd__o31a_1
*I *1751:B I *D sky130_fd_sc_hd__or4bb_4
*I *1750:X O *D sky130_fd_sc_hd__o22a_1
*CAP
1 *1757:B1 6.00967e-05
2 *1751:B 0.000121107
3 *1750:X 9.05452e-05
4 *125:8 0.000271749
5 *1751:B *1750:B1 7.47145e-05
6 *1751:B *135:18 0.00011562
7 *1751:B *510:52 0
8 *1751:B *510:76 0
9 *1751:B *539:22 0
10 *1757:B1 *1750:B1 8.5242e-05
11 *1757:B1 *1757:A2 4.66108e-05
12 *1757:B1 *542:36 7.49589e-05
13 *1750:B2 *1751:B 4.9968e-05
14 *1750:B2 *1757:B1 8.53113e-06
15 *1751:A *1751:B 3.25831e-05
16 *1754:A2 *125:8 0.000119756
17 *121:29 *1757:B1 0.00012904
*RES
1 *1750:X *125:8 4.74 
2 *125:8 *1751:B 6.765 
3 *125:8 *1757:B1 5.685 
*END

*D_NET *126 0.00298798
*CONN
*I *1784:A1 I *D sky130_fd_sc_hd__a211o_1
*I *1778:A2 I *D sky130_fd_sc_hd__a221o_1
*I *1779:A1 I *D sky130_fd_sc_hd__a211o_1
*I *1755:A1 I *D sky130_fd_sc_hd__a21oi_4
*I *1751:X O *D sky130_fd_sc_hd__or4bb_4
*CAP
1 *1784:A1 0.000206374
2 *1778:A2 0.000130621
3 *1779:A1 2.11416e-05
4 *1755:A1 0
5 *1751:X 8.27506e-05
6 *126:26 0.000385597
7 *126:15 0.000188809
8 *126:6 0.000201815
9 *1778:A2 *1778:A1 1.34556e-05
10 *1778:A2 *1780:C1 0.000154433
11 *1778:A2 *1781:B1 1.34556e-05
12 *1778:A2 *136:18 1.68813e-05
13 *1778:A2 *531:70 0.000185198
14 *1779:A1 *1755:A2 8.52137e-06
15 *1779:A1 *510:50 0
16 *1784:A1 *1784:B1 4.55864e-06
17 *1784:A1 *1784:C1 3.63701e-06
18 *1784:A1 *129:18 1.49649e-05
19 *1784:A1 *531:70 9.74049e-05
20 *126:6 *1755:A2 4.99619e-05
21 *126:6 *510:50 0.0001049
22 *126:15 *1755:A2 0.000114327
23 *126:15 *1779:B1 4.77719e-05
24 *126:15 *1779:C1 4.77757e-05
25 *126:15 *510:50 0.000452848
26 *126:15 *531:31 0.000159156
27 *126:26 *1755:A2 2.01504e-05
28 *126:26 *1780:B1 4.60061e-05
29 *126:26 *130:8 1.87977e-05
30 *126:26 *510:50 0.000196669
*RES
1 *1751:X *126:6 3.43 
2 *126:6 *1755:A1 1.6 
3 *126:6 *126:15 4.605 
4 *126:15 *1779:A1 1.96 
5 *126:15 *126:26 3.83 
6 *126:26 *1778:A2 6.82875 
7 *126:26 *1784:A1 6.48 
*END

*D_NET *127 0.000755754
*CONN
*I *1753:B1 I *D sky130_fd_sc_hd__o2bb2a_1
*I *1752:Y O *D sky130_fd_sc_hd__o21bai_1
*CAP
1 *1753:B1 0.000131457
2 *1752:Y 0.000131457
3 *1753:B1 *1752:A1 0.000104958
4 *1753:B1 *304:12 9.15156e-05
5 *1753:B1 *565:33 0.000154908
6 *1753:B1 *565:58 2.86975e-05
7 *1739:B *1753:B1 1.14169e-05
8 *113:6 *1753:B1 6.50242e-05
9 *113:10 *1753:B1 3.63206e-05
*RES
1 *1752:Y *1753:B1 7.115 
*END

*D_NET *128 0.00172984
*CONN
*I *1754:B1 I *D sky130_fd_sc_hd__o31a_1
*I *1753:X O *D sky130_fd_sc_hd__o2bb2a_1
*CAP
1 *1754:B1 0.000677932
2 *1753:X 0.000677932
3 *1754:B1 *1596:D 8.7974e-05
4 *1754:B1 *1778:A1 6.73578e-05
5 *1754:B1 *1779:B1 3.54966e-05
6 *1754:B1 *129:8 4.77757e-05
7 *1754:B1 *129:18 0
8 *1754:B1 *136:18 0
9 *1754:B1 *531:31 0
10 *1754:B1 *534:50 5.02217e-05
11 *1754:B1 *565:12 0
12 *1754:B1 *565:33 3.62197e-05
13 *95:23 *1754:B1 0
14 *113:10 *1754:B1 4.89295e-05
*RES
1 *1753:X *1754:B1 18.54 
*END

*D_NET *129 0.00290947
*CONN
*I *1784:A2 I *D sky130_fd_sc_hd__a211o_1
*I *1779:A2 I *D sky130_fd_sc_hd__a211o_1
*I *1755:A2 I *D sky130_fd_sc_hd__a21oi_4
*I *1778:A1 I *D sky130_fd_sc_hd__a221o_1
*I *1754:X O *D sky130_fd_sc_hd__o31a_1
*CAP
1 *1784:A2 2.13172e-06
2 *1779:A2 0
3 *1755:A2 0.000214755
4 *1778:A1 0.000231241
5 *1754:X 0.000135489
6 *129:31 0.000214755
7 *129:18 0.000422941
8 *129:8 0.000329321
9 *1755:A2 *1779:B1 4.89295e-05
10 *1755:A2 *1779:C1 3.68999e-05
11 *1755:A2 *1780:B1 0
12 *1755:A2 *130:8 0.000130465
13 *1755:A2 *531:31 0.00016031
14 *1778:A1 *1780:C1 5.46841e-05
15 *1778:A1 *1781:B1 6.48085e-05
16 *1784:A2 *1779:B1 8.31708e-06
17 *129:8 *1779:B1 2.4811e-05
18 *129:8 *1787:B1 8.64421e-05
19 *129:18 *1777:B 0
20 *129:18 *1779:B1 0.000112123
21 *1754:A1 *129:8 8.52883e-05
22 *1754:A2 *129:8 0.000122801
23 *1754:A3 *129:8 8.64421e-05
24 *1754:B1 *1778:A1 6.73578e-05
25 *1754:B1 *129:8 4.77757e-05
26 *1754:B1 *129:18 0
27 *1778:A2 *1778:A1 1.34556e-05
28 *1779:A1 *1755:A2 8.52137e-06
29 *1784:A1 *129:18 1.49649e-05
30 *126:6 *1755:A2 4.99619e-05
31 *126:15 *1755:A2 0.000114327
32 *126:26 *1755:A2 2.01504e-05
*RES
1 *1754:X *129:8 5.2525 
2 *129:8 *129:18 4.8125 
3 *129:18 *1778:A1 7.74 
4 *129:18 *129:31 2 
5 *129:31 *1755:A2 6.895 
6 *129:31 *1779:A2 1.6 
7 *129:8 *1784:A2 1.71625 
*END

*D_NET *130 0.0048122
*CONN
*I *2053:A I *D sky130_fd_sc_hd__buf_6
*I *1785:B I *D sky130_fd_sc_hd__nor2_1
*I *1786:A1 I *D sky130_fd_sc_hd__a211o_1
*I *1755:Y O *D sky130_fd_sc_hd__a21oi_4
*CAP
1 *2053:A 0.00033803
2 *1785:B 7.5665e-05
3 *1786:A1 9.8548e-05
4 *1755:Y 0.000462425
5 *130:14 0.000429995
6 *130:8 0.00105624
7 *1785:B *1786:B1 8.23457e-05
8 *1785:B *155:14 5.16418e-05
9 *1786:A1 *1786:B1 2.94433e-05
10 *1786:A1 *283:93 2.04648e-05
11 *2053:A *510:39 2.49909e-05
12 *130:8 *1780:B1 6.51658e-05
13 *130:8 *510:39 6.33103e-05
14 *130:8 *510:50 2.19562e-06
15 *130:14 *1788:B 0.000881222
16 *130:14 *155:14 0.000790563
17 *130:14 *510:39 5.23362e-05
18 *130:14 *542:63 5.12017e-06
19 *1733:A *2053:A 6.20056e-05
20 *1733:B *2053:A 1.83847e-05
21 *1755:A2 *130:8 0.000130465
22 *1780:A1 *2053:A 1.19928e-05
23 *1780:A1 *130:14 1.07797e-05
24 *1785:A *1785:B 2.7881e-05
25 *108:8 *2053:A 2.19562e-06
26 *126:26 *130:8 1.87977e-05
*RES
1 *1755:Y *130:8 7.24 
2 *130:8 *130:14 14.305 
3 *130:14 *1786:A1 3.01 
4 *130:14 *1785:B 7.01 
5 *130:8 *2053:A 5.8375 
*END

*D_NET *131 0.00059587
*CONN
*I *1760:B1 I *D sky130_fd_sc_hd__a31o_1
*I *1756:Y O *D sky130_fd_sc_hd__nor2_1
*CAP
1 *1760:B1 0.000157453
2 *1756:Y 0.000157453
3 *1760:B1 *1756:B 0.00016506
4 *1760:B1 *1760:A2 6.55328e-05
5 *1737:B *1760:B1 3.00381e-05
6 *1758:A *1760:B1 2.03321e-05
7 *112:10 *1760:B1 0
*RES
1 *1756:Y *1760:B1 11.07 
*END

*D_NET *132 0.00200175
*CONN
*I *1759:A2 I *D sky130_fd_sc_hd__o21bai_1
*I *1758:B I *D sky130_fd_sc_hd__or3b_1
*I *1757:X O *D sky130_fd_sc_hd__o31a_1
*CAP
1 *1759:A2 0
2 *1758:B 0.000237785
3 *1757:X 0.000187795
4 *132:10 0.00042558
5 *1758:B *534:27 0.000233925
6 *132:10 *534:27 0.000492006
7 *132:10 *542:21 4.66108e-05
8 *1749:B *132:10 5.51158e-05
9 *1749:C *132:10 1.26548e-05
10 *1749:D *132:10 0.000139933
11 *114:8 *1758:B 9.99492e-05
12 *114:8 *132:10 7.03934e-05
*RES
1 *1757:X *132:10 9.765 
2 *132:10 *1758:B 8.085 
3 *132:10 *1759:A2 3.6 
*END

*D_NET *133 0.000422965
*CONN
*I *1760:A2 I *D sky130_fd_sc_hd__a31o_1
*I *1758:X O *D sky130_fd_sc_hd__or3b_1
*CAP
1 *1760:A2 0.000116371
2 *1758:X 0.000116371
3 *1758:A *1760:A2 9.54399e-05
4 *1760:B1 *1760:A2 6.55328e-05
5 *118:12 *1760:A2 2.92496e-05
*RES
1 *1758:X *1760:A2 9.375 
*END

*D_NET *134 0.000396074
*CONN
*I *1760:A3 I *D sky130_fd_sc_hd__a31o_1
*I *1759:Y O *D sky130_fd_sc_hd__o21bai_1
*CAP
1 *1760:A3 0.000123127
2 *1759:Y 0.000123127
3 *1759:A1 *1760:A3 6.74743e-05
4 *1759:B1_N *1760:A3 8.23457e-05
*RES
1 *1759:Y *1760:A3 5.39 
*END

*D_NET *135 0.00538822
*CONN
*I *1800:A I *D sky130_fd_sc_hd__nor2_1
*I *1764:B I *D sky130_fd_sc_hd__xor2_1
*I *1760:X O *D sky130_fd_sc_hd__a31o_1
*CAP
1 *1800:A 8.53259e-05
2 *1764:B 9.51499e-05
3 *1760:X 0.000898225
4 *135:18 0.0010787
5 *1764:B *1764:A 0.000251017
6 *1764:B *1765:C 0.000164874
7 *1764:B *534:15 9.53428e-06
8 *1764:B *534:133 1.46744e-05
9 *1800:A *1765:C 0.000172026
10 *1800:A *2071:A 4.82863e-05
11 *1800:A *534:133 0.000350486
12 *135:18 *1750:B1 0.000159957
13 *135:18 *1766:B2 7.21296e-06
14 *135:18 *1770:B 0.000113797
15 *135:18 *2071:A 3.18219e-05
16 *135:18 *2072:A 0
17 *135:18 *144:12 0
18 *135:18 *534:27 0.000757095
19 *135:18 *536:16 0.000356225
20 *135:18 *542:36 2.28792e-05
21 *1749:A *135:18 0.000163019
22 *1751:A *135:18 3.05807e-05
23 *1751:B *135:18 0.00011562
24 *1757:A1 *135:18 0.000118513
25 *1757:A3 *135:18 0.000139231
26 *1766:A1 *135:18 4.9968e-05
27 *1768:A0 *135:18 0
28 *1772:A0 *135:18 0
29 *112:19 *135:18 8.53113e-06
30 *112:30 *135:18 0.000139933
31 *117:27 *135:18 0
32 *118:12 *135:18 5.53249e-06
33 *121:40 *135:18 0
34 *121:53 *135:18 0
*RES
1 *1760:X *135:18 30.275 
2 *135:18 *1764:B 4.84 
3 *135:18 *1800:A 5.17 
*END

*D_NET *136 0.00712908
*CONN
*I *1762:A2 I *D sky130_fd_sc_hd__a21oi_1
*I *1763:C I *D sky130_fd_sc_hd__and3_1
*I *1761:X O *D sky130_fd_sc_hd__or3_1
*CAP
1 *1762:A2 9.56557e-05
2 *1763:C 0.000230862
3 *1761:X 0.0013482
4 *136:18 0.00167471
5 *1762:A2 *1762:A1 0.00013642
6 *1762:A2 *1802:B1 8.91754e-05
7 *1762:A2 *140:12 5.74125e-05
8 *1763:C *1762:A1 6.80732e-06
9 *1763:C *1763:A 4.77719e-05
10 *1763:C *1763:B 8.62445e-06
11 *1763:C *531:6 3.57349e-05
12 *136:18 *1784:B1 0.000332992
13 *136:18 *1784:C1 1.9537e-06
14 *136:18 *1786:A2 0.000279875
15 *136:18 *1787:B1 0
16 *136:18 *1788:B 7.94877e-05
17 *136:18 *1789:A_N 0.000170621
18 *136:18 *1789:B 0.000173317
19 *136:18 *1802:B1 0.000109198
20 *136:18 *1805:C 0.000140063
21 *136:18 *1805:D 0
22 *136:18 *1806:A2 7.06865e-05
23 *136:18 *2051:A 0.000381784
24 *136:18 *2069:A 1.56428e-05
25 *136:18 *161:8 0.000323781
26 *136:18 *162:12 0
27 *136:18 *163:10 0.000113373
28 *136:18 *471:71 0
29 *136:18 *498:23 2.54523e-05
30 *136:18 *512:25 2.92496e-05
31 *136:18 *512:36 4.66108e-05
32 *136:18 *531:70 0.000313566
33 *136:18 *531:72 0.000167651
34 *1754:B1 *136:18 0
35 *1761:A *136:18 8.51879e-05
36 *1777:A *136:18 0.00010125
37 *1778:A2 *136:18 1.68813e-05
38 *1778:B2 *136:18 0.000244817
39 *1787:A1 *136:18 0.000111393
40 *110:14 *136:18 6.28687e-05
*RES
1 *1761:X *136:18 37.115 
2 *136:18 *1763:C 4.18 
3 *136:18 *1762:A2 8.51 
*END

*D_NET *137 0.0012059
*CONN
*I *1765:A I *D sky130_fd_sc_hd__or3_1
*I *1800:B I *D sky130_fd_sc_hd__nor2_1
*I *1762:Y O *D sky130_fd_sc_hd__a21oi_1
*CAP
1 *1765:A 2.80139e-05
2 *1800:B 0.000200232
3 *1762:Y 0.000202452
4 *137:6 0.000430698
5 *1765:A *1801:B1 3.26889e-05
6 *1800:B *1762:B1 0
7 *1800:B *1765:C 4.99619e-05
8 *1800:B *1801:A1 0
9 *1800:B *138:12 9.07358e-05
10 *137:6 *1802:B1 1.15043e-05
11 *137:6 *140:12 0.000159615
*RES
1 *1762:Y *137:6 4.12 
2 *137:6 *1800:B 9.065 
3 *137:6 *1765:A 2.215 
*END

*D_NET *138 0.000706759
*CONN
*I *1801:B1 I *D sky130_fd_sc_hd__a21oi_1
*I *1765:B I *D sky130_fd_sc_hd__or3_1
*I *1763:X O *D sky130_fd_sc_hd__and3_1
*CAP
1 *1801:B1 0.000131951
2 *1765:B 0
3 *1763:X 0.000102667
4 *138:12 0.000234618
5 *1801:B1 *1765:C 7.35813e-05
6 *1801:B1 *1802:B1 1.17309e-05
7 *138:12 *1765:C 2.87867e-05
8 *1765:A *1801:B1 3.26889e-05
9 *1800:B *138:12 9.07358e-05
*RES
1 *1763:X *138:12 7.265 
2 *138:12 *1765:B 1.6 
3 *138:12 *1801:B1 4.06 
*END

*D_NET *139 0.00148705
*CONN
*I *1765:C I *D sky130_fd_sc_hd__or3_1
*I *1764:X O *D sky130_fd_sc_hd__xor2_1
*CAP
1 *1765:C 0.000364562
2 *1764:X 0.000364562
3 *1765:C *1762:B1 0
4 *1765:C *1801:A1 7.45881e-05
5 *1765:C *1801:A2 7.22354e-05
6 *1765:C *1802:B1 7.35813e-05
7 *1765:C *2071:A 4.82863e-05
8 *1764:B *1765:C 0.000164874
9 *1800:A *1765:C 0.000172026
10 *1800:B *1765:C 4.99619e-05
11 *1801:B1 *1765:C 7.35813e-05
12 *138:12 *1765:C 2.87867e-05
*RES
1 *1764:X *1765:C 16.11 
*END

*D_NET *140 0.00153475
*CONN
*I *1805:A I *D sky130_fd_sc_hd__nor4_1
*I *1802:A1 I *D sky130_fd_sc_hd__o21a_1
*I *1765:X O *D sky130_fd_sc_hd__or3_1
*CAP
1 *1805:A 0.000123628
2 *1802:A1 0
3 *1765:X 0.000204367
4 *140:12 0.000327995
5 *1805:A *1799:A1 1.20052e-05
6 *1805:A *1802:B1 8.52845e-05
7 *1805:A *1805:B 8.61546e-05
8 *1805:A *1806:A2 4.66108e-05
9 *140:12 *1762:A1 9.08126e-05
10 *140:12 *1762:B1 7.06418e-05
11 *140:12 *1802:B1 4.43654e-05
12 *140:12 *471:71 0.000225853
13 *1762:A2 *140:12 5.74125e-05
14 *137:6 *140:12 0.000159615
*RES
1 *1765:X *140:12 11.105 
2 *140:12 *1802:A1 1.6 
3 *140:12 *1805:A 4.135 
*END

*D_NET *141 0.00188912
*CONN
*I *1767:B I *D sky130_fd_sc_hd__xor2_1
*I *1766:X O *D sky130_fd_sc_hd__o32a_1
*CAP
1 *1767:B 0.000516983
2 *1766:X 0.000516983
3 *1767:B *2076:A 0.000521475
4 *1748:B *1767:B 0.00015806
5 *1749:C *1767:B 0.00017562
*RES
1 *1766:X *1767:B 18.225 
*END

*D_NET *142 0.000426474
*CONN
*I *1768:A1 I *D sky130_fd_sc_hd__mux2_1
*I *1767:X O *D sky130_fd_sc_hd__xor2_1
*CAP
1 *1768:A1 0.000126735
2 *1767:X 0.000126735
3 *1768:A1 *1769:B 3.79945e-05
4 *1768:A1 *143:6 1.83756e-05
5 *1768:A1 *536:16 8.65961e-05
6 *1768:A0 *1768:A1 3.00381e-05
*RES
1 *1767:X *1768:A1 5.72 
*END

*D_NET *143 0.00104887
*CONN
*I *1769:B I *D sky130_fd_sc_hd__nor2_1
*I *1770:B I *D sky130_fd_sc_hd__nand2_1
*I *1768:X O *D sky130_fd_sc_hd__mux2_1
*CAP
1 *1769:B 0.000228581
2 *1770:B 4.40708e-05
3 *1768:X 3.72342e-05
4 *143:6 0.000309886
5 *1769:B *1770:A 1.41559e-05
6 *1769:B *2072:A 6.02202e-05
7 *1769:B *536:16 5.83373e-05
8 *1769:B *539:12 1.41559e-05
9 *1770:B *534:27 6.20952e-05
10 *1768:A0 *1769:B 4.99619e-05
11 *1768:A1 *1769:B 3.79945e-05
12 *1768:A1 *143:6 1.83756e-05
13 *135:18 *1770:B 0.000113797
*RES
1 *1768:X *143:6 2.05 
2 *143:6 *1770:B 6.98 
3 *143:6 *1769:B 9.0425 
*END

*D_NET *144 0.00220756
*CONN
*I *1799:A1 I *D sky130_fd_sc_hd__o221a_1
*I *1775:A_N I *D sky130_fd_sc_hd__nand4b_1
*I *1769:Y O *D sky130_fd_sc_hd__nor2_1
*CAP
1 *1799:A1 0.000490314
2 *1775:A_N 0
3 *1769:Y 7.69016e-05
4 *144:12 0.000567215
5 *1799:A1 *1775:D 0.000194218
6 *1799:A1 *1799:A2 0.000407726
7 *1799:A1 *1805:B 2.04786e-05
8 *1799:A1 *145:16 1.19928e-05
9 *144:12 *1770:A 8.8266e-05
10 *144:12 *2072:A 0.000162332
11 *144:12 *145:16 0.000166815
12 *144:12 *536:16 9.29751e-06
13 *1805:A *1799:A1 1.20052e-05
14 *135:18 *144:12 0
*RES
1 *1769:Y *144:12 8.285 
2 *144:12 *1775:A_N 1.6 
3 *144:12 *1799:A1 8.8 
*END

*D_NET *145 0.00148523
*CONN
*I *1799:C1 I *D sky130_fd_sc_hd__o221a_1
*I *1775:B I *D sky130_fd_sc_hd__nand4b_1
*I *1770:Y O *D sky130_fd_sc_hd__nand2_1
*CAP
1 *1799:C1 5.71925e-05
2 *1775:B 0
3 *1770:Y 0.000246145
4 *145:16 0.000303338
5 *1799:C1 *1775:D 8.65905e-05
6 *1799:C1 *1799:A2 0.000228937
7 *1799:C1 *150:6 0.000239813
8 *145:16 *1770:A 2.37729e-05
9 *145:16 *1775:D 4.50892e-05
10 *145:16 *499:8 3.64998e-06
11 *145:16 *536:16 6.55328e-05
12 *145:16 *539:12 6.36055e-06
13 *1799:A1 *145:16 1.19928e-05
14 *144:12 *145:16 0.000166815
*RES
1 *1770:Y *145:16 9.965 
2 *145:16 *1775:B 1.6 
3 *145:16 *1799:C1 4.465 
*END

*D_NET *146 0.000373335
*CONN
*I *1772:A1 I *D sky130_fd_sc_hd__mux2_1
*I *1771:Y O *D sky130_fd_sc_hd__xnor2_1
*CAP
1 *1772:A1 0.000115498
2 *1771:Y 0.000115498
3 *1771:A *1772:A1 2.16833e-05
4 *1772:A0 *1772:A1 0.000120655
*RES
1 *1771:Y *1772:A1 4.685 
*END

*D_NET *147 0.00110709
*CONN
*I *1773:B I *D sky130_fd_sc_hd__or2_1
*I *1774:B I *D sky130_fd_sc_hd__nand2_1
*I *1772:X O *D sky130_fd_sc_hd__mux2_1
*CAP
1 *1773:B 7.78517e-05
2 *1774:B 0
3 *1772:X 0.000403342
4 *147:10 0.000481193
5 *1773:B *149:10 9.47454e-05
6 *1773:B *539:16 0
7 *1773:B *565:73 0
8 *147:10 *497:29 4.99619e-05
9 *147:10 *539:18 0
10 *147:10 *539:22 0
11 *147:10 *565:73 0
*RES
1 *1772:X *147:10 9.765 
2 *147:10 *1774:B 3.6 
3 *147:10 *1773:B 5.235 
*END

*D_NET *148 0.000287458
*CONN
*I *1775:C I *D sky130_fd_sc_hd__nand4b_1
*I *1773:X O *D sky130_fd_sc_hd__or2_1
*CAP
1 *1775:C 4.51027e-05
2 *1773:X 4.51027e-05
3 *1775:C *2072:A 0.000140912
4 *1775:C *149:10 5.63405e-05
*RES
1 *1773:X *1775:C 8.835 
*END

*D_NET *149 0.00184254
*CONN
*I *1799:A2 I *D sky130_fd_sc_hd__o221a_1
*I *1775:D I *D sky130_fd_sc_hd__nand4b_1
*I *1774:Y O *D sky130_fd_sc_hd__nand2_1
*CAP
1 *1799:A2 7.34599e-05
2 *1775:D 4.51345e-05
3 *1774:Y 0.000193428
4 *149:10 0.000312022
5 *1799:A2 *1799:B1 5.12969e-06
6 *1799:A2 *1805:B 2.14569e-05
7 *1799:A2 *150:6 4.43603e-05
8 *149:10 *1799:B2 0
9 *149:10 *2072:A 0
10 *149:10 *539:16 3.39064e-05
11 *149:10 *565:73 0
12 *1773:B *149:10 9.47454e-05
13 *1775:C *149:10 5.63405e-05
14 *1799:A1 *1775:D 0.000194218
15 *1799:A1 *1799:A2 0.000407726
16 *1799:C1 *1775:D 8.65905e-05
17 *1799:C1 *1799:A2 0.000228937
18 *145:16 *1775:D 4.50892e-05
*RES
1 *1774:Y *149:10 9.53 
2 *149:10 *1775:D 3.445 
3 *149:10 *1799:A2 5.515 
*END

*D_NET *150 0.00159027
*CONN
*I *1799:B1 I *D sky130_fd_sc_hd__o221a_1
*I *1805:B I *D sky130_fd_sc_hd__nor4_1
*I *1775:Y O *D sky130_fd_sc_hd__nand4b_1
*CAP
1 *1799:B1 1.6964e-05
2 *1805:B 0.000327202
3 *1775:Y 0.00012213
4 *150:6 0.000466297
5 *1805:B *1799:B2 0.000118081
6 *1805:B *1802:A2 2.10214e-05
7 *1805:B *1802:B1 8.64421e-05
8 *1805:B *1806:A2 1.47347e-05
9 *1799:A1 *1805:B 2.04786e-05
10 *1799:A2 *1799:B1 5.12969e-06
11 *1799:A2 *1805:B 2.14569e-05
12 *1799:A2 *150:6 4.43603e-05
13 *1799:C1 *150:6 0.000239813
14 *1805:A *1805:B 8.61546e-05
*RES
1 *1775:Y *150:6 4.465 
2 *150:6 *1805:B 7.87 
3 *150:6 *1799:B1 1.96 
*END

*D_NET *151 0.00379157
*CONN
*I *1777:B I *D sky130_fd_sc_hd__nand2_1
*I *1778:B1 I *D sky130_fd_sc_hd__a221o_1
*I *1776:X O *D sky130_fd_sc_hd__or2_1
*CAP
1 *1777:B 0.000466655
2 *1778:B1 0.000386353
3 *1776:X 0.00031819
4 *151:6 0.0011712
5 *1777:B *1596:C 0.000192125
6 *1777:B *1779:B1 2.8786e-05
7 *1777:B *510:12 0.000172288
8 *1777:B *510:20 1.88656e-05
9 *1777:B *536:20 0.000370129
10 *1778:B1 *1781:B1 0.000154144
11 *151:6 *1781:C1 0.000129398
12 *1735:B1 *1777:B 0.000105508
13 *1778:B2 *1778:B1 7.25921e-06
14 *1781:A1 *1777:B 0
15 *1781:A1 *1778:B1 1.08758e-05
16 *1781:A1 *151:6 0.000199833
17 *105:10 *1777:B 0
18 *110:14 *1777:B 5.9964e-05
19 *129:18 *1777:B 0
*RES
1 *1776:X *151:6 5.845 
2 *151:6 *1778:B1 6.205 
3 *151:6 *1777:B 14.7275 
*END

*D_NET *152 0.000989917
*CONN
*I *1779:B1 I *D sky130_fd_sc_hd__a211o_1
*I *1777:Y O *D sky130_fd_sc_hd__nand2_1
*CAP
1 *1779:B1 0.000336839
2 *1777:Y 0.000336839
3 *1779:B1 *1784:B1 1.00024e-05
4 *1754:B1 *1779:B1 3.54966e-05
5 *1755:A2 *1779:B1 4.89295e-05
6 *1777:B *1779:B1 2.8786e-05
7 *1784:A2 *1779:B1 8.31708e-06
8 *126:15 *1779:B1 4.77719e-05
9 *129:8 *1779:B1 2.4811e-05
10 *129:18 *1779:B1 0.000112123
*RES
1 *1777:Y *1779:B1 11.895 
*END

*D_NET *153 0.00140413
*CONN
*I *1781:B1 I *D sky130_fd_sc_hd__o211a_1
*I *1778:X O *D sky130_fd_sc_hd__a221o_1
*CAP
1 *1781:B1 0.000249729
2 *1778:X 0.000249729
3 *1781:B1 *1780:C1 0.000593201
4 *1781:B1 *1781:C1 1.23763e-05
5 *1778:A1 *1781:B1 6.48085e-05
6 *1778:A2 *1781:B1 1.34556e-05
7 *1778:B1 *1781:B1 0.000154144
8 *1778:B2 *1781:B1 1.12643e-05
9 *1781:A1 *1781:B1 5.54268e-05
*RES
1 *1778:X *1781:B1 10.235 
*END

*D_NET *154 0.000277357
*CONN
*I *1780:B1 I *D sky130_fd_sc_hd__o211a_1
*I *1779:X O *D sky130_fd_sc_hd__a211o_1
*CAP
1 *1780:B1 6.07516e-05
2 *1779:X 6.07516e-05
3 *1780:B1 *510:39 3.26889e-05
4 *1780:B1 *510:50 1.19928e-05
5 *1755:A2 *1780:B1 0
6 *126:26 *1780:B1 4.60061e-05
7 *130:8 *1780:B1 6.51658e-05
*RES
1 *1779:X *1780:B1 4.7 
*END

*D_NET *155 0.00292674
*CONN
*I *1797:B I *D sky130_fd_sc_hd__nand2b_1
*I *1788:A I *D sky130_fd_sc_hd__or3_4
*I *1780:X O *D sky130_fd_sc_hd__o211a_1
*CAP
1 *1797:B 4.33892e-06
2 *1788:A 0.000105156
3 *1780:X 0.000439859
4 *155:14 0.000549354
5 *1788:A *1797:A_N 4.82919e-05
6 *1788:A *1798:B1 0.000162311
7 *1788:A *163:10 1.16578e-05
8 *1797:B *1798:B1 2.08258e-07
9 *155:14 *1783:B 0.00013521
10 *155:14 *1788:B 5.74367e-05
11 *155:14 *162:12 0.000125259
12 *155:14 *283:85 0
13 *155:14 *536:16 0
14 *155:14 *542:63 0.000317121
15 *155:14 *542:109 1.97849e-05
16 *1785:A *155:14 0.000108543
17 *1785:B *155:14 5.16418e-05
18 *130:14 *155:14 0.000790563
*RES
1 *1780:X *155:14 18.245 
2 *155:14 *1788:A 4.15 
3 *155:14 *1797:B 1.70875 
*END

*D_NET *156 0.00328268
*CONN
*I *1788:B I *D sky130_fd_sc_hd__or3_4
*I *1781:X O *D sky130_fd_sc_hd__o211a_1
*CAP
1 *1788:B 0.000550987
2 *1781:X 0.000550987
3 *1788:B *1780:C1 0.00022786
4 *1788:B *1784:B1 8.07863e-05
5 *1788:B *1786:A2 8.53177e-05
6 *1788:B *162:12 9.54399e-05
7 *1788:B *510:39 3.23391e-05
8 *1723:A *1788:B 0.000229904
9 *1777:A *1788:B 0.000113373
10 *1778:B2 *1788:B 0.000180682
11 *110:14 *1788:B 0.00011686
12 *130:14 *1788:B 0.000881222
13 *136:18 *1788:B 7.94877e-05
14 *155:14 *1788:B 5.74367e-05
*RES
1 *1781:X *1788:B 22.74 
*END

*D_NET *157 0.000481112
*CONN
*I *1783:B I *D sky130_fd_sc_hd__xnor2_1
*I *1782:X O *D sky130_fd_sc_hd__or2_1
*CAP
1 *1783:B 5.79018e-05
2 *1782:X 5.79018e-05
3 *1783:B *1725:A 4.66108e-05
4 *1783:B *542:109 0.000136877
5 *1783:A *1783:B 4.66108e-05
6 *155:14 *1783:B 0.00013521
*RES
1 *1782:X *1783:B 9.285 
*END

*D_NET *158 0.00186638
*CONN
*I *1786:A2 I *D sky130_fd_sc_hd__a211o_1
*I *1784:B1 I *D sky130_fd_sc_hd__a211o_1
*I *1783:Y O *D sky130_fd_sc_hd__xnor2_1
*CAP
1 *1786:A2 8.39262e-05
2 *1784:B1 0.000216866
3 *1783:Y 0
4 *158:6 0.000300792
5 *1784:B1 *1784:C1 1.70661e-06
6 *1784:B1 *1787:B1 4.2444e-05
7 *1723:A *1784:B1 9.78082e-05
8 *1723:A *1786:A2 0.000141599
9 *1779:B1 *1784:B1 1.00024e-05
10 *1782:B *1784:B1 6.61627e-05
11 *1784:A1 *1784:B1 4.55864e-06
12 *1788:B *1784:B1 8.07863e-05
13 *1788:B *1786:A2 8.53177e-05
14 *110:14 *1784:B1 0.000121547
15 *136:18 *1784:B1 0.000332992
16 *136:18 *1786:A2 0.000279875
*RES
1 *1783:Y *158:6 3.6 
2 *158:6 *1784:B1 13.9563 
3 *158:6 *1786:A2 7.02 
*END

*D_NET *159 0.00173049
*CONN
*I *1787:B1 I *D sky130_fd_sc_hd__o211a_1
*I *1784:X O *D sky130_fd_sc_hd__a211o_1
*CAP
1 *1787:B1 0.000372531
2 *1784:X 0.000372531
3 *1787:B1 *2051:A 0
4 *1787:B1 *497:29 0.000140912
5 *1787:B1 *531:25 0.000409139
6 *1787:B1 *542:55 1.31297e-05
7 *1754:A3 *1787:B1 4.19967e-05
8 *1782:B *1787:B1 0.000166085
9 *1784:B1 *1787:B1 4.2444e-05
10 *110:14 *1787:B1 8.52845e-05
11 *129:8 *1787:B1 8.64421e-05
12 *136:18 *1787:B1 0
*RES
1 *1784:X *1787:B1 20.65 
*END

*D_NET *160 0.000292076
*CONN
*I *1786:B1 I *D sky130_fd_sc_hd__a211o_1
*I *1785:Y O *D sky130_fd_sc_hd__nor2_1
*CAP
1 *1786:B1 6.28246e-05
2 *1785:Y 6.28246e-05
3 *1786:B1 *1786:C1 9.53428e-06
4 *1786:B1 *283:85 2.67275e-05
5 *1786:B1 *283:93 1.83756e-05
6 *1785:B *1786:B1 8.23457e-05
7 *1786:A1 *1786:B1 2.94433e-05
*RES
1 *1785:Y *1786:B1 4.7 
*END

*D_NET *161 0.00164428
*CONN
*I *1789:B I *D sky130_fd_sc_hd__nand2b_1
*I *1798:C1 I *D sky130_fd_sc_hd__o211a_1
*I *1786:X O *D sky130_fd_sc_hd__a211o_1
*CAP
1 *1789:B 0.000113155
2 *1798:C1 8.80972e-05
3 *1786:X 0.000137761
4 *161:8 0.000339013
5 *1789:B *1789:A_N 2.25285e-05
6 *1789:B *471:71 0
7 *1798:C1 *1798:A1 8.5002e-05
8 *1798:C1 *510:95 0.000193806
9 *161:8 *2051:A 0.000167816
10 *161:8 *471:71 0
11 *136:18 *1789:B 0.000173317
12 *136:18 *161:8 0.000323781
*RES
1 *1786:X *161:8 7.53 
2 *161:8 *1798:C1 5.79 
3 *161:8 *1789:B 5.9625 
*END

*D_NET *162 0.000950114
*CONN
*I *1797:A_N I *D sky130_fd_sc_hd__nand2b_1
*I *1788:C I *D sky130_fd_sc_hd__or3_4
*I *1787:X O *D sky130_fd_sc_hd__o211a_1
*CAP
1 *1797:A_N 2.32258e-05
2 *1788:C 0
3 *1787:X 0.00021643
4 *162:12 0.000239655
5 *162:12 *283:93 0.000201812
6 *1788:A *1797:A_N 4.82919e-05
7 *1788:B *162:12 9.54399e-05
8 *136:18 *162:12 0
9 *155:14 *162:12 0.000125259
*RES
1 *1787:X *162:12 9.41 
2 *162:12 *1788:C 1.6 
3 *162:12 *1797:A_N 2.05 
*END

*D_NET *163 0.00123577
*CONN
*I *1789:A_N I *D sky130_fd_sc_hd__nand2b_1
*I *1798:A2 I *D sky130_fd_sc_hd__o211a_1
*I *1788:X O *D sky130_fd_sc_hd__or3_4
*CAP
1 *1789:A_N 0.000151875
2 *1798:A2 0
3 *1788:X 0.000119845
4 *163:10 0.00027172
5 *1789:A_N *1798:B1 8.7152e-06
6 *1789:A_N *1805:C 3.64998e-06
7 *1789:A_N *2051:A 1.62622e-05
8 *1789:A_N *498:23 7.53964e-05
9 *1789:A_N *536:16 0.000156754
10 *163:10 *1798:B1 0.000113373
11 *1788:A *163:10 1.16578e-05
12 *1789:B *1789:A_N 2.25285e-05
13 *136:18 *1789:A_N 0.000170621
14 *136:18 *163:10 0.000113373
*RES
1 *1788:X *163:10 5.775 
2 *163:10 *1798:A2 3.6 
3 *163:10 *1789:A_N 7.59 
*END

*D_NET *164 0.000562691
*CONN
*I *1805:C I *D sky130_fd_sc_hd__nor4_1
*I *1789:Y O *D sky130_fd_sc_hd__nand2b_1
*CAP
1 *1805:C 0.00011757
2 *1789:Y 0.00011757
3 *1805:C *1805:D 0.00010141
4 *1805:C *498:23 7.06865e-05
5 *1805:C *536:16 1.17409e-05
6 *1789:A_N *1805:C 3.64998e-06
7 *136:18 *1805:C 0.000140063
*RES
1 *1789:Y *1805:C 10.56 
*END

*D_NET *165 0.00017615
*CONN
*I *1791:B I *D sky130_fd_sc_hd__nand2_1
*I *1790:Y O *D sky130_fd_sc_hd__nand2_1
*CAP
1 *1791:B 5.99672e-05
2 *1790:Y 5.99672e-05
3 *1791:B *1792:A1 7.00889e-06
4 *1791:B *1793:A 4.92062e-05
*RES
1 *1790:Y *1791:B 4.355 
*END

*D_NET *166 0.000949802
*CONN
*I *1792:A1 I *D sky130_fd_sc_hd__mux2_2
*I *1791:Y O *D sky130_fd_sc_hd__nand2_1
*CAP
1 *1792:A1 0.000158233
2 *1791:Y 0.000158233
3 *1792:A1 *1792:A0 8.40213e-05
4 *1792:A1 *1793:A 1.03323e-05
5 *1792:A1 *1795:A2 0.000193801
6 *1792:A1 *1795:B1 5.7774e-05
7 *1792:A1 *1803:A 0.000162318
8 *1792:A1 *526:100 0.000118081
9 *1791:B *1792:A1 7.00889e-06
*RES
1 *1791:Y *1792:A1 11.37 
*END

*D_NET *167 0.00143871
*CONN
*I *1804:A2 I *D sky130_fd_sc_hd__a2111o_1
*I *1796:A2 I *D sky130_fd_sc_hd__a21o_1
*I *1794:B I *D sky130_fd_sc_hd__nor2_1
*I *1792:X O *D sky130_fd_sc_hd__mux2_2
*CAP
1 *1804:A2 3.42122e-05
2 *1796:A2 9.19238e-05
3 *1794:B 0.000148112
4 *1792:X 0
5 *167:25 0.000181804
6 *167:4 0.00020378
7 *1794:B *1794:A 4.92241e-05
8 *1794:B *1795:A2 1.37328e-05
9 *1796:A2 *1796:A1 0.000308708
10 *1796:A2 *1796:B1 0.000180321
11 *1804:A2 *1796:A1 3.57349e-05
12 *1804:A2 *1796:B1 2.75229e-05
13 *167:25 *1793:B 0
14 *167:25 *1794:A 2.50318e-06
15 *167:25 *1796:A1 7.06865e-05
16 *167:25 *273:27 9.044e-05
*RES
1 *1792:X *167:4 1.6 
2 *167:4 *1794:B 3.8725 
3 *167:4 *167:25 5.2675 
4 *167:25 *1796:A2 4.825 
5 *167:25 *1804:A2 2.41 
*END

*D_NET *168 0.000972382
*CONN
*I *1804:B1 I *D sky130_fd_sc_hd__a2111o_1
*I *1793:X O *D sky130_fd_sc_hd__and2_1
*CAP
1 *1804:B1 0.000287926
2 *1793:X 0.000287926
3 *1804:B1 *1804:C1 0.000112679
4 *1804:B1 *273:27 0.000283851
5 *1804:B1 *536:16 0
*RES
1 *1793:X *1804:B1 12.105 
*END

*D_NET *169 0.000244744
*CONN
*I *1804:C1 I *D sky130_fd_sc_hd__a2111o_1
*I *1794:Y O *D sky130_fd_sc_hd__nor2_1
*CAP
1 *1804:C1 6.60323e-05
2 *1794:Y 6.60323e-05
3 *1804:C1 *536:16 0
4 *1804:B1 *1804:C1 0.000112679
*RES
1 *1794:Y *1804:C1 8.58 
*END

*D_NET *170 0.00195887
*CONN
*I *1796:B1 I *D sky130_fd_sc_hd__a21o_1
*I *1795:X O *D sky130_fd_sc_hd__o211a_1
*CAP
1 *1796:B1 0.000303612
2 *1795:X 0.000303612
3 *1796:B1 *1792:S 8.33595e-05
4 *1796:B1 *1793:B 1.32064e-05
5 *1796:B1 *1796:A1 1.61831e-05
6 *1796:B1 *1803:A 0.000260886
7 *1796:B1 *178:17 2.16917e-05
8 *1796:B1 *510:95 0.000656919
9 *1796:B1 *526:111 3.09164e-05
10 *1796:B1 *529:80 6.06358e-05
11 *1796:A2 *1796:B1 0.000180321
12 *1804:A2 *1796:B1 2.75229e-05
*RES
1 *1795:X *1796:B1 16.62 
*END

*D_NET *171 0.000596356
*CONN
*I *1798:A1 I *D sky130_fd_sc_hd__o211a_1
*I *1796:X O *D sky130_fd_sc_hd__a21o_1
*CAP
1 *1798:A1 0.000215219
2 *1796:X 0.000215219
3 *1798:A1 *510:95 8.09157e-05
4 *1798:C1 *1798:A1 8.5002e-05
*RES
1 *1796:X *1798:A1 6.77 
*END

*D_NET *172 0.000883835
*CONN
*I *1798:B1 I *D sky130_fd_sc_hd__o211a_1
*I *1797:Y O *D sky130_fd_sc_hd__nand2b_1
*CAP
1 *1798:B1 0.000242927
2 *1797:Y 0.000242927
3 *1798:B1 *2051:A 0.000113373
4 *1788:A *1798:B1 0.000162311
5 *1789:A_N *1798:B1 8.7152e-06
6 *1797:B *1798:B1 2.08258e-07
7 *163:10 *1798:B1 0.000113373
*RES
1 *1797:Y *1798:B1 11.1 
*END

*D_NET *173 0.00174845
*CONN
*I *1799:B2 I *D sky130_fd_sc_hd__o221a_1
*I *1798:X O *D sky130_fd_sc_hd__o211a_1
*CAP
1 *1799:B2 0.000496603
2 *1798:X 0.000496603
3 *1799:B2 *1802:A2 4.66108e-05
4 *1799:B2 *471:71 0.000448201
5 *1799:B2 *510:95 0.000123955
6 *1799:B2 *531:25 1.83975e-05
7 *1805:B *1799:B2 0.000118081
8 *149:10 *1799:B2 0
*RES
1 *1798:X *1799:B2 20.29 
*END

*D_NET *174 0.000195521
*CONN
*I *1802:A2 I *D sky130_fd_sc_hd__o21a_1
*I *1799:X O *D sky130_fd_sc_hd__o221a_1
*CAP
1 *1802:A2 6.39446e-05
2 *1799:X 6.39446e-05
3 *1799:B2 *1802:A2 4.66108e-05
4 *1805:B *1802:A2 2.10214e-05
*RES
1 *1799:X *1802:A2 3.995 
*END

*D_NET *175 0.000526293
*CONN
*I *1801:A2 I *D sky130_fd_sc_hd__a21oi_1
*I *1800:Y O *D sky130_fd_sc_hd__nor2_1
*CAP
1 *1801:A2 0.000156229
2 *1800:Y 0.000156229
3 *1801:A2 *1801:A1 0.000141599
4 *1765:C *1801:A2 7.22354e-05
*RES
1 *1800:Y *1801:A2 9.975 
*END

*D_NET *176 0.00224277
*CONN
*I *1802:B1 I *D sky130_fd_sc_hd__o21a_1
*I *1801:Y O *D sky130_fd_sc_hd__a21oi_1
*CAP
1 *1802:B1 0.000846584
2 *1801:Y 0.000846584
3 *1802:B1 *1762:B1 2.75229e-05
4 *1802:B1 *1806:A2 1.07997e-05
5 *1762:A2 *1802:B1 8.91754e-05
6 *1765:C *1802:B1 7.35813e-05
7 *1801:B1 *1802:B1 1.17309e-05
8 *1805:A *1802:B1 8.52845e-05
9 *1805:B *1802:B1 8.64421e-05
10 *136:18 *1802:B1 0.000109198
11 *137:6 *1802:B1 1.15043e-05
12 *140:12 *1802:B1 4.43654e-05
*RES
1 *1801:Y *1802:B1 19.3762 
*END

*D_NET *177 0.000672863
*CONN
*I *1806:A2 I *D sky130_fd_sc_hd__o21a_1
*I *1802:X O *D sky130_fd_sc_hd__o21a_1
*CAP
1 *1806:A2 0.000190279
2 *1802:X 0.000190279
3 *1806:A2 *1806:A1 4.87759e-05
4 *1806:A2 *2069:A 0.000100698
5 *1802:B1 *1806:A2 1.07997e-05
6 *1805:A *1806:A2 4.66108e-05
7 *1805:B *1806:A2 1.47347e-05
8 *136:18 *1806:A2 7.06865e-05
*RES
1 *1802:X *1806:A2 10.62 
*END

*D_NET *178 0.00274343
*CONN
*I *1842:A I *D sky130_fd_sc_hd__or2_1
*I *1843:A1 I *D sky130_fd_sc_hd__a21oi_1
*I *1804:D1 I *D sky130_fd_sc_hd__a2111o_1
*I *1803:Y O *D sky130_fd_sc_hd__nor2_1
*CAP
1 *1842:A 0.000172152
2 *1843:A1 0.00013938
3 *1804:D1 0.000200757
4 *1803:Y 0
5 *178:17 0.000519951
6 *178:4 0.000409176
7 *1804:D1 *510:95 0.000315527
8 *1842:A *1839:B 0
9 *1842:A *1842:B 8.65961e-05
10 *1842:A *1844:A2 0.000239036
11 *1842:A *1844:B1 0.000163204
12 *1843:A1 *1840:B 2.30292e-05
13 *1843:A1 *1843:B1 0.000122325
14 *1843:A1 *1844:B2 5.062e-06
15 *178:17 *1839:B 0
16 *178:17 *1844:A2 0.000250609
17 *178:17 *510:95 7.49327e-05
18 *1796:B1 *178:17 2.16917e-05
*RES
1 *1803:Y *178:4 1.6 
2 *178:4 *1804:D1 4.465 
3 *178:4 *178:17 6.05 
4 *178:17 *1843:A1 5.43 
5 *178:17 *1842:A 7.995 
*END

*D_NET *179 0.00183826
*CONN
*I *1805:D I *D sky130_fd_sc_hd__nor4_1
*I *1804:X O *D sky130_fd_sc_hd__a2111o_1
*CAP
1 *1805:D 0.000528243
2 *1804:X 0.000528243
3 *1805:D *498:23 0.000249921
4 *1805:D *510:95 0.00043044
5 *1805:D *536:16 0
6 *1805:C *1805:D 0.00010141
7 *136:18 *1805:D 0
*RES
1 *1804:X *1805:D 16.815 
*END

*D_NET *180 0.000204745
*CONN
*I *1806:A1 I *D sky130_fd_sc_hd__o21a_1
*I *1805:Y O *D sky130_fd_sc_hd__nor4_1
*CAP
1 *1806:A1 7.79846e-05
2 *1805:Y 7.79846e-05
3 *1806:A2 *1806:A1 4.87759e-05
*RES
1 *1805:Y *1806:A1 8.58 
*END

*D_NET *181 0.00495982
*CONN
*I *1827:B I *D sky130_fd_sc_hd__or3_4
*I *1806:X O *D sky130_fd_sc_hd__o21a_1
*CAP
1 *1827:B 0.00105718
2 *1806:X 0.00105718
3 *1827:B *1806:B1 0.000737761
4 *1827:B *1841:A 0.000148344
5 *1827:B *2069:A 0.000198108
6 *1827:B *2113:A 9.91257e-05
7 *1827:B *2115:A 8.8266e-05
8 *1827:B *2116:A 0.000163199
9 *1827:B *326:18 0.00130566
10 *1827:B *534:139 0.000104998
*RES
1 *1806:X *1827:B 26.555 
*END

*D_NET *182 0.00658233
*CONN
*I *1956:A2 I *D sky130_fd_sc_hd__o21a_1
*I *1808:B I *D sky130_fd_sc_hd__or2_1
*I *1898:A I *D sky130_fd_sc_hd__nand2_1
*I *1807:X O *D sky130_fd_sc_hd__or3_1
*CAP
1 *1956:A2 0.00122277
2 *1808:B 0
3 *1898:A 0.000350116
4 *1807:X 0
5 *182:16 0.000724153
6 *182:4 0.00159681
7 *1898:A *1845:A 0.000183043
8 *1898:A *524:64 0
9 *1898:A *524:78 1.71013e-05
10 *1898:A *538:12 0
11 *1956:A2 *1589:A 2.49909e-05
12 *1956:A2 *1598:A2 7.49327e-05
13 *1956:A2 *1969:C 2.18677e-05
14 *1956:A2 *2047:A1 6.28687e-05
15 *1956:A2 *197:28 3.58868e-05
16 *1956:A2 *199:95 8.5002e-05
17 *1956:A2 *326:78 3.23955e-05
18 *1956:A2 *336:18 0.000382764
19 *1956:A2 *492:20 0.000138188
20 *1956:A2 *492:56 0.000296292
21 *1956:A2 *535:22 0.000593514
22 *1956:A2 *550:67 8.34281e-06
23 *1956:A2 *554:88 0.000143099
24 *1956:A2 *563:69 0.000181936
25 *182:16 *1598:A1 2.28514e-05
26 *182:16 *1598:A2 0.00023635
27 *182:16 *1807:B 4.39911e-06
28 *182:16 *1808:A 7.23533e-05
29 *182:16 *2131:A 4.41506e-05
30 *182:16 *547:45 1.54061e-06
31 *182:16 *554:75 2.46089e-05
*RES
1 *1807:X *182:4 1.6 
2 *182:4 *182:16 9.235 
3 *182:16 *1898:A 11.525 
4 *182:16 *1808:B 1.6 
5 *182:4 *1956:A2 27.365 
*END

*D_NET *183 0.00331567
*CONN
*I *1826:A1 I *D sky130_fd_sc_hd__a311o_1
*I *1812:A1 I *D sky130_fd_sc_hd__o2111a_1
*I *1808:X O *D sky130_fd_sc_hd__or2_1
*CAP
1 *1826:A1 0
2 *1812:A1 0.000210521
3 *1808:X 0.000428229
4 *183:12 0.00063875
5 *1812:A1 *1812:A2 7.5431e-05
6 *1812:A1 *1826:A3 4.66742e-05
7 *1812:A1 *2088:A 0.000440169
8 *1812:A1 *186:8 1.39525e-05
9 *1812:A1 *199:18 0.000122325
10 *1812:A1 *205:14 0.000376417
11 *1812:A1 *336:18 1.34594e-05
12 *1812:A1 *491:26 0.000111459
13 *183:12 *1809:D 0.000197592
14 *183:12 *1811:A 2.75538e-05
15 *183:12 *1825:A3 0
16 *183:12 *1826:B1 4.79946e-05
17 *183:12 *1966:B2 6.83488e-05
18 *183:12 *2088:A 0
19 *183:12 *2131:A 6.12863e-05
20 *183:12 *186:8 9.21068e-05
21 *183:12 *199:51 0
22 *183:12 *526:92 0
23 *183:12 *529:51 0.000242861
24 *183:12 *554:75 2.42236e-05
25 *183:12 *554:88 7.63125e-05
*RES
1 *1808:X *183:12 14.33 
2 *183:12 *1812:A1 13.22 
3 *183:12 *1826:A1 1.6 
*END

*D_NET *184 0.000425533
*CONN
*I *1811:A I *D sky130_fd_sc_hd__or2_1
*I *1809:X O *D sky130_fd_sc_hd__or4_1
*CAP
1 *1811:A 7.94253e-05
2 *1809:X 7.94253e-05
3 *1811:A *2088:A 0.000139245
4 *1811:A *518:82 2.75229e-05
5 *1811:A *554:88 7.23602e-05
6 *183:12 *1811:A 2.75538e-05
*RES
1 *1809:X *1811:A 9.285 
*END

*D_NET *185 0.00030154
*CONN
*I *1811:B I *D sky130_fd_sc_hd__or2_1
*I *1810:X O *D sky130_fd_sc_hd__or4_1
*CAP
1 *1811:B 4.12163e-05
2 *1810:X 4.12163e-05
3 *1811:B *2088:A 0.000140912
4 *1811:B *529:63 7.81954e-05
*RES
1 *1810:X *1811:B 8.835 
*END

*D_NET *186 0.00154045
*CONN
*I *1812:A2 I *D sky130_fd_sc_hd__o2111a_1
*I *1826:A2 I *D sky130_fd_sc_hd__a311o_1
*I *1811:X O *D sky130_fd_sc_hd__or2_1
*CAP
1 *1812:A2 0.000283595
2 *1826:A2 0
3 *1811:X 5.81238e-05
4 *186:8 0.000341719
5 *1812:A2 *1586:A 0.000172943
6 *1812:A2 *1826:A3 0
7 *1812:A2 *1826:B1 2.99518e-06
8 *1812:A2 *1831:B_N 4.66108e-05
9 *1812:A2 *205:14 0.000369441
10 *1812:A2 *500:35 4.66108e-05
11 *186:8 *1826:B1 6.60907e-06
12 *186:8 *2088:A 3.0313e-05
13 *1812:A1 *1812:A2 7.5431e-05
14 *1812:A1 *186:8 1.39525e-05
15 *183:12 *186:8 9.21068e-05
*RES
1 *1811:X *186:8 4.98 
2 *186:8 *1826:A2 3.6 
3 *186:8 *1812:A2 10.275 
*END

*D_NET *187 0.00218001
*CONN
*I *1827:A I *D sky130_fd_sc_hd__or3_4
*I *1812:X O *D sky130_fd_sc_hd__o2111a_1
*CAP
1 *1827:A 0.000635013
2 *1812:X 0.000635013
3 *1827:A *1812:B1 0.000197264
4 *1827:A *1827:C 0.000321477
5 *1827:A *1831:B_N 3.63661e-05
6 *1827:A *2113:A 6.77417e-05
7 *1827:A *2114:A 0.000118081
8 *1827:A *205:14 0.000122331
9 *1827:A *491:26 3.87581e-05
10 op_out[1] *1827:A 7.9642e-06
*RES
1 *1812:X *1827:A 17.04 
*END

*D_NET *188 0.0145921
*CONN
*I *2008:B1 I *D sky130_fd_sc_hd__o22a_1
*I *1819:B1 I *D sky130_fd_sc_hd__o22a_1
*I *2047:B1 I *D sky130_fd_sc_hd__o22a_1
*I *1965:B1 I *D sky130_fd_sc_hd__o22a_1
*I *1920:B1 I *D sky130_fd_sc_hd__o22a_1
*I *1830:B1 I *D sky130_fd_sc_hd__o22a_1
*I *1893:B1 I *D sky130_fd_sc_hd__o22a_1
*I *1864:B1 I *D sky130_fd_sc_hd__o22a_1
*I *1813:X O *D sky130_fd_sc_hd__and4b_2
*CAP
1 *2008:B1 0.000776562
2 *1819:B1 0
3 *2047:B1 0.000118485
4 *1965:B1 1.52463e-05
5 *1920:B1 0.000349869
6 *1830:B1 9.73191e-06
7 *1893:B1 0.000236625
8 *1864:B1 2.14525e-05
9 *1813:X 0.00014069
10 *188:71 0.000820581
11 *188:63 0.000684356
12 *188:28 0.000571301
13 *188:22 0.000819841
14 *188:16 0.000662069
15 *188:12 0.000193394
16 *188:10 0.00105587
17 *1830:B1 *1830:B2 4.82863e-05
18 *1830:B1 *526:77 4.82863e-05
19 *1893:B1 *1864:A1 4.66108e-05
20 *1893:B1 *1864:A2 0.000123225
21 *1893:B1 *1891:B1 1.7396e-05
22 *1893:B1 *1893:A1 0.000421961
23 *1893:B1 *1893:B2 9.50342e-06
24 *1893:B1 *2059:A 2.23407e-05
25 *1893:B1 *526:62 0.000509344
26 *1920:B1 *1920:B2 0.000368802
27 *1920:B1 *1921:A 4.62396e-05
28 *1920:B1 *1964:B1 4.43871e-06
29 *1920:B1 *1965:B2 1.15688e-05
30 *1920:B1 *1967:B2 1.03323e-05
31 *1920:B1 *537:42 5.16348e-05
32 *1965:B1 *1964:A1 4.66108e-05
33 *1965:B1 *1964:A2 4.66108e-05
34 *1965:B1 *537:46 1.08758e-05
35 *2008:B1 *1957:A 2.65814e-06
36 *2008:B1 *2009:A3 8.34281e-06
37 *2008:B1 *2009:B1 0
38 *2008:B1 *2010:A1 2.75145e-05
39 *2008:B1 *2010:A2 0.000138808
40 *2008:B1 *2010:B1 0.00042787
41 *2008:B1 *197:16 4.72362e-05
42 *2008:B1 *205:14 1.90762e-05
43 *2008:B1 *535:69 6.0147e-06
44 *2047:B1 *2049:A1 0.000121437
45 *2047:B1 *2049:B1 4.66108e-05
46 *2047:B1 *2050:B1 4.08514e-05
47 *2047:B1 *196:12 0.000174279
48 *2047:B1 *205:26 9.52156e-05
49 *2047:B1 *205:28 5.53249e-06
50 *188:10 *1815:A 1.34503e-05
51 *188:10 *1815:C_N 0.000124007
52 *188:10 *1818:B2 3.31204e-05
53 *188:10 *190:8 7.06865e-05
54 *188:12 *1818:B2 0.000209411
55 *188:12 *190:8 0.000278063
56 *188:12 *190:10 0.000114565
57 *188:16 *1818:B2 2.42236e-05
58 *188:16 *1819:B2 0.000136877
59 *188:16 *190:10 0.000181692
60 *188:22 *1818:B1 0.000121815
61 *188:22 *1818:B2 5.16348e-05
62 *188:22 *1819:A1 8.53113e-06
63 *188:22 *1819:B2 2.75229e-05
64 *188:22 *1835:B1 4.36573e-06
65 *188:22 *1837:A 0.000116158
66 *188:22 *1837:B 8.38633e-05
67 *188:22 *1837:C 7.0263e-06
68 *188:22 *2049:C1 5.21435e-05
69 *188:22 *190:14 0
70 *188:22 *202:43 3.59531e-06
71 *188:22 *528:34 7.87018e-05
72 *188:22 *550:95 0.000543457
73 *188:28 *1830:A2 0.000108737
74 *188:28 *1836:A1 6.15576e-06
75 *188:28 *1836:A3 0.000158434
76 *188:28 *1836:B1 0
77 *188:28 *1864:A2 0.000441688
78 *188:28 *1866:A2 0.000105357
79 *188:28 *1866:B1 6.85342e-05
80 *188:28 *1866:B2 2.48591e-05
81 *188:28 *1866:C1 4.82863e-05
82 *188:28 *1867:C1 6.31099e-05
83 *188:28 *202:43 2.68046e-05
84 *188:28 *528:34 4.05454e-05
85 *188:28 *545:29 0.000305462
86 *188:63 *1818:B1 3.6355e-05
87 *188:63 *2046:A2 0.000122337
88 *188:63 *190:54 5.10405e-05
89 *188:63 *205:26 4.80285e-05
90 *188:71 *1921:A 7.21296e-06
91 *188:71 *1964:B1 0.000230741
92 *188:71 *2047:B2 4.80285e-05
93 *188:71 *190:54 8.23457e-05
94 *188:71 *190:61 0.000633802
95 *188:71 *205:26 2.03356e-05
96 *188:71 *537:42 0.000147397
*RES
1 *1813:X *188:10 5.955 
2 *188:10 *188:12 4.695 
3 *188:12 *188:16 4.145 
4 *188:16 *188:22 13.445 
5 *188:22 *188:28 11.15 
6 *188:28 *1864:B1 1.96 
7 *188:28 *1893:B1 12.995 
8 *188:22 *1830:B1 4.05 
9 *188:16 *188:63 2.52 
10 *188:63 *188:71 12.29 
11 *188:71 *1920:B1 9.315 
12 *188:71 *1965:B1 4.05 
13 *188:63 *2047:B1 8.885 
14 *188:12 *1819:B1 3.6 
15 *188:10 *2008:B1 13.635 
*END

*D_NET *189 0.00382934
*CONN
*I *1817:D_N I *D sky130_fd_sc_hd__or4b_4
*I *1821:C I *D sky130_fd_sc_hd__nor3_4
*I *1815:A I *D sky130_fd_sc_hd__or3b_4
*I *1820:C I *D sky130_fd_sc_hd__nor3_1
*I *1814:Y O *D sky130_fd_sc_hd__nand2_2
*CAP
1 *1817:D_N 6.09695e-05
2 *1821:C 0.000379496
3 *1815:A 0.000181115
4 *1820:C 1.7595e-05
5 *1814:Y 0
6 *189:14 0.00031644
7 *189:10 0.000575842
8 *189:4 0.000139586
9 *1815:A *1813:B 4.82919e-05
10 *1815:A *1813:C 3.66286e-05
11 *1815:A *1815:C_N 0.000171619
12 *1815:A *2089:A 0.000346441
13 *1815:A *230:13 8.40269e-05
14 *1815:A *489:35 3.20406e-05
15 *1815:A *530:23 4.82919e-05
16 *1817:D_N *1814:A 5.56459e-05
17 *1817:D_N *2068:A 8.8266e-05
18 *1817:D_N *192:24 5.68717e-05
19 *1817:D_N *315:23 9.07793e-05
20 *1820:C *230:13 0.000124895
21 *1820:C *489:35 2.30292e-05
22 *1820:C *489:41 8.8266e-05
23 *1821:C *1812:B1 8.65961e-05
24 *1821:C *191:72 5.49916e-05
25 *1821:C *197:16 9.52646e-05
26 *189:10 *1814:A 2.16833e-05
27 *189:10 *192:24 0.000123225
28 *189:10 *315:23 2.96426e-05
29 *189:10 *500:46 8.10803e-05
30 *189:10 *530:17 2.60153e-05
31 *189:14 *1813:B 0.000178054
32 *189:14 *2089:A 6.57653e-06
33 *189:14 *192:24 4.72908e-05
34 *189:14 *500:46 7.47284e-05
35 *189:14 *530:17 7.21296e-06
36 *189:14 *530:19 1.73877e-05
37 *189:14 *530:66 0
38 *188:10 *1815:A 1.34503e-05
*RES
1 *1814:Y *189:4 1.6 
2 *189:4 *189:10 4.265 
3 *189:10 *189:14 4.91 
4 *189:14 *1820:C 2.74 
5 *189:14 *1815:A 7 
6 *189:10 *1821:C 8.46 
7 *189:4 *1817:D_N 3.79 
*END

*D_NET *190 0.0122247
*CONN
*I *2007:B1 I *D sky130_fd_sc_hd__a21oi_1
*I *1964:B1 I *D sky130_fd_sc_hd__a21oi_1
*I *1919:B1 I *D sky130_fd_sc_hd__a21oi_1
*I *2046:B1 I *D sky130_fd_sc_hd__a21oi_1
*I *1818:B1 I *D sky130_fd_sc_hd__a22oi_1
*I *1892:B1 I *D sky130_fd_sc_hd__a21oi_1
*I *1863:A_N I *D sky130_fd_sc_hd__and2b_1
*I *1829:A I *D sky130_fd_sc_hd__nor2_1
*I *1815:X O *D sky130_fd_sc_hd__or3b_4
*CAP
1 *2007:B1 0.00063167
2 *1964:B1 0.000189799
3 *1919:B1 0.000186139
4 *2046:B1 0
5 *1818:B1 7.35834e-05
6 *1892:B1 0.000252095
7 *1863:A_N 0
8 *1829:A 0
9 *1815:X 0.000121315
10 *190:61 0.000663866
11 *190:54 0.000376093
12 *190:41 0.000161749
13 *190:27 0.000524844
14 *190:14 0.000714891
15 *190:10 0.000548037
16 *190:8 0.000858879
17 *1818:B1 *1809:C 0.00010639
18 *1818:B1 *1818:A1 1.93972e-05
19 *1892:B1 *1861:B 0.0001947
20 *1892:B1 *1864:B2 1.91597e-05
21 *1892:B1 *1866:B1 8.40213e-05
22 *1892:B1 *1892:A1 4.82919e-05
23 *1892:B1 *2052:A 7.7542e-05
24 *1892:B1 *234:16 3.96737e-05
25 *1892:B1 *540:97 0.000120655
26 *1892:B1 *540:110 0.0001249
27 *1892:B1 *563:8 0.000235573
28 *1919:B1 *1921:A 0
29 *1919:B1 *1956:A1 0.000179015
30 *1919:B1 *1965:B2 4.13249e-05
31 *1919:B1 *497:56 0.000157595
32 *1919:B1 *537:42 4.71081e-05
33 *1964:B1 *1921:A 0.000136877
34 *2007:B1 *2007:A2 7.23635e-05
35 *2007:B1 *2011:A1 1.91597e-05
36 *2007:B1 *2011:B1 2.51519e-05
37 *2007:B1 *2012:B1 0.000139166
38 *2007:B1 *199:41 9.70285e-05
39 *2007:B1 *326:56 0.000193801
40 *2007:B1 *535:22 3.21718e-05
41 *2007:B1 *535:61 3.83041e-05
42 *2007:B1 *553:16 8.23457e-05
43 *190:8 *1826:C1 4.76263e-05
44 *190:8 *197:16 0.000140905
45 *190:8 *532:14 8.55048e-05
46 *190:10 *1818:B2 4.24292e-06
47 *190:10 *1826:C1 0.000135408
48 *190:10 *532:14 8.79086e-05
49 *190:10 *532:16 4.43871e-06
50 *190:14 *1818:B2 1.22676e-05
51 *190:14 *1837:B 1.32974e-05
52 *190:14 *1837:C 0.000161637
53 *190:14 *2011:A2 0.000118407
54 *190:14 *2049:C1 0.000136466
55 *190:14 *197:40 1.93765e-05
56 *190:14 *532:16 0.000116563
57 *190:14 *532:18 6.41961e-05
58 *190:14 *532:24 0.00025946
59 *190:27 *1866:A1 6.98639e-05
60 *190:27 *1866:A2 2.19824e-05
61 *190:27 *205:47 4.13657e-05
62 *190:27 *490:27 0
63 *190:27 *520:18 0.000180329
64 *190:27 *526:77 0.00043601
65 *190:27 *545:33 0
66 *190:54 *1809:C 0.000120655
67 *190:54 *2046:A2 0.000122337
68 *190:54 *492:33 8.23457e-05
69 *190:54 *492:35 0.000120655
70 *190:61 *492:33 0.000181249
71 *1920:B1 *1964:B1 4.43871e-06
72 *188:10 *190:8 7.06865e-05
73 *188:12 *190:8 0.000278063
74 *188:12 *190:10 0.000114565
75 *188:16 *190:10 0.000181692
76 *188:22 *1818:B1 0.000121815
77 *188:22 *190:14 0
78 *188:63 *1818:B1 3.6355e-05
79 *188:63 *190:54 5.10405e-05
80 *188:71 *1964:B1 0.000230741
81 *188:71 *190:54 8.23457e-05
82 *188:71 *190:61 0.000633802
*RES
1 *1815:X *190:8 7.785 
2 *190:8 *190:10 3.675 
3 *190:10 *190:14 12.05 
4 *190:14 *1829:A 1.6 
5 *190:14 *190:27 10.795 
6 *190:27 *1863:A_N 1.6 
7 *190:27 *1892:B1 7.915 
8 *190:10 *190:41 2 
9 *190:41 *1818:B1 3.79 
10 *190:41 *190:54 3.225 
11 *190:54 *2046:B1 1.6 
12 *190:54 *190:61 5.97 
13 *190:61 *1919:B1 9.53 
14 *190:61 *1964:B1 9.41 
15 *190:8 *2007:B1 12.45 
*END

*D_NET *191 0.0122164
*CONN
*I *2015:A2 I *D sky130_fd_sc_hd__a21o_1
*I *1970:A2 I *D sky130_fd_sc_hd__a21o_1
*I *1956:B1 I *D sky130_fd_sc_hd__o21a_1
*I *1898:B I *D sky130_fd_sc_hd__nand2_1
*I *1838:B I *D sky130_fd_sc_hd__nand2_1
*I *1869:B1 I *D sky130_fd_sc_hd__o31a_1
*I *1846:B1 I *D sky130_fd_sc_hd__o21a_1
*I *1816:X O *D sky130_fd_sc_hd__or4b_4
*CAP
1 *2015:A2 0.000141823
2 *1970:A2 0
3 *1956:B1 0.000320133
4 *1898:B 2.25073e-05
5 *1838:B 4.58198e-05
6 *1869:B1 2.97592e-05
7 *1846:B1 7.51108e-05
8 *1816:X 9.64526e-05
9 *191:76 0.000410313
10 *191:72 0.00165099
11 *191:24 0.000216994
12 *191:22 0.00107304
13 *191:14 0.00130784
14 *191:8 0.00188568
15 *1838:B *493:34 0.000162332
16 *1838:B *544:34 8.6099e-05
17 *1846:B1 *1596:B 3.00381e-05
18 *1846:B1 *493:34 0.00015829
19 *1846:B1 *544:34 8.89673e-05
20 *1869:B1 *542:109 6.97118e-05
21 *1869:B1 *543:108 0.000122331
22 *1898:B *1845:A 7.47215e-05
23 *1898:B *538:12 4.13171e-05
24 *1956:B1 *1970:A1 0.000154481
25 *1956:B1 *2008:A1 8.08153e-06
26 *1956:B1 *2009:B2 0.000154891
27 *1956:B1 *2118:A 0
28 *1956:B1 *336:18 8.65905e-05
29 *1956:B1 *537:12 0.000200318
30 *1956:B1 *537:42 7.11809e-05
31 *1956:B1 *553:68 1.23479e-05
32 *2015:A2 *2016:B 3.64998e-06
33 *2015:A2 *553:68 4.66826e-05
34 *191:8 *1816:A 6.28178e-05
35 *191:8 *1845:A 4.65565e-05
36 *191:8 *489:45 2.86623e-05
37 *191:8 *500:10 0
38 *191:14 *1810:B 4.49498e-05
39 *191:14 *1845:A 5.84456e-05
40 *191:14 *1899:B 1.91597e-05
41 *191:14 *199:18 0.000333801
42 *191:14 *489:45 9.68709e-05
43 *191:14 *518:82 2.34269e-05
44 *191:14 *524:78 0.000659386
45 *191:14 *529:63 0
46 *191:22 *1871:A 3.98698e-05
47 *191:22 *1872:A 5.54412e-05
48 *191:22 *1872:B 2.75145e-05
49 *191:22 *1873:A 4.99619e-05
50 *191:22 *1899:B 6.97118e-05
51 *191:22 *1900:B 2.75145e-05
52 *191:22 *247:14 4.82919e-05
53 *191:22 *518:67 3.45679e-05
54 *191:22 *518:74 6.19997e-05
55 *191:22 *518:82 4.00896e-05
56 *191:24 *493:34 0.000405104
57 *191:24 *544:34 0.000223278
58 *191:72 *1812:B1 1.27393e-05
59 *191:72 *1813:B 3.96653e-05
60 *191:72 *1831:A_N 4.80285e-05
61 *191:72 *2016:B 1.83756e-05
62 *191:72 *197:16 0.000162311
63 *191:72 *500:25 3.65279e-05
64 *191:72 *500:35 0.000435544
65 *191:76 *2118:A 0
66 *191:76 *352:10 6.55328e-05
67 *191:76 *553:68 3.67496e-05
68 *1821:C *191:72 5.49916e-05
*RES
1 *1816:X *191:8 5.745 
2 *191:8 *191:14 12.17 
3 *191:14 *191:22 14.645 
4 *191:22 *191:24 4.695 
5 *191:24 *1846:B1 5.94 
6 *191:24 *1869:B1 4.74 
7 *191:22 *1838:B 5.49 
8 *191:14 *1898:B 6.47 
9 *191:8 *191:72 21.8 
10 *191:72 *191:76 4.145 
11 *191:76 *1956:B1 15.025 
12 *191:76 *1970:A2 3.6 
13 *191:72 *2015:A2 3.79 
*END

*D_NET *192 0.0170349
*CONN
*I *2018:A I *D sky130_fd_sc_hd__nor2_1
*I *1975:B1 I *D sky130_fd_sc_hd__a31o_1
*I *1963:A_N I *D sky130_fd_sc_hd__and3b_1
*I *1818:B2 I *D sky130_fd_sc_hd__a22oi_1
*I *1876:A I *D sky130_fd_sc_hd__or3b_1
*I *1925:A1 I *D sky130_fd_sc_hd__o31ai_1
*I *1852:B1 I *D sky130_fd_sc_hd__a31oi_1
*I *1843:B1 I *D sky130_fd_sc_hd__a21oi_1
*I *1817:X O *D sky130_fd_sc_hd__or4b_4
*CAP
1 *2018:A 0.000181721
2 *1975:B1 8.07187e-05
3 *1963:A_N 0.000218159
4 *1818:B2 0.000650803
5 *1876:A 5.70363e-05
6 *1925:A1 0.000320355
7 *1852:B1 8.04043e-05
8 *1843:B1 0.000229178
9 *1817:X 0
10 *192:99 0.000506909
11 *192:97 0.00164337
12 *192:30 0.000526114
13 *192:28 0.000760848
14 *192:24 0.00165158
15 *192:6 0.00225259
16 *192:4 0.00148482
17 *1818:B2 *1819:A1 9.60974e-05
18 *1818:B2 *1819:B2 0.000136877
19 *1818:B2 *197:16 0
20 *1818:B2 *489:23 0
21 *1818:B2 *489:35 1.37895e-05
22 *1818:B2 *528:49 7.21296e-06
23 *1818:B2 *532:14 0
24 *1843:B1 *1840:A 4.99619e-05
25 *1843:B1 *1840:B 0.000311282
26 *1843:B1 *1848:B 0
27 *1843:B1 *214:12 9.27255e-06
28 *1852:B1 *1841:A 8.36546e-05
29 *1852:B1 *1851:A2 0
30 *1852:B1 *1852:A3 0
31 *1852:B1 *214:12 6.02202e-05
32 *1876:A *1876:B 3.86529e-05
33 *1876:A *1897:A_N 1.95608e-05
34 *1876:A *250:10 4.40899e-05
35 *1925:A1 *1825:A1 0.000118081
36 *1925:A1 *1868:B1 0.000458472
37 *1925:A1 *1873:A 9.50342e-06
38 *1925:A1 *1897:A_N 0
39 *1925:A1 *2117:A 0
40 *1925:A1 *221:12 0.000156405
41 *1925:A1 *248:12 7.23533e-05
42 *1963:A_N *1961:A 0.000155234
43 *1963:A_N *1962:A 3.83041e-05
44 *1963:A_N *1962:B 0.000132842
45 *1963:A_N *1963:B 2.34345e-05
46 *1963:A_N *1974:A2 2.86623e-05
47 *1963:A_N *2050:C1 0
48 *1963:A_N *336:18 4.82919e-05
49 *1963:A_N *341:19 0
50 *1963:A_N *343:23 8.07863e-05
51 *1975:B1 *1975:A2 5.05521e-05
52 *1975:B1 *343:23 4.80285e-05
53 *2018:A *2013:A1 4.60584e-05
54 *2018:A *2013:B1 0.000197269
55 *2018:A *2017:A 0.000123225
56 *2018:A *2050:C1 4.66826e-05
57 *2018:A *553:68 2.75229e-05
58 *192:6 *2068:A 0.000309612
59 *192:6 *532:14 2.16917e-05
60 *192:24 *1812:D1 0.000111012
61 *192:24 *1824:B_N 0.000187762
62 *192:24 *1824:C 4.23612e-05
63 *192:24 *1827:C 1.88904e-05
64 *192:24 *2068:A 8.65905e-05
65 *192:24 *2070:A 7.71944e-05
66 *192:24 *2088:A 7.9642e-06
67 *192:24 *199:18 5.35181e-06
68 *192:24 *315:23 6.07575e-06
69 *192:24 *489:41 8.22234e-06
70 *192:24 *491:26 9.67081e-06
71 *192:24 *500:46 0.000134528
72 *192:24 *500:48 2.49909e-05
73 *192:24 *524:78 0.00042344
74 *192:24 *530:43 6.23438e-05
75 *192:24 *530:66 0
76 *192:28 *1849:A 3.38425e-05
77 *192:28 *1874:B 4.82863e-05
78 *192:28 *524:78 0.000346135
79 *192:30 *1848:B 2.96426e-05
80 *192:30 *1849:A 2.75145e-05
81 *192:30 *214:12 8.65961e-05
82 *192:97 *1971:A 2.75145e-05
83 *192:97 *1971:B 0.000131667
84 *192:97 *1973:A 9.37731e-05
85 *192:97 *2013:A2 9.29751e-06
86 *192:97 *2016:A 0.000106207
87 *192:97 *2017:B 4.36153e-05
88 *192:97 *353:6 0.000147841
89 *192:97 *355:8 0
90 *192:97 *532:6 9.29176e-05
91 *192:97 *532:14 0.000118294
92 *192:99 *1974:A2 9.24127e-05
93 *192:99 *355:8 0
94 *1817:D_N *192:24 5.68717e-05
95 *1843:A1 *1843:B1 0.000122325
96 *188:10 *1818:B2 3.31204e-05
97 *188:12 *1818:B2 0.000209411
98 *188:16 *1818:B2 2.42236e-05
99 *188:22 *1818:B2 5.16348e-05
100 *189:10 *192:24 0.000123225
101 *189:14 *192:24 4.72908e-05
102 *190:10 *1818:B2 4.24292e-06
103 *190:14 *1818:B2 1.22676e-05
*RES
1 *1817:X *192:4 1.6 
2 *192:4 *192:6 3.21 
3 *192:6 *192:24 21.2657 
4 *192:24 *192:28 4.26 
5 *192:28 *192:30 3.555 
6 *192:30 *1843:B1 6.37 
7 *192:30 *1852:B1 7.49 
8 *192:28 *1925:A1 17.325 
9 *192:24 *1876:A 6.98 
10 *192:6 *1818:B2 17.69 
11 *192:4 *192:97 18.92 
12 *192:97 *192:99 3.93 
13 *192:99 *1963:A_N 8.835 
14 *192:99 *1975:B1 5.085 
15 *192:97 *2018:A 7.86 
*END

*D_NET *193 0.00046065
*CONN
*I *1819:B2 I *D sky130_fd_sc_hd__o22a_1
*I *1818:Y O *D sky130_fd_sc_hd__a22oi_1
*CAP
1 *1819:B2 7.96866e-05
2 *1818:Y 7.96866e-05
3 *1818:B2 *1819:B2 0.000136877
4 *188:16 *1819:B2 0.000136877
5 *188:22 *1819:B2 2.75229e-05
*RES
1 *1818:Y *1819:B2 9.285 
*END

*D_NET *194 0.00162154
*CONN
*I *1826:C1 I *D sky130_fd_sc_hd__a311o_1
*I *1819:X O *D sky130_fd_sc_hd__o22a_1
*CAP
1 *1826:C1 0.000187923
2 *1819:X 0.000187923
3 *1826:C1 *1826:A3 4.99619e-05
4 *1826:C1 *199:18 0.000159859
5 *1826:C1 *199:41 0.000347017
6 *1826:C1 *336:18 0.000331314
7 *1826:C1 *532:14 0.000174503
8 *190:8 *1826:C1 4.76263e-05
9 *190:10 *1826:C1 0.000135408
*RES
1 *1819:X *1826:C1 14.97 
*END

*D_NET *195 0.000976145
*CONN
*I *1826:A3 I *D sky130_fd_sc_hd__a311o_1
*I *1820:Y O *D sky130_fd_sc_hd__nor3_1
*CAP
1 *1826:A3 0.000302136
2 *1820:Y 0.000302136
3 *1826:A3 *199:18 3.79945e-05
4 *1826:A3 *336:18 0.000237243
5 *1826:A3 *489:35 0
6 *1812:A1 *1826:A3 4.66742e-05
7 *1812:A2 *1826:A3 0
8 *1826:C1 *1826:A3 4.99619e-05
*RES
1 *1820:Y *1826:A3 13.155 
*END

*D_NET *196 0.0133063
*CONN
*I *1823:A I *D sky130_fd_sc_hd__or2_1
*I *2050:A1 I *D sky130_fd_sc_hd__a311o_1
*I *2012:A1 I *D sky130_fd_sc_hd__a31o_1
*I *1954:B1 I *D sky130_fd_sc_hd__o21a_1
*I *1923:A1 I *D sky130_fd_sc_hd__a311o_1
*I *1891:B1 I *D sky130_fd_sc_hd__o21a_1
*I *1836:A1 I *D sky130_fd_sc_hd__a32o_1
*I *1866:B2 I *D sky130_fd_sc_hd__a221o_1
*I *1821:Y O *D sky130_fd_sc_hd__nor3_4
*CAP
1 *1823:A 0.000115891
2 *2050:A1 0.000152954
3 *2012:A1 2.54491e-05
4 *1954:B1 3.76639e-05
5 *1923:A1 0
6 *1891:B1 0.000320212
7 *1836:A1 0.000232656
8 *1866:B2 2.79251e-05
9 *1821:Y 0.000403629
10 *196:93 0.000678017
11 *196:74 0.000962282
12 *196:63 0.000507419
13 *196:46 0.000968943
14 *196:14 0.000348777
15 *196:12 0.00127886
16 *196:8 0.00114386
17 *1823:A *199:51 2.65814e-06
18 *1823:A *199:89 1.03423e-05
19 *1823:A *336:18 8.49205e-05
20 *1836:A1 *1836:B1 4.10092e-05
21 *1836:A1 *1896:C1 0.000718076
22 *1836:A1 *205:62 0.000476225
23 *1836:A1 *540:97 9.28737e-05
24 *1866:B2 *1866:A1 1.83114e-05
25 *1866:B2 *1866:B1 2.65346e-05
26 *1866:B2 *490:27 3.69766e-05
27 *1891:B1 *1893:B2 0
28 *1891:B1 *1895:A1 0
29 *1891:B1 *1895:B2 0.000114492
30 *1891:B1 *1923:A2 7.23533e-05
31 *1891:B1 *2059:A 0
32 *1891:B1 *234:16 4.99619e-05
33 *1891:B1 *534:153 0
34 *1891:B1 *537:69 0
35 *1891:B1 *540:110 4.82863e-05
36 *2012:A1 *2045:A 9.61248e-05
37 *2012:A1 *2045:B 5.3995e-05
38 *2050:A1 *2012:B1 0.000139245
39 *2050:A1 *2050:A3 0.00014423
40 *2050:A1 *2050:B1 4.66108e-05
41 *196:8 *1815:B 7.16437e-05
42 *196:8 *1821:B 3.24046e-05
43 *196:8 *2010:A2 2.25075e-05
44 *196:8 *2011:C1 0.000136418
45 *196:8 *205:26 7.64243e-05
46 *196:8 *326:56 0
47 *196:8 *326:68 0.000111012
48 *196:8 *336:18 4.74794e-05
49 *196:8 *492:14 0
50 *196:8 *511:12 2.03321e-05
51 *196:12 *199:45 2.46797e-05
52 *196:12 *199:95 0
53 *196:12 *205:26 1.73877e-05
54 *196:12 *205:28 3.90474e-05
55 *196:12 *205:47 0.000132506
56 *196:12 *326:68 0.000575006
57 *196:12 *326:78 0.000205219
58 *196:12 *336:18 1.37864e-05
59 *196:12 *490:27 0
60 *196:12 *532:14 0
61 *196:14 *1866:A1 1.45569e-05
62 *196:14 *205:47 0
63 *196:14 *490:27 0.000222537
64 *196:14 *526:77 8.34415e-05
65 *196:46 *1968:B1 0.000145088
66 *196:46 *490:27 6.08134e-05
67 *196:46 *524:52 0.000381094
68 *196:63 *1968:B1 2.54522e-05
69 *196:74 *1968:B1 0.000615201
70 *196:74 *297:8 0
71 *196:74 *534:153 0
72 *196:93 *1968:B1 0.00034058
73 *196:93 *2045:A 5.57182e-05
74 *196:93 *2045:B 0.000135463
75 *196:93 *534:153 0
76 *1893:B1 *1891:B1 1.7396e-05
77 *2047:B1 *196:12 0.000174279
78 *188:28 *1836:A1 6.15576e-06
79 *188:28 *1866:B2 2.48591e-05
*RES
1 *1821:Y *196:8 11.865 
2 *196:8 *196:12 13.7025 
3 *196:12 *196:14 2.655 
4 *196:14 *1866:B2 4.3275 
5 *196:14 *1836:A1 6.1743 
6 *196:12 *196:46 9.7475 
7 *196:46 *1891:B1 11.51 
8 *196:46 *196:63 1.155 
9 *196:63 *1923:A1 1.6 
10 *196:63 *196:74 10.685 
11 *196:74 *1954:B1 4.05 
12 *196:74 *196:93 11.585 
13 *196:93 *2012:A1 2.755 
14 *196:93 *2050:A1 9.095 
15 *196:8 *1823:A 5.1 
*END

*D_NET *197 0.0120668
*CONN
*I *2009:A3 I *D sky130_fd_sc_hd__a32o_1
*I *1823:B I *D sky130_fd_sc_hd__or2_1
*I *1966:A3 I *D sky130_fd_sc_hd__a32o_1
*I *2048:A3 I *D sky130_fd_sc_hd__a32o_1
*I *1922:A3 I *D sky130_fd_sc_hd__a32o_1
*I *1894:A3 I *D sky130_fd_sc_hd__a32o_1
*I *1865:A3 I *D sky130_fd_sc_hd__a32o_1
*I *1835:B2 I *D sky130_fd_sc_hd__a22o_1
*I *1822:X O *D sky130_fd_sc_hd__and4b_2
*CAP
1 *2009:A3 6.76917e-05
2 *1823:B 5.50643e-05
3 *1966:A3 0
4 *2048:A3 0
5 *1922:A3 0
6 *1894:A3 9.10537e-06
7 *1865:A3 0.000126096
8 *1835:B2 1.54704e-05
9 *1822:X 0.000322995
10 *197:67 0.000211882
11 *197:63 0.000887161
12 *197:46 0.00106016
13 *197:40 0.00050262
14 *197:28 0.000491698
15 *197:22 0.000433208
16 *197:16 0.000545548
17 *1823:B *199:89 0.000108031
18 *1823:B *336:18 0.000193801
19 *1835:B2 *199:51 3.96153e-05
20 *1835:B2 *492:67 3.96153e-05
21 *1865:A3 *1865:A2 5.68039e-05
22 *1865:A3 *1865:B1 0.000104464
23 *1865:A3 *1865:B2 4.82919e-05
24 *1865:A3 *1894:A2 4.82919e-05
25 *1865:A3 *524:113 7.59596e-05
26 *1894:A3 *1865:A2 2.75229e-05
27 *1894:A3 *1894:A2 3.83041e-05
28 *2009:A3 *2009:B1 0.000174388
29 *2009:A3 *2010:A1 4.82863e-05
30 *2009:A3 *2010:B1 6.65725e-05
31 *2009:A3 *2010:C1 8.8266e-05
32 *197:16 *2009:B1 6.87975e-05
33 *197:16 *2010:A1 1.16578e-05
34 *197:16 *2010:A2 0.000237249
35 *197:16 *205:14 0.00030615
36 *197:16 *326:56 0
37 *197:16 *532:14 0.000381337
38 *197:22 *2009:B1 9.53428e-06
39 *197:22 *2011:A2 0.000144683
40 *197:22 *205:26 7.91451e-05
41 *197:22 *492:20 0.000161373
42 *197:28 *1969:C 8.7152e-06
43 *197:28 *2047:A1 0.000116151
44 *197:28 *199:89 0.000473996
45 *197:28 *199:95 2.05722e-05
46 *197:28 *205:26 1.87481e-05
47 *197:28 *492:20 0.000236687
48 *197:28 *563:69 3.58364e-05
49 *197:40 *1969:C 1.88656e-05
50 *197:40 *199:95 1.7635e-05
51 *197:40 *518:105 0.000443355
52 *197:40 *532:18 1.79483e-05
53 *197:46 *1845:A 8.07863e-05
54 *197:46 *1966:B2 0.000490078
55 *197:46 *2048:B1 0.000279664
56 *197:46 *199:51 0.0003081
57 *197:46 *492:67 0.000164631
58 *197:63 *1807:C 0.000131955
59 *197:63 *1865:B1 0.000141275
60 *197:63 *1899:A 0
61 *197:63 *1922:A2 3.85204e-05
62 *197:63 *326:86 0.00101759
63 *197:63 *519:105 1.68169e-05
64 *197:63 *540:97 9.66862e-06
65 *197:67 *1865:B1 3.79555e-05
66 *197:67 *1922:A2 2.98807e-05
67 *197:67 *518:54 6.60096e-05
68 *197:67 *519:105 4.91574e-05
69 *1818:B2 *197:16 0
70 *1821:C *197:16 9.52646e-05
71 *1956:A2 *197:28 3.58868e-05
72 *2008:B1 *2009:A3 8.34281e-06
73 *2008:B1 *197:16 4.72362e-05
74 *190:8 *197:16 0.000140905
75 *190:14 *197:40 1.93765e-05
76 *191:72 *197:16 0.000162311
*RES
1 *1822:X *197:16 15.53 
2 *197:16 *197:22 6.035 
3 *197:22 *197:28 7.035 
4 *197:28 *197:40 4.14393 
5 *197:40 *197:46 10.3925 
6 *197:46 *1835:B2 4.0875 
7 *197:46 *197:63 3.6231 
8 *197:63 *197:67 3.89 
9 *197:67 *1865:A3 4.945 
10 *197:67 *1894:A3 2.05 
11 *197:63 *1922:A3 3.6 
12 *197:40 *2048:A3 1.6 
13 *197:28 *1966:A3 3.6 
14 *197:22 *1823:B 5.43 
15 *197:16 *2009:A3 4.48 
*END

*D_NET *198 0.00112648
*CONN
*I *1825:A3 I *D sky130_fd_sc_hd__a32o_1
*I *1823:X O *D sky130_fd_sc_hd__or2_1
*CAP
1 *1825:A3 0.000408155
2 *1823:X 0.000408155
3 *1825:A3 *1819:A2 8.65961e-05
4 *1825:A3 *1825:A1 8.65961e-05
5 *1825:A3 *1825:A2 4.72157e-05
6 *1825:A3 *1825:B1 3.11579e-05
7 *1825:A3 *199:51 5.86071e-05
8 *1825:A3 *528:49 0
9 *183:12 *1825:A3 0
*RES
1 *1823:X *1825:A3 12.405 
*END

*D_NET *199 0.0167747
*CONN
*I *2010:A2 I *D sky130_fd_sc_hd__a211o_1
*I *1966:B1 I *D sky130_fd_sc_hd__a32o_1
*I *1921:B I *D sky130_fd_sc_hd__and2_1
*I *1895:A2 I *D sky130_fd_sc_hd__a221o_1
*I *1835:A2 I *D sky130_fd_sc_hd__a22o_1
*I *1865:B1 I *D sky130_fd_sc_hd__a32o_1
*I *1825:B1 I *D sky130_fd_sc_hd__a32o_1
*I *1824:X O *D sky130_fd_sc_hd__and4bb_2
*CAP
1 *2010:A2 0.000121401
2 *1966:B1 5.45092e-05
3 *1921:B 7.7176e-05
4 *1895:A2 0.000270018
5 *1835:A2 7.37602e-05
6 *1865:B1 0.000655938
7 *1825:B1 8.47864e-05
8 *1824:X 0.000775125
9 *199:95 0.000750113
10 *199:89 0.000722432
11 *199:51 0.00147082
12 *199:45 0.0011089
13 *199:41 0.00046668
14 *199:18 0.00110241
15 *1825:B1 *1825:A2 2.24829e-05
16 *1825:B1 *528:49 4.43871e-06
17 *1835:A2 *1968:B1 0.000162853
18 *1835:A2 *524:52 4.66108e-05
19 *1835:A2 *524:56 0.000122824
20 *1865:B1 *1865:A2 0.000102788
21 *1865:B1 *1894:A2 0.000484915
22 *1865:B1 *326:86 0.000592808
23 *1865:B1 *492:67 4.01607e-05
24 *1865:B1 *519:105 2.06083e-05
25 *1865:B1 *538:28 7.97096e-05
26 *1865:B1 *540:97 0.000317785
27 *1895:A2 *1892:A1 1.02346e-05
28 *1895:A2 *1893:A1 1.2818e-05
29 *1895:A2 *1895:A1 0.000552501
30 *1895:A2 *520:53 4.92096e-05
31 *1895:A2 *537:69 0
32 *1921:B *1920:A2 0.000235568
33 *1921:B *1921:A 2.16833e-05
34 *1921:B *1923:A3 4.66108e-05
35 *1966:B1 *1966:A1 2.16833e-05
36 *1966:B1 *1966:A2 1.08758e-05
37 *1966:B1 *1967:A2 5.7052e-05
38 *2010:A2 *2011:C1 4.70695e-05
39 *2010:A2 *326:56 0.000191426
40 *2010:A2 *336:18 4.83522e-05
41 *199:18 *1824:C 5.83121e-06
42 *199:18 *1825:A1 0.00016063
43 *199:18 *1827:C 0
44 *199:18 *2088:A 0
45 *199:18 *336:18 5.20523e-05
46 *199:18 *489:45 8.53113e-06
47 *199:18 *524:78 3.03684e-05
48 *199:18 *529:63 8.54444e-05
49 *199:41 *326:56 4.66108e-05
50 *199:41 *336:18 5.24934e-05
51 *199:45 *326:56 2.73058e-05
52 *199:45 *336:18 0.000130821
53 *199:45 *532:14 8.88967e-05
54 *199:51 *1807:C 0
55 *199:51 *1809:D 0
56 *199:51 *1819:A2 2.67275e-05
57 *199:51 *1825:B2 7.40446e-05
58 *199:51 *1845:A 6.24014e-05
59 *199:51 *1966:B2 0
60 *199:51 *1969:C 7.06865e-05
61 *199:51 *492:67 1.15688e-05
62 *199:51 *518:105 0
63 *199:51 *526:92 0
64 *199:51 *526:94 0.000199833
65 *199:51 *529:51 0
66 *199:51 *554:88 0.000640627
67 *199:89 *2047:B2 0.000201393
68 *199:89 *205:26 4.75576e-05
69 *199:89 *326:68 4.38695e-05
70 *199:89 *336:18 1.61831e-05
71 *199:89 *554:88 0.000258751
72 *199:95 *1920:A2 7.49327e-05
73 *199:95 *1969:C 4.04805e-05
74 *199:95 *2052:A 0.000198945
75 *199:95 *490:27 0.000114492
76 *1812:A1 *199:18 0.000122325
77 *1823:A *199:51 2.65814e-06
78 *1823:A *199:89 1.03423e-05
79 *1823:B *199:89 0.000108031
80 *1825:A3 *1825:B1 3.11579e-05
81 *1825:A3 *199:51 5.86071e-05
82 *1826:A3 *199:18 3.79945e-05
83 *1826:C1 *199:18 0.000159859
84 *1826:C1 *199:41 0.000347017
85 *1835:B2 *199:51 3.96153e-05
86 *1865:A3 *1865:B1 0.000104464
87 *1956:A2 *199:95 8.5002e-05
88 *2007:B1 *199:41 9.70285e-05
89 *2008:B1 *2010:A2 0.000138808
90 *183:12 *199:51 0
91 *191:14 *199:18 0.000333801
92 *192:24 *199:18 5.35181e-06
93 *196:8 *2010:A2 2.25075e-05
94 *196:12 *199:45 2.46797e-05
95 *196:12 *199:95 0
96 *197:16 *2010:A2 0.000237249
97 *197:28 *199:89 0.000473996
98 *197:28 *199:95 2.05722e-05
99 *197:40 *199:95 1.7635e-05
100 *197:46 *199:51 0.0003081
101 *197:63 *1865:B1 0.000141275
102 *197:67 *1865:B1 3.79555e-05
*RES
1 *1824:X *199:18 18.485 
2 *199:18 *1825:B1 6.9275 
3 *199:18 *199:41 7.07 
4 *199:41 *199:45 4.4 
5 *199:45 *199:51 18.275 
6 *199:51 *1865:B1 9.1881 
7 *199:51 *1835:A2 5.895 
8 *199:45 *199:89 10.235 
9 *199:89 *199:95 9.425 
10 *199:95 *1895:A2 12.2037 
11 *199:95 *1921:B 3.775 
12 *199:89 *1966:B1 4.8525 
13 *199:41 *2010:A2 8.175 
*END

*D_NET *200 0.000503624
*CONN
*I *1826:B1 I *D sky130_fd_sc_hd__a311o_1
*I *1825:X O *D sky130_fd_sc_hd__a32o_1
*CAP
1 *1826:B1 0.000159727
2 *1825:X 0.000159727
3 *1826:B1 *1825:A1 0.00012657
4 *1812:A2 *1826:B1 2.99518e-06
5 *183:12 *1826:B1 4.79946e-05
6 *186:8 *1826:B1 6.60907e-06
*RES
1 *1825:X *1826:B1 9.72 
*END

*D_NET *201 0.0022307
*CONN
*I *1827:C I *D sky130_fd_sc_hd__or3_4
*I *1826:X O *D sky130_fd_sc_hd__a311o_1
*CAP
1 *1827:C 0.000465096
2 *1826:X 0.000465096
3 *1827:C *1816:A 4.82919e-05
4 *1827:C *1824:B_N 9.5799e-06
5 *1827:C *1824:C 0.000246599
6 *1827:C *2088:A 0.000194331
7 *1827:C *2113:A 4.82919e-05
8 *1827:C *2114:A 8.23457e-05
9 *1827:C *336:18 8.65905e-05
10 *1827:C *489:45 8.72665e-06
11 *1827:C *491:26 8.78266e-05
12 *1827:C *511:66 2.49909e-05
13 *1827:C *511:70 0.000108695
14 op_out[1] *1827:C 1.38676e-05
15 *1827:A *1827:C 0.000321477
16 *192:24 *1827:C 1.88904e-05
17 *199:18 *1827:C 0
*RES
1 *1826:X *1827:C 18.705 
*END

*D_NET *202 0.00455557
*CONN
*I *1835:B1 I *D sky130_fd_sc_hd__a22o_1
*I *1829:B I *D sky130_fd_sc_hd__nor2_1
*I *1833:C I *D sky130_fd_sc_hd__and3_1
*I *1855:C I *D sky130_fd_sc_hd__and3_1
*I *1853:B1 I *D sky130_fd_sc_hd__a21o_1
*I *1828:X O *D sky130_fd_sc_hd__and2_1
*CAP
1 *1835:B1 0.000179853
2 *1829:B 0
3 *1833:C 3.35978e-05
4 *1855:C 0.000175602
5 *1853:B1 9.876e-05
6 *1828:X 0
7 *202:43 0.000430544
8 *202:32 0.00032337
9 *202:21 0.000361715
10 *202:4 0.000245792
11 *1833:C *207:6 8.73389e-06
12 *1833:C *538:28 0.000106433
13 *1833:C *547:82 7.06981e-05
14 *1835:B1 *1837:B 4.34072e-05
15 *1835:B1 *1837:C 1.88602e-05
16 *1835:B1 *492:67 0.000127691
17 *1835:B1 *540:97 0.000332737
18 *1835:B1 *550:65 0.000127062
19 *1853:B1 *1853:A1 8.65961e-05
20 *1853:B1 *1853:A2 8.49205e-05
21 *1853:B1 *523:39 2.45351e-05
22 *1853:B1 *547:88 1.08758e-05
23 *1855:C *2078:A 6.63894e-05
24 *202:21 *1832:A2 0.00011468
25 *202:21 *1858:A 0.000140912
26 *202:21 *547:88 0.000378275
27 *202:32 *1832:A2 4.75576e-05
28 *202:32 *547:88 8.28738e-05
29 *202:43 *1830:A2 0.000468221
30 *202:43 *1832:A2 0.000134246
31 *202:43 *1834:A 4.47709e-05
32 *202:43 *1837:C 0.000130377
33 *202:43 *547:88 2.07184e-05
34 *188:22 *1835:B1 4.36573e-06
35 *188:22 *202:43 3.59531e-06
36 *188:28 *202:43 2.68046e-05
*RES
1 *1828:X *202:4 1.6 
2 *202:4 *1853:B1 3.805 
3 *202:4 *202:21 6.635 
4 *202:21 *1855:C 5.6775 
5 *202:21 *202:32 1.125 
6 *202:32 *1833:C 4.62 
7 *202:32 *202:43 6.735 
8 *202:43 *1829:B 3.6 
9 *202:43 *1835:B1 6.84413 
*END

*D_NET *203 0.000465245
*CONN
*I *1830:B2 I *D sky130_fd_sc_hd__o22a_1
*I *1829:Y O *D sky130_fd_sc_hd__nor2_1
*CAP
1 *1830:B2 6.64956e-05
2 *1829:Y 6.64956e-05
3 *1830:B2 *1830:A1 3.21081e-06
4 *1830:B2 *520:18 0.00019637
5 *1830:B2 *526:77 8.43862e-05
6 *1830:B1 *1830:B2 4.82863e-05
*RES
1 *1829:Y *1830:B2 5.39 
*END

*D_NET *204 0.00025855
*CONN
*I *1837:A I *D sky130_fd_sc_hd__or3_1
*I *1830:X O *D sky130_fd_sc_hd__o22a_1
*CAP
1 *1837:A 3.88162e-05
2 *1830:X 3.88162e-05
3 *1837:A *1837:C 6.47594e-05
4 *188:22 *1837:A 0.000116158
*RES
1 *1830:X *1837:A 8.58 
*END

*D_NET *205 0.0158907
*CONN
*I *2009:B1 I *D sky130_fd_sc_hd__a32o_1
*I *2049:A2 I *D sky130_fd_sc_hd__a211o_1
*I *1836:B1 I *D sky130_fd_sc_hd__a32o_1
*I *1922:B1 I *D sky130_fd_sc_hd__a32o_1
*I *1894:B1 I *D sky130_fd_sc_hd__a32o_1
*I *1866:A2 I *D sky130_fd_sc_hd__a221o_1
*I *1967:A2 I *D sky130_fd_sc_hd__a221o_1
*I *1831:X O *D sky130_fd_sc_hd__and4bb_2
*CAP
1 *2009:B1 0.000348776
2 *2049:A2 0
3 *1836:B1 4.19689e-05
4 *1922:B1 0.000234574
5 *1894:B1 9.08449e-05
6 *1866:A2 8.25258e-05
7 *1967:A2 0.000393577
8 *1831:X 0.000940744
9 *205:64 0.000762515
10 *205:62 0.000657863
11 *205:47 0.000616352
12 *205:28 0.000819432
13 *205:26 0.000500391
14 *205:14 0.00171908
15 *1836:B1 *1836:A2 2.24829e-05
16 *1836:B1 *528:34 1.7635e-05
17 *1836:B1 *545:29 1.12459e-05
18 *1836:B1 *550:65 8.20748e-05
19 *1866:A2 *1867:C1 3.00381e-05
20 *1866:A2 *532:24 9.76964e-06
21 *1866:A2 *545:33 4.78726e-05
22 *1894:B1 *1596:D 0.000120172
23 *1894:B1 *1865:A2 1.59999e-05
24 *1894:B1 *1894:A2 5.84448e-05
25 *1894:B1 *2081:A 0.000102577
26 *1894:B1 *518:54 1.95176e-05
27 *1894:B1 *520:18 3.6885e-05
28 *1894:B1 *520:29 5.53249e-06
29 *1894:B1 *524:113 1.59999e-05
30 *1922:B1 *1596:C 0.000146416
31 *1922:B1 *1596:D 0.000271089
32 *1922:B1 *1872:A 1.39456e-05
33 *1922:B1 *2078:A 0
34 *1922:B1 *2081:A 1.58894e-05
35 *1922:B1 *542:120 1.39456e-05
36 *1922:B1 *545:29 6.04362e-05
37 *1967:A2 *1919:A2 8.49205e-05
38 *1967:A2 *1920:A1 2.3845e-05
39 *1967:A2 *1920:B2 0.000105748
40 *1967:A2 *1966:A2 9.9571e-05
41 *1967:A2 *1966:B2 0.000119756
42 *1967:A2 *1969:A 8.23457e-05
43 *1967:A2 *1969:B 0.000246427
44 *1967:A2 *1969:C 1.91597e-05
45 *1967:A2 *326:68 8.40269e-05
46 *1967:A2 *518:109 9.52646e-05
47 *1967:A2 *518:124 1.85235e-05
48 *2009:B1 *2010:B1 5.47608e-05
49 *2009:B1 *535:69 8.5735e-05
50 *205:14 *1586:A 2.15594e-05
51 *205:14 *1831:B_N 0.000122331
52 *205:14 *2011:C1 8.40269e-05
53 *205:14 *2114:A 0.000122337
54 *205:14 *491:26 2.23407e-05
55 *205:14 *500:25 0.0001947
56 *205:14 *500:35 1.46828e-05
57 *205:26 *2011:A2 0.000143333
58 *205:26 *2047:B2 4.82919e-05
59 *205:26 *326:68 0.000277516
60 *205:26 *492:50 0.000106655
61 *205:26 *532:14 4.13171e-05
62 *205:26 *532:16 2.15594e-05
63 *205:28 *326:68 1.03572e-05
64 *205:28 *492:50 0.000154569
65 *205:47 *326:68 3.91574e-05
66 *205:47 *326:78 0.000205219
67 *205:47 *492:50 3.08152e-05
68 *205:47 *492:56 7.19946e-05
69 *205:47 *532:24 0.000166093
70 *205:62 *1896:C1 8.17624e-06
71 *205:62 *540:97 0.000282734
72 *205:64 *1894:A2 0.000321675
73 *205:64 *1896:C1 0.000642739
74 *205:64 *2081:A 0.000117047
75 *205:64 *540:97 0.000403687
76 *1812:A1 *205:14 0.000376417
77 *1812:A2 *205:14 0.000369441
78 *1827:A *205:14 0.000122331
79 *1836:A1 *1836:B1 4.10092e-05
80 *1836:A1 *205:62 0.000476225
81 *1966:B1 *1967:A2 5.7052e-05
82 *2008:B1 *2009:B1 0
83 *2008:B1 *205:14 1.90762e-05
84 *2009:A3 *2009:B1 0.000174388
85 *2047:B1 *205:26 9.52156e-05
86 *2047:B1 *205:28 5.53249e-06
87 *188:28 *1836:B1 0
88 *188:28 *1866:A2 0.000105357
89 *188:63 *205:26 4.80285e-05
90 *188:71 *205:26 2.03356e-05
91 *190:27 *1866:A2 2.19824e-05
92 *190:27 *205:47 4.13657e-05
93 *196:8 *205:26 7.64243e-05
94 *196:12 *205:26 1.73877e-05
95 *196:12 *205:28 3.90474e-05
96 *196:12 *205:47 0.000132506
97 *196:14 *205:47 0
98 *197:16 *2009:B1 6.87975e-05
99 *197:16 *205:14 0.00030615
100 *197:22 *2009:B1 9.53428e-06
101 *197:22 *205:26 7.91451e-05
102 *197:28 *205:26 1.87481e-05
103 *199:89 *205:26 4.75576e-05
*RES
1 *1831:X *205:14 23.87 
2 *205:14 *205:26 15.69 
3 *205:26 *205:28 1.89 
4 *205:28 *1967:A2 12.6375 
5 *205:28 *205:47 8.3325 
6 *205:47 *1866:A2 5.565 
7 *205:47 *205:62 1.29547 
8 *205:62 *205:64 1.9608 
9 *205:64 *1894:B1 6.03953 
10 *205:64 *1922:B1 9.425 
11 *205:62 *1836:B1 5.3 
12 *205:26 *2049:A2 3.6 
13 *205:14 *2009:B1 7.5925 
*END

*D_NET *206 0.00123003
*CONN
*I *1836:A2 I *D sky130_fd_sc_hd__a32o_1
*I *1832:X O *D sky130_fd_sc_hd__a22o_1
*CAP
1 *1836:A2 0.00021906
2 *1832:X 0.00021906
3 *1836:A2 *1867:C1 0.000160219
4 *1836:A2 *492:67 0.000198973
5 *1836:A2 *528:22 5.83121e-06
6 *1836:A2 *529:51 0.00015896
7 *1836:A2 *545:29 4.94191e-05
8 *1836:A2 *550:54 9.10305e-05
9 *1836:A2 *550:65 0.000104996
10 *1836:B1 *1836:A2 2.24829e-05
*RES
1 *1832:X *1836:A2 12.5662 
*END

*D_NET *207 0.00169965
*CONN
*I *1834:A I *D sky130_fd_sc_hd__inv_2
*I *1859:A I *D sky130_fd_sc_hd__and2_1
*I *1860:A I *D sky130_fd_sc_hd__nor2_1
*I *1833:X O *D sky130_fd_sc_hd__and3_1
*CAP
1 *1834:A 0.000100302
2 *1859:A 0
3 *1860:A 8.64447e-05
4 *1833:X 0.000136688
5 *207:10 0.000181
6 *207:6 0.000331546
7 *1834:A *1832:A2 0.000159189
8 *1834:A *532:24 0.000292815
9 *1860:A *1860:B 0.00010157
10 *1860:A *538:28 0.000198945
11 *207:6 *538:28 1.1085e-05
12 *207:6 *547:82 3.64998e-06
13 *207:10 *538:28 4.29107e-05
14 *1833:C *207:6 8.73389e-06
15 *202:43 *1834:A 4.47709e-05
*RES
1 *1833:X *207:6 3.085 
2 *207:6 *207:10 1.755 
3 *207:10 *1860:A 4.405 
4 *207:10 *1859:A 1.6 
5 *207:6 *1834:A 9.02 
*END

*D_NET *208 0.00040615
*CONN
*I *1836:A3 I *D sky130_fd_sc_hd__a32o_1
*I *1834:Y O *D sky130_fd_sc_hd__inv_2
*CAP
1 *1836:A3 5.57397e-05
2 *1834:Y 5.57397e-05
3 *1836:A3 *1867:C1 0.000114233
4 *1836:A3 *545:29 2.20039e-05
5 *188:28 *1836:A3 0.000158434
*RES
1 *1834:Y *1836:A3 5.42 
*END

*D_NET *209 0.000566724
*CONN
*I *1837:B I *D sky130_fd_sc_hd__or3_1
*I *1835:X O *D sky130_fd_sc_hd__a22o_1
*CAP
1 *1837:B 0.000171722
2 *1835:X 0.000171722
3 *1837:B *518:105 0
4 *1837:B *528:34 8.27125e-05
5 *1835:B1 *1837:B 4.34072e-05
6 *188:22 *1837:B 8.38633e-05
7 *190:14 *1837:B 1.32974e-05
*RES
1 *1835:X *1837:B 9.8978 
*END

*D_NET *210 0.00087842
*CONN
*I *1837:C I *D sky130_fd_sc_hd__or3_1
*I *1836:X O *D sky130_fd_sc_hd__a32o_1
*CAP
1 *1837:C 0.000186538
2 *1836:X 0.000186538
3 *1837:C *532:24 3.91737e-05
4 *1837:C *545:29 8.35106e-05
5 *1835:B1 *1837:C 1.88602e-05
6 *1837:A *1837:C 6.47594e-05
7 *188:22 *1837:C 7.0263e-06
8 *190:14 *1837:C 0.000161637
9 *202:43 *1837:C 0.000130377
*RES
1 *1836:X *1837:C 11.415 
*END

*D_NET *211 0.00549788
*CONN
*I *1845:A I *D sky130_fd_sc_hd__or2_1
*I *1837:X O *D sky130_fd_sc_hd__or3_1
*CAP
1 *1845:A 0.00118526
2 *1837:X 0.00118526
3 *1845:A *1824:A_N 0.000112097
4 *1845:A *1924:C1 0.000192907
5 *1845:A *1955:B1 0
6 *1845:A *2088:A 4.99619e-05
7 *1845:A *2114:A 4.82863e-05
8 *1845:A *492:67 0.000134509
9 *1845:A *497:52 0.000796407
10 *1845:A *500:10 1.52184e-05
11 *1845:A *500:25 8.49205e-05
12 *1845:A *518:105 0.000146956
13 *1845:A *524:78 0.000703911
14 *1845:A *526:92 0.000103297
15 *1845:A *538:12 0.000120811
16 *1845:A *550:65 0.000112123
17 *1898:A *1845:A 0.000183043
18 *1898:B *1845:A 7.47215e-05
19 *191:8 *1845:A 4.65565e-05
20 *191:14 *1845:A 5.84456e-05
21 *197:46 *1845:A 8.07863e-05
22 *199:51 *1845:A 6.24014e-05
*RES
1 *1837:X *1845:A 39.835 
*END

*D_NET *212 0.00254878
*CONN
*I *1839:B I *D sky130_fd_sc_hd__xnor2_1
*I *1838:Y O *D sky130_fd_sc_hd__nand2_1
*CAP
1 *1839:B 0.000738428
2 *1838:Y 0.000738428
3 *1839:B *1795:A2 1.16578e-05
4 *1839:B *1795:C1 3.32667e-05
5 *1839:B *1803:A 3.83305e-05
6 *1839:B *1838:A 1.08758e-05
7 *1839:B *1839:A 2.75145e-05
8 *1839:B *1840:B 0.000119756
9 *1839:B *1841:A 0.000160651
10 *1839:B *1841:B 8.57024e-05
11 *1839:B *1842:B 4.16353e-05
12 *1839:B *1844:A2 0
13 *1839:B *1844:B1 0.000311282
14 *1839:B *1845:B 0.000163199
15 *1839:B *526:98 5.41685e-05
16 *1839:B *529:63 1.38831e-05
17 *1839:B *544:34 0
18 *1842:A *1839:B 0
19 *178:17 *1839:B 0
*RES
1 *1838:Y *1839:B 21.225 
*END

*D_NET *213 0.00183873
*CONN
*I *1840:B I *D sky130_fd_sc_hd__nand2_1
*I *1841:B I *D sky130_fd_sc_hd__xnor2_1
*I *1839:Y O *D sky130_fd_sc_hd__xnor2_1
*CAP
1 *1840:B 0.000270598
2 *1841:B 0.00026033
3 *1839:Y 0
4 *213:4 0.000530929
5 *1840:B *1843:A2 4.03082e-05
6 *1840:B *1844:A2 5.21627e-05
7 *1840:B *1844:B2 8.90712e-05
8 *1841:B *1839:A 5.55578e-05
9 *1841:B *1843:A2 0
10 *1841:B *1844:A1 0
11 *1841:B *215:10 0
12 *1839:B *1840:B 0.000119756
13 *1839:B *1841:B 8.57024e-05
14 *1843:A1 *1840:B 2.30292e-05
15 *1843:B1 *1840:B 0.000311282
*RES
1 *1839:Y *213:4 1.6 
2 *213:4 *1841:B 9.65 
3 *213:4 *1840:B 11.585 
*END

*D_NET *214 0.000937293
*CONN
*I *1851:A1 I *D sky130_fd_sc_hd__a21o_1
*I *1852:A1 I *D sky130_fd_sc_hd__a31oi_1
*I *1840:Y O *D sky130_fd_sc_hd__nand2_1
*CAP
1 *1851:A1 8.96528e-05
2 *1852:A1 0
3 *1840:Y 0.00019284
4 *214:12 0.000282493
5 *1851:A1 *1845:B 1.33293e-05
6 *1851:A1 *1851:A2 3.45588e-05
7 *1851:A1 *1852:A2 3.26889e-05
8 *1851:A1 *1852:A3 8.65961e-05
9 *1851:A1 *216:17 1.83847e-05
10 *214:12 *1840:A 1.83847e-05
11 *214:12 *1851:A2 1.22762e-05
12 *1843:B1 *214:12 9.27255e-06
13 *1852:B1 *214:12 6.02202e-05
14 *192:30 *214:12 8.65961e-05
*RES
1 *1840:Y *214:12 8.465 
2 *214:12 *1852:A1 1.6 
3 *214:12 *1851:A1 3.7 
*END

*D_NET *215 0.00123612
*CONN
*I *1842:B I *D sky130_fd_sc_hd__or2_1
*I *1843:A2 I *D sky130_fd_sc_hd__a21oi_1
*I *1841:Y O *D sky130_fd_sc_hd__xnor2_1
*CAP
1 *1842:B 0.000167514
2 *1843:A2 7.8638e-05
3 *1841:Y 0.0001053
4 *215:10 0.000351452
5 *1842:B *1844:B1 6.38722e-05
6 *1843:A2 *1839:A 0.000113964
7 *1843:A2 *1844:A1 0
8 *1843:A2 *1844:B2 0.000138544
9 *215:10 *1844:A1 0
10 *215:10 *2069:A 4.82919e-05
11 *1839:B *1842:B 4.16353e-05
12 *1840:B *1843:A2 4.03082e-05
13 *1841:B *1843:A2 0
14 *1841:B *215:10 0
15 *1842:A *1842:B 8.65961e-05
*RES
1 *1841:Y *215:10 5.175 
2 *215:10 *1843:A2 6.255 
3 *215:10 *1842:B 6.465 
*END

*D_NET *216 0.00146334
*CONN
*I *1851:A2 I *D sky130_fd_sc_hd__a21o_1
*I *1852:A2 I *D sky130_fd_sc_hd__a31oi_1
*I *1844:B1 I *D sky130_fd_sc_hd__a22o_1
*I *1842:X O *D sky130_fd_sc_hd__or2_1
*CAP
1 *1851:A2 4.80658e-05
2 *1852:A2 2.04979e-05
3 *1844:B1 0.000103948
4 *1842:X 0
5 *216:17 0.000161679
6 *216:4 0.000197064
7 *1844:B1 *1845:B 1.33285e-05
8 *1851:A2 *1845:B 7.66083e-05
9 *1851:A2 *1852:A3 9.50342e-06
10 *1851:A2 *1868:B1 0
11 *1851:A2 *224:14 0
12 *1852:A2 *1852:A3 0
13 *216:17 *1845:B 0.000196381
14 *1839:B *1844:B1 0.000311282
15 *1842:A *1844:B1 0.000163204
16 *1842:B *1844:B1 6.38722e-05
17 *1851:A1 *1851:A2 3.45588e-05
18 *1851:A1 *1852:A2 3.26889e-05
19 *1851:A1 *216:17 1.83847e-05
20 *1852:B1 *1851:A2 0
21 *214:12 *1851:A2 1.22762e-05
*RES
1 *1842:X *216:4 1.6 
2 *216:4 *1844:B1 5.17 
3 *216:4 *216:17 2.19 
4 *216:17 *1852:A2 2.215 
5 *216:17 *1851:A2 7.01 
*END

*D_NET *217 0.000483597
*CONN
*I *1844:B2 I *D sky130_fd_sc_hd__a22o_1
*I *1843:Y O *D sky130_fd_sc_hd__a21oi_1
*CAP
1 *1844:B2 0.000123367
2 *1843:Y 0.000123367
3 *1844:B2 *1844:A1 4.18603e-06
4 *1844:B2 *1844:A2 0
5 *1840:B *1844:B2 8.90712e-05
6 *1843:A1 *1844:B2 5.062e-06
7 *1843:A2 *1844:B2 0.000138544
*RES
1 *1843:Y *1844:B2 9.63 
*END

*D_NET *218 0.00298041
*CONN
*I *1845:B I *D sky130_fd_sc_hd__or2_1
*I *1844:X O *D sky130_fd_sc_hd__a22o_1
*CAP
1 *1845:B 0.00108317
2 *1844:X 0.00108317
3 *1845:B *1852:A3 1.68507e-05
4 *1845:B *1868:A1 3.52139e-06
5 *1845:B *1874:B 8.49936e-05
6 *1845:B *1876:B 4.82919e-05
7 *1845:B *224:14 2.11084e-05
8 *1845:B *225:21 2.8185e-05
9 *1845:B *250:6 0.000148277
10 *1839:B *1845:B 0.000163199
11 *1844:B1 *1845:B 1.33285e-05
12 *1851:A1 *1845:B 1.33293e-05
13 *1851:A2 *1845:B 7.66083e-05
14 *216:17 *1845:B 0.000196381
*RES
1 *1844:X *1845:B 18.635 
*END

*D_NET *219 0.00670024
*CONN
*I *1795:B1 I *D sky130_fd_sc_hd__o211a_1
*I *1793:A I *D sky130_fd_sc_hd__and2_1
*I *1732:A I *D sky130_fd_sc_hd__or2_1
*I *2055:A I *D sky130_fd_sc_hd__clkbuf_4
*I *1585:Y O *D sky130_fd_sc_hd__inv_2
*CAP
1 *1795:B1 0.000158581
2 *1793:A 0.00014794
3 *1732:A 0.00018514
4 *2055:A 5.19493e-05
5 *1585:Y 0.000378854
6 *219:40 0.000489692
7 *219:25 0.000951561
8 *219:10 0.00101405
9 *1732:A *1847:A 1.08758e-05
10 *1732:A *542:109 2.45351e-05
11 *1795:B1 *1795:C1 5.53249e-06
12 *1795:B1 *1803:A 0
13 *1795:B1 *544:34 9.07429e-05
14 *2055:A *516:6 4.66742e-05
15 *219:10 *1590:A 8.74947e-05
16 *219:10 *2086:A 4.66108e-05
17 *219:10 *493:23 9.54399e-05
18 *219:10 *550:6 8.23457e-05
19 *219:10 *550:21 4.66108e-05
20 *219:10 *550:32 1.08758e-05
21 *219:10 *551:120 0.00016063
22 *219:25 *1590:A 2.75707e-05
23 *219:25 *1847:A 4.66108e-05
24 *219:25 *493:23 0.000891027
25 *219:25 *493:34 0.000139933
26 *219:25 *543:29 9.90903e-05
27 *219:25 *543:104 0.00035215
28 *219:25 *543:108 0.000291029
29 *219:25 *548:94 5.13597e-05
30 *219:40 *1732:B 0
31 *219:40 *516:112 0.000143605
32 *219:40 *543:125 2.92496e-05
33 *1783:A *1732:A 9.66021e-05
34 *1783:A *219:40 2.86623e-05
35 *1791:A *1795:B1 3.09233e-05
36 *1791:A *219:40 0.00026898
37 *1791:B *1793:A 4.92062e-05
38 *1792:A1 *1793:A 1.03323e-05
39 *1792:A1 *1795:B1 5.7774e-05
*RES
1 *1585:Y *219:10 8.97 
2 *219:10 *2055:A 4.395 
3 *219:10 *219:25 17.3 
4 *219:25 *1732:A 4.135 
5 *219:25 *219:40 8.44 
6 *219:40 *1793:A 3.79 
7 *219:40 *1795:B1 9.05 
*END

*D_NET *220 0.000624077
*CONN
*I *1847:B I *D sky130_fd_sc_hd__xnor2_1
*I *1846:X O *D sky130_fd_sc_hd__o21a_1
*CAP
1 *1847:B 7.74894e-05
2 *1846:X 7.74894e-05
3 *1847:B *1847:A 5.83121e-06
4 *1847:B *516:112 0.000136877
5 *1847:B *542:109 0.000122325
6 *1847:B *543:108 6.71882e-05
7 *1847:B *544:34 0.000136877
*RES
1 *1846:X *1847:B 9.975 
*END

*D_NET *221 0.00255916
*CONN
*I *1849:B I *D sky130_fd_sc_hd__nand2_1
*I *1848:B I *D sky130_fd_sc_hd__or2_1
*I *1847:Y O *D sky130_fd_sc_hd__xnor2_1
*CAP
1 *1849:B 0
2 *1848:B 7.36447e-05
3 *1847:Y 0.000784889
4 *221:12 0.000858533
5 *1848:B *1849:A 4.82863e-05
6 *1848:B *223:10 4.82863e-05
7 *1848:B *524:78 0
8 *221:12 *1825:A1 4.34414e-05
9 *221:12 *1868:B1 0
10 *221:12 *493:34 0.000207311
11 *221:12 *542:109 0.000308724
12 *221:12 *544:34 0
13 *1843:B1 *1848:B 0
14 *1925:A1 *221:12 0.000156405
15 *192:30 *1848:B 2.96426e-05
*RES
1 *1847:Y *221:12 20.045 
2 *221:12 *1848:B 3.1 
3 *221:12 *1849:B 1.6 
*END

*D_NET *222 0.000810165
*CONN
*I *1850:A I *D sky130_fd_sc_hd__nand2_1
*I *1848:X O *D sky130_fd_sc_hd__or2_1
*CAP
1 *1850:A 0.000122739
2 *1848:X 0.000122739
3 *1850:A *1850:B 0.000182123
4 *1850:A *1868:B1 5.69248e-06
5 *1850:A *1875:B1 0.000138551
6 *1850:A *2117:A 5.14836e-05
7 *1850:A *223:14 0.000138551
8 *1850:A *326:18 4.82863e-05
*RES
1 *1848:X *1850:A 11.07 
*END

*D_NET *223 0.00177146
*CONN
*I *1874:A I *D sky130_fd_sc_hd__and3_1
*I *1850:B I *D sky130_fd_sc_hd__nand2_1
*I *1875:A1 I *D sky130_fd_sc_hd__a21o_1
*I *1849:Y O *D sky130_fd_sc_hd__nand2_1
*CAP
1 *1874:A 1.92246e-05
2 *1850:B 0.000178534
3 *1875:A1 0
4 *1849:Y 0.000112015
5 *223:14 0.000271362
6 *223:10 0.000224068
7 *1850:B *1868:B1 6.609e-05
8 *1850:B *1897:A_N 1.67131e-05
9 *1850:B *224:14 4.82863e-05
10 *1850:B *326:18 4.3375e-05
11 *1874:A *248:12 7.49327e-05
12 *1874:A *524:78 4.80285e-05
13 *223:10 *1849:A 6.16204e-05
14 *223:10 *248:12 4.82919e-05
15 *223:10 *524:78 2.05056e-05
16 *223:14 *1868:B1 0.000122885
17 *223:14 *1875:B1 4.65721e-05
18 *1848:B *223:10 4.82863e-05
19 *1850:A *1850:B 0.000182123
20 *1850:A *223:14 0.000138551
*RES
1 *1849:Y *223:10 3.55 
2 *223:10 *223:14 4.655 
3 *223:14 *1875:A1 3.6 
4 *223:14 *1850:B 7.185 
5 *223:10 *1874:A 2.395 
*END

*D_NET *224 0.00112183
*CONN
*I *1852:A3 I *D sky130_fd_sc_hd__a31oi_1
*I *1851:B1 I *D sky130_fd_sc_hd__a21o_1
*I *1850:Y O *D sky130_fd_sc_hd__nand2_1
*CAP
1 *1852:A3 0.000156762
2 *1851:B1 0
3 *1850:Y 0.000191723
4 *224:14 0.000348485
5 *1852:A3 *1841:A 0
6 *1852:A3 *1868:A1 1.16578e-05
7 *1852:A3 *1868:A2 4.18603e-06
8 *1852:A3 *225:21 2.82948e-05
9 *224:14 *1868:A1 9.00809e-05
10 *224:14 *1868:B1 8.50297e-05
11 *224:14 *326:18 2.32688e-05
12 *1845:B *1852:A3 1.68507e-05
13 *1845:B *224:14 2.11084e-05
14 *1850:B *224:14 4.82863e-05
15 *1851:A1 *1852:A3 8.65961e-05
16 *1851:A2 *1852:A3 9.50342e-06
17 *1851:A2 *224:14 0
18 *1852:A2 *1852:A3 0
19 *1852:B1 *1852:A3 0
*RES
1 *1850:Y *224:14 8.915 
2 *224:14 *1851:B1 1.6 
3 *224:14 *1852:A3 8.525 
*END

*D_NET *225 0.00122515
*CONN
*I *1875:A2 I *D sky130_fd_sc_hd__a21o_1
*I *1874:B I *D sky130_fd_sc_hd__and3_1
*I *1868:A1 I *D sky130_fd_sc_hd__a21o_1
*I *1851:X O *D sky130_fd_sc_hd__a21o_1
*CAP
1 *1875:A2 0
2 *1874:B 0.000174246
3 *1868:A1 0.000112393
4 *1851:X 0
5 *225:21 0.000237346
6 *225:4 0.000175494
7 *1868:A1 *1868:A2 0
8 *1874:B *1875:B1 0.000116158
9 *1874:B *2117:A 0.000114492
10 *1845:B *1868:A1 3.52139e-06
11 *1845:B *1874:B 8.49936e-05
12 *1845:B *225:21 2.8185e-05
13 *1852:A3 *1868:A1 1.16578e-05
14 *1852:A3 *225:21 2.82948e-05
15 *192:28 *1874:B 4.82863e-05
16 *224:14 *1868:A1 9.00809e-05
*RES
1 *1851:X *225:4 1.6 
2 *225:4 *1868:A1 7.265 
3 *225:4 *225:21 1.41 
4 *225:21 *1874:B 9.275 
5 *225:21 *1875:A2 1.6 
*END

*D_NET *226 0.000644764
*CONN
*I *1868:A2 I *D sky130_fd_sc_hd__a21o_1
*I *1852:Y O *D sky130_fd_sc_hd__a31oi_1
*CAP
1 *1868:A2 0.000173861
2 *1852:Y 0.000173861
3 *1868:A2 *1841:A 2.0117e-05
4 *1868:A2 *2070:A 1.89738e-05
5 *1868:A2 *326:18 0.000239813
6 *1868:A2 *501:8 1.39525e-05
7 *1852:A3 *1868:A2 4.18603e-06
8 *1868:A1 *1868:A2 0
*RES
1 *1852:Y *1868:A2 10.755 
*END

*D_NET *227 0.00114746
*CONN
*I *1857:D I *D sky130_fd_sc_hd__and4b_1
*I *1854:A I *D sky130_fd_sc_hd__inv_2
*I *1853:X O *D sky130_fd_sc_hd__a21o_1
*CAP
1 *1857:D 0.000183051
2 *1854:A 0
3 *1853:X 4.14165e-05
4 *227:12 0.000224468
5 *1857:D *1856:A1_N 0.000162073
6 *1857:D *1856:A2_N 0.000184989
7 *1857:D *1856:B1 4.35034e-05
8 *1857:D *1856:B2 1.34594e-05
9 *1857:D *229:21 9.45889e-05
10 *227:12 *1853:A1 0.00011852
11 *227:12 *1856:B1 1.39832e-05
12 *227:12 *492:87 6.74079e-05
*RES
1 *1853:X *227:12 7.115 
2 *227:12 *1854:A 1.6 
3 *227:12 *1857:D 5.84125 
*END

*D_NET *228 0.000157082
*CONN
*I *1856:B1 I *D sky130_fd_sc_hd__o2bb2a_1
*I *1854:Y O *D sky130_fd_sc_hd__inv_2
*CAP
1 *1856:B1 4.97975e-05
2 *1854:Y 4.97975e-05
3 *1857:D *1856:B1 4.35034e-05
4 *227:12 *1856:B1 1.39832e-05
*RES
1 *1854:Y *1856:B1 3.995 
*END

*D_NET *229 0.00145277
*CONN
*I *1877:A I *D sky130_fd_sc_hd__nor2_1
*I *1857:A_N I *D sky130_fd_sc_hd__and4b_1
*I *1856:B2 I *D sky130_fd_sc_hd__o2bb2a_1
*I *1855:X O *D sky130_fd_sc_hd__and3_1
*CAP
1 *1877:A 2.02426e-05
2 *1857:A_N 0
3 *1856:B2 3.71857e-05
4 *1855:X 3.3729e-05
5 *229:21 0.000215773
6 *229:10 0.000266445
7 *1877:A *1856:A1_N 0
8 *1877:A *1877:B 6.85293e-05
9 *1877:A *527:109 2.30292e-05
10 *229:10 *1855:B 7.06865e-05
11 *229:10 *529:35 3.86607e-05
12 *229:21 *1856:A1_N 0.000209199
13 *229:21 *1877:B 0.000224698
14 *229:21 *232:6 4.82919e-05
15 *229:21 *527:109 8.82557e-05
16 *1857:D *1856:B2 1.34594e-05
17 *1857:D *229:21 9.45889e-05
*RES
1 *1855:X *229:10 6.47 
2 *229:10 *1856:B2 2.05 
3 *229:10 *229:21 5.205 
4 *229:21 *1857:A_N 1.6 
5 *229:21 *1877:A 2.41 
*END

*D_NET *230 0.00213312
*CONN
*I *1813:C I *D sky130_fd_sc_hd__and4b_2
*I *1812:B1 I *D sky130_fd_sc_hd__o2111a_1
*I *1822:B I *D sky130_fd_sc_hd__and4b_2
*I *1820:A I *D sky130_fd_sc_hd__nor3_1
*I *1586:Y O *D sky130_fd_sc_hd__inv_2
*CAP
1 *1813:C 1.10148e-05
2 *1812:B1 0.000143319
3 *1822:B 0
4 *1820:A 0
5 *1586:Y 2.70639e-05
6 *230:19 0.000193142
7 *230:13 0.000135574
8 *230:6 0.0001018
9 *1812:B1 *1812:D1 8.65905e-05
10 *1812:B1 *1813:B 4.41506e-05
11 *1812:B1 *1831:B_N 4.66108e-05
12 *1812:B1 *500:35 3.70746e-05
13 *1813:C *2089:A 4.66108e-05
14 *230:6 *1586:A 4.66108e-05
15 *230:6 *2089:A 4.41506e-05
16 *230:6 *489:41 2.30292e-05
17 *230:13 *2089:A 0.000223887
18 *230:13 *489:41 6.20787e-05
19 *230:19 *1813:B 0.000158297
20 *230:19 *530:19 0.000159964
21 *1815:A *1813:C 3.66286e-05
22 *1815:A *230:13 8.40269e-05
23 *1820:C *230:13 0.000124895
24 *1821:C *1812:B1 8.65961e-05
25 *1827:A *1812:B1 0.000197264
26 *191:72 *1812:B1 1.27393e-05
*RES
1 *1586:Y *230:6 2.395 
2 *230:6 *1820:A 1.6 
3 *230:6 *230:13 2.865 
4 *230:13 *230:19 5.89 
5 *230:19 *1822:B 1.6 
6 *230:19 *1812:B1 5.425 
7 *230:13 *1813:C 2.05 
*END

*D_NET *231 0.000351955
*CONN
*I *1858:A I *D sky130_fd_sc_hd__nor2_1
*I *1856:X O *D sky130_fd_sc_hd__o2bb2a_1
*CAP
1 *1858:A 3.50658e-05
2 *1856:X 3.50658e-05
3 *1858:A *1832:A2 0.000140912
4 *202:21 *1858:A 0.000140912
*RES
1 *1856:X *1858:A 8.835 
*END

*D_NET *232 0.00124913
*CONN
*I *1877:B I *D sky130_fd_sc_hd__nor2_1
*I *1858:B I *D sky130_fd_sc_hd__nor2_1
*I *1857:X O *D sky130_fd_sc_hd__and4b_1
*CAP
1 *1877:B 0.0002026
2 *1858:B 4.15857e-05
3 *1857:X 2.70315e-05
4 *232:6 0.000271217
5 *1858:B *1832:A2 0.000162332
6 *1858:B *532:24 0.000162332
7 *1877:B *253:12 1.08758e-05
8 *1877:B *527:109 2.96334e-05
9 *1877:A *1877:B 6.85293e-05
10 *229:21 *1877:B 0.000224698
11 *229:21 *232:6 4.82919e-05
*RES
1 *1857:X *232:6 2.05 
2 *232:6 *1858:B 7.49 
3 *232:6 *1877:B 5.425 
*END

*D_NET *233 0.00107887
*CONN
*I *1860:B I *D sky130_fd_sc_hd__nor2_1
*I *1859:B I *D sky130_fd_sc_hd__and2_1
*I *1858:Y O *D sky130_fd_sc_hd__nor2_1
*CAP
1 *1860:B 8.39268e-05
2 *1859:B 0
3 *1858:Y 0.000264883
4 *233:12 0.00034881
5 *1860:B *234:12 0.000124007
6 *1860:B *538:28 2.8185e-05
7 *233:12 *1863:B 0
8 *233:12 *2078:A 6.72692e-05
9 *233:12 *545:33 6.02202e-05
10 *1860:A *1860:B 0.00010157
*RES
1 *1858:Y *233:12 9.155 
2 *233:12 *1859:B 1.6 
3 *233:12 *1860:B 4.15 
*END

*D_NET *234 0.00343457
*CONN
*I *1861:A I *D sky130_fd_sc_hd__nor2_1
*I *1890:A I *D sky130_fd_sc_hd__nand2_1
*I *1889:A I *D sky130_fd_sc_hd__and2_1
*I *1891:A1 I *D sky130_fd_sc_hd__o21a_1
*I *1859:X O *D sky130_fd_sc_hd__and2_1
*CAP
1 *1861:A 0
2 *1890:A 2.80193e-05
3 *1889:A 0.000148976
4 *1891:A1 0
5 *1859:X 0.000288445
6 *234:27 0.000331529
7 *234:16 0.000337186
8 *234:12 0.000471097
9 *1889:A *1890:B 0.000113983
10 *1889:A *1895:B1 4.82919e-05
11 *1889:A *526:62 3.52139e-06
12 *1890:A *265:17 0
13 *1890:A *534:153 4.21314e-05
14 *234:12 *1864:B2 3.09233e-05
15 *234:12 *2052:A 5.16418e-05
16 *234:12 *524:25 4.19884e-05
17 *234:12 *535:22 0.000108527
18 *234:12 *538:28 7.95488e-05
19 *234:16 *1893:B2 0.000279787
20 *234:16 *2052:A 4.66108e-05
21 *234:16 *540:97 0.000122331
22 *234:16 *540:110 0.000260466
23 *234:27 *1891:A2 8.05167e-05
24 *234:27 *1893:B2 7.49327e-05
25 *234:27 *265:17 0
26 *234:27 *534:153 0.000141606
27 *234:27 *540:110 8.88631e-05
28 *1860:B *234:12 0.000124007
29 *1891:B1 *234:16 4.99619e-05
30 *1892:B1 *234:16 3.96737e-05
*RES
1 *1859:X *234:12 11.045 
2 *234:12 *234:16 5.64 
3 *234:16 *1891:A1 1.6 
4 *234:16 *234:27 5.81 
5 *234:27 *1889:A 6.15 
6 *234:27 *1890:A 4.215 
7 *234:12 *1861:A 1.6 
*END

*D_NET *235 0.000797494
*CONN
*I *1861:B I *D sky130_fd_sc_hd__nor2_1
*I *1860:Y O *D sky130_fd_sc_hd__nor2_1
*CAP
1 *1861:B 9.34263e-05
2 *1860:Y 9.34263e-05
3 *1861:B *1863:B 9.54399e-05
4 *1861:B *1864:B2 0.000122331
5 *1861:B *2052:A 6.12936e-05
6 *1861:B *490:27 0.000136877
7 *1861:B *545:33 0
8 *1892:B1 *1861:B 0.0001947
*RES
1 *1860:Y *1861:B 10.665 
*END

*D_NET *236 0.000834385
*CONN
*I *1866:B1 I *D sky130_fd_sc_hd__a221o_1
*I *1861:Y O *D sky130_fd_sc_hd__nor2_1
*CAP
1 *1866:B1 0.000206437
2 *1861:Y 0.000206437
3 *1866:B1 *1866:C1 4.82863e-05
4 *1866:B1 *535:22 9.28013e-05
5 *1866:B1 *563:14 8.53113e-06
6 *1866:B1 *563:69 9.28013e-05
7 *1866:B2 *1866:B1 2.65346e-05
8 *1892:B1 *1866:B1 8.40213e-05
9 *188:28 *1866:B1 6.85342e-05
*RES
1 *1861:Y *1866:B1 10.95 
*END

*D_NET *237 0.00260678
*CONN
*I *1863:B I *D sky130_fd_sc_hd__and2b_1
*I *1909:A I *D sky130_fd_sc_hd__xnor2_2
*I *1862:Y O *D sky130_fd_sc_hd__nand2_1
*CAP
1 *1863:B 0.000475231
2 *1909:A 0.000127335
3 *1862:Y 0
4 *237:6 0.000602566
5 *1863:B *1862:B 0.000417986
6 *1863:B *1906:A1 0.000140912
7 *1863:B *2052:A 4.66108e-05
8 *1863:B *2078:A 0.000159957
9 *1863:B *490:27 0.000319098
10 *1863:B *545:33 0
11 *1863:B *545:37 0
12 *1909:A *1862:B 5.16418e-05
13 *1909:A *1909:B 3.25831e-05
14 *1909:A *490:27 0.000137422
15 *1909:A *523:16 0
16 *1861:B *1863:B 9.54399e-05
17 *233:12 *1863:B 0
*RES
1 *1862:Y *237:6 3.6 
2 *237:6 *1909:A 6.51 
3 *237:6 *1863:B 15.375 
*END

*D_NET *238 0.000791098
*CONN
*I *1864:B2 I *D sky130_fd_sc_hd__o22a_1
*I *1863:X O *D sky130_fd_sc_hd__and2b_1
*CAP
1 *1864:B2 0.000101064
2 *1863:X 0.000101064
3 *1864:B2 *2052:A 0.000239147
4 *1864:B2 *535:22 0.00017741
5 *1861:B *1864:B2 0.000122331
6 *1892:B1 *1864:B2 1.91597e-05
7 *234:12 *1864:B2 3.09233e-05
*RES
1 *1863:X *1864:B2 10.83 
*END

*D_NET *239 0.000116037
*CONN
*I *1866:C1 I *D sky130_fd_sc_hd__a221o_1
*I *1864:X O *D sky130_fd_sc_hd__o22a_1
*CAP
1 *1866:C1 9.73191e-06
2 *1864:X 9.73191e-06
3 *1866:B1 *1866:C1 4.82863e-05
4 *188:28 *1866:C1 4.82863e-05
*RES
1 *1864:X *1866:C1 3.65 
*END

*D_NET *240 0.000379995
*CONN
*I *1867:B1 I *D sky130_fd_sc_hd__a211o_1
*I *1865:X O *D sky130_fd_sc_hd__a32o_1
*CAP
1 *1867:B1 0.000101662
2 *1865:X 0.000101662
3 *1867:B1 *1868:B1 7.23602e-05
4 *1867:B1 *1924:A2 3.24385e-05
5 *1867:B1 *552:10 7.18727e-05
*RES
1 *1865:X *1867:B1 9.285 
*END

*D_NET *241 0.00873627
*CONN
*I *2026:A I *D sky130_fd_sc_hd__or4b_1
*I *1663:B I *D sky130_fd_sc_hd__nor2_4
*I *1677:B1 I *D sky130_fd_sc_hd__a21o_1
*I *1664:B I *D sky130_fd_sc_hd__nand2_1
*I *1587:Y O *D sky130_fd_sc_hd__inv_2
*CAP
1 *2026:A 0
2 *1663:B 0.000233007
3 *1677:B1 5.65791e-05
4 *1664:B 0.000119696
5 *1587:Y 0.000205134
6 *241:39 0.00061685
7 *241:28 0.0012409
8 *241:16 0.000999072
9 *1663:B *1645:A 0.000127372
10 *1663:B *546:121 5.89912e-05
11 *1663:B *565:58 5.12944e-06
12 *1664:B *493:10 0
13 *1664:B *546:73 0.000129291
14 *1677:B1 *1677:A1 5.83121e-06
15 *1677:B1 *471:20 6.33103e-05
16 *241:16 *1644:S 1.16578e-05
17 *241:16 *1924:A2 8.53113e-06
18 *241:16 *2084:A 0.000120586
19 *241:16 *475:83 0.000450562
20 *241:16 *477:8 1.46828e-05
21 *241:16 *515:88 0.000183917
22 *241:28 *1613:B 0.000114753
23 *241:28 *1660:A2 9.52646e-05
24 *241:28 *475:68 3.32246e-05
25 *241:28 *475:81 0.000327333
26 *241:28 *477:8 4.66108e-05
27 *241:28 *517:14 7.17811e-05
28 *241:28 *517:25 8.5225e-05
29 *241:39 *1645:A 0.000489644
30 *241:39 *1670:A1 0.000159964
31 *241:39 *479:10 0.000116853
32 *241:39 *479:12 7.23533e-05
33 *241:39 *546:73 6.63413e-05
34 *241:39 *546:121 2.05583e-05
35 *1659:B1 *241:28 0.000114492
36 *1670:B1 *241:39 0.000159964
37 *1675:A *1663:B 8.03494e-05
38 *1676:A *1663:B 0.000170897
39 *1676:B *1663:B 0.000231634
40 *35:10 *241:28 0.000690079
41 *43:12 *1677:B1 0.00015639
42 *44:10 *1663:B 5.16418e-05
43 *44:10 *241:39 0.000696784
44 *45:56 *1663:B 2.75025e-05
45 *45:56 *241:39 0
46 *64:14 *1663:B 5.53549e-06
*RES
1 *1587:Y *241:16 11.975 
2 *241:16 *241:28 20.205 
3 *241:28 *1664:B 6.255 
4 *241:28 *241:39 11.58 
5 *241:39 *1677:B1 5.085 
6 *241:39 *1663:B 9.525 
7 *241:16 *2026:A 1.6 
*END

*D_NET *242 0.00444701
*CONN
*I *1867:C1 I *D sky130_fd_sc_hd__a211o_1
*I *1866:X O *D sky130_fd_sc_hd__a221o_1
*CAP
1 *1867:C1 0.00189348
2 *1866:X 0.00189348
3 *1867:C1 *1867:A1 5.32116e-05
4 *1867:C1 *1896:A1 6.1357e-05
5 *1867:C1 *337:16 8.40269e-05
6 *1867:C1 *528:22 2.39856e-05
7 *1867:C1 *545:29 6.98801e-05
8 *1836:A2 *1867:C1 0.000160219
9 *1836:A3 *1867:C1 0.000114233
10 *1866:A2 *1867:C1 3.00381e-05
11 *188:28 *1867:C1 6.31099e-05
*RES
1 *1866:X *1867:C1 25.865 
*END

*D_NET *243 0.00443776
*CONN
*I *1868:B1 I *D sky130_fd_sc_hd__a21o_1
*I *1867:X O *D sky130_fd_sc_hd__a211o_1
*CAP
1 *1868:B1 0.0010893
2 *1867:X 0.0010893
3 *1868:B1 *1781:C1 6.07575e-06
4 *1868:B1 *1867:A1 2.75229e-05
5 *1868:B1 *1867:A2 2.8185e-05
6 *1868:B1 *1869:A1 0.000215155
7 *1868:B1 *1873:A 0.000140912
8 *1868:B1 *1897:A_N 0
9 *1868:B1 *1924:A2 0.000271327
10 *1868:B1 *245:10 0
11 *1868:B1 *248:12 0.000418361
12 *1868:B1 *326:18 4.82863e-05
13 *1868:B1 *493:34 0
14 *1868:B1 *543:23 5.83121e-06
15 *1868:B1 *552:10 0.000286976
16 *1850:A *1868:B1 5.69248e-06
17 *1850:B *1868:B1 6.609e-05
18 *1851:A2 *1868:B1 0
19 *1867:B1 *1868:B1 7.23602e-05
20 *1925:A1 *1868:B1 0.000458472
21 *221:12 *1868:B1 0
22 *223:14 *1868:B1 0.000122885
23 *224:14 *1868:B1 8.50297e-05
*RES
1 *1867:X *1868:B1 32.955 
*END

*D_NET *244 0.000155412
*CONN
*I *1870:B I *D sky130_fd_sc_hd__xnor2_1
*I *1869:X O *D sky130_fd_sc_hd__o31a_1
*CAP
1 *1870:B 3.4408e-05
2 *1869:X 3.4408e-05
3 *1870:B *542:109 8.65961e-05
*RES
1 *1869:X *1870:B 3.995 
*END

*D_NET *245 0.000701147
*CONN
*I *1872:B I *D sky130_fd_sc_hd__nand2_1
*I *1871:B I *D sky130_fd_sc_hd__or2_1
*I *1870:Y O *D sky130_fd_sc_hd__xnor2_1
*CAP
1 *1872:B 2.95762e-05
2 *1871:B 0
3 *1870:Y 0.000136848
4 *245:10 0.000166424
5 *1872:B *1871:A 3.04064e-05
6 *1872:B *1872:A 1.37328e-05
7 *245:10 *1897:A_N 0.000269952
8 *245:10 *552:10 2.66935e-05
9 *1868:B1 *245:10 0
10 *191:22 *1872:B 2.75145e-05
*RES
1 *1870:Y *245:10 8.765 
2 *245:10 *1871:B 1.6 
3 *245:10 *1872:B 2.41 
*END

*D_NET *246 0.000401854
*CONN
*I *1873:A I *D sky130_fd_sc_hd__nand2_1
*I *1871:X O *D sky130_fd_sc_hd__or2_1
*CAP
1 *1873:A 0.000100738
2 *1871:X 0.000100738
3 *1873:A *1897:A_N 0
4 *1868:B1 *1873:A 0.000140912
5 *1925:A1 *1873:A 9.50342e-06
6 *191:22 *1873:A 4.99619e-05
*RES
1 *1871:X *1873:A 9.285 
*END

*D_NET *247 0.00160286
*CONN
*I *1902:A1 I *D sky130_fd_sc_hd__a21oi_1
*I *1901:A I *D sky130_fd_sc_hd__and3_1
*I *1873:B I *D sky130_fd_sc_hd__nand2_1
*I *1872:Y O *D sky130_fd_sc_hd__nand2_1
*CAP
1 *1902:A1 1.86838e-05
2 *1901:A 0
3 *1873:B 0.000228259
4 *1872:Y 0.000130082
5 *247:25 5.44826e-05
6 *247:14 0.00039414
7 *1873:B *1925:B1 4.66108e-05
8 *1873:B *526:98 0.000194317
9 *1902:A1 *1902:B1 8.57024e-05
10 *1902:A1 *526:98 4.21973e-05
11 *247:14 *1902:B1 0
12 *247:14 *1925:B1 0.000132842
13 *247:14 *277:10 7.09999e-05
14 *247:25 *1901:C 5.49479e-05
15 *247:25 *1902:B1 3.74161e-05
16 *247:25 *526:98 6.3889e-05
17 *191:22 *247:14 4.82919e-05
*RES
1 *1872:Y *247:14 8.045 
2 *247:14 *1873:B 5.515 
3 *247:14 *247:25 1.14 
4 *247:25 *1901:A 1.6 
5 *247:25 *1902:A1 2.395 
*END

*D_NET *248 0.00198351
*CONN
*I *1874:C I *D sky130_fd_sc_hd__and3_1
*I *1875:B1 I *D sky130_fd_sc_hd__a21o_1
*I *1873:Y O *D sky130_fd_sc_hd__nand2_1
*CAP
1 *1874:C 3.62752e-05
2 *1875:B1 0.000130898
3 *1873:Y 0.000314365
4 *248:12 0.000481538
5 *1874:C *524:78 2.04613e-05
6 *1875:B1 *2117:A 7.00144e-05
7 *248:12 *2117:A 0
8 *248:12 *524:78 1.47347e-05
9 *1850:A *1875:B1 0.000138551
10 *1868:B1 *248:12 0.000418361
11 *1874:A *248:12 7.49327e-05
12 *1874:B *1875:B1 0.000116158
13 *1925:A1 *248:12 7.23533e-05
14 *223:10 *248:12 4.82919e-05
15 *223:14 *1875:B1 4.65721e-05
*RES
1 *1873:Y *248:12 12.035 
2 *248:12 *1875:B1 8.96 
3 *248:12 *1874:C 2.11 
*END

*D_NET *249 0.000282565
*CONN
*I *1876:B I *D sky130_fd_sc_hd__or3b_1
*I *1874:X O *D sky130_fd_sc_hd__and3_1
*CAP
1 *1876:B 6.16333e-05
2 *1874:X 6.16333e-05
3 *1876:B *1897:A_N 7.23533e-05
4 *1845:B *1876:B 4.82919e-05
5 *1876:A *1876:B 3.86529e-05
*RES
1 *1874:X *1876:B 8.52 
*END

*D_NET *250 0.00196077
*CONN
*I *1876:C_N I *D sky130_fd_sc_hd__or3b_1
*I *1902:A2 I *D sky130_fd_sc_hd__a21oi_1
*I *1901:B I *D sky130_fd_sc_hd__and3_1
*I *1875:X O *D sky130_fd_sc_hd__a21o_1
*CAP
1 *1876:C_N 0
2 *1902:A2 0
3 *1901:B 0.000130777
4 *1875:X 0.000132047
5 *250:10 0.000660487
6 *250:6 0.000661757
7 *1901:B *1925:A3 0.000122331
8 *1901:B *1955:A2 0
9 *1901:B *277:10 3.86607e-05
10 *250:10 *1897:A_N 0
11 *250:10 *1955:A2 0
12 *250:10 *277:10 2.23407e-05
13 *1845:B *250:6 0.000148277
14 *1876:A *250:10 4.40899e-05
*RES
1 *1875:X *250:6 4.12 
2 *250:6 *250:10 10.265 
3 *250:10 *1901:B 5.61 
4 *250:10 *1902:A2 3.6 
5 *250:6 *1876:C_N 1.6 
*END

*D_NET *251 0.00165459
*CONN
*I *2026:B I *D sky130_fd_sc_hd__or4b_1
*I *1660:A1 I *D sky130_fd_sc_hd__o211ai_2
*I *1588:Y O *D sky130_fd_sc_hd__inv_2
*CAP
1 *2026:B 4.76306e-05
2 *1660:A1 0.000244243
3 *1588:Y 6.49052e-05
4 *251:6 0.000356779
5 *1660:A1 *446:10 1.26548e-05
6 *1660:A1 *493:23 0.000287323
7 *1660:A1 *551:25 0.000134509
8 *1660:A1 *551:107 0.000185405
9 *2026:B *1613:B 0.000133763
10 *2026:B *446:10 0.000105849
11 *2026:B *517:25 5.4003e-05
12 *251:6 *517:29 2.75229e-05
*RES
1 *1588:Y *251:6 2.395 
2 *251:6 *1660:A1 10.76 
3 *251:6 *2026:B 7.745 
*END

*D_NET *252 0.00033184
*CONN
*I *1897:B I *D sky130_fd_sc_hd__nand2b_1
*I *1876:X O *D sky130_fd_sc_hd__or3b_1
*CAP
1 *1897:B 5.33118e-05
2 *1876:X 5.33118e-05
3 *1897:B *1897:A_N 0.000102322
4 *1897:B *2117:A 0.00011163
5 *1897:B *326:18 1.12643e-05
*RES
1 *1876:X *1897:B 8.68875 
*END

*D_NET *253 0.00179037
*CONN
*I *1884:A_N I *D sky130_fd_sc_hd__and2b_1
*I *1885:A I *D sky130_fd_sc_hd__xnor2_1
*I *1877:Y O *D sky130_fd_sc_hd__nor2_1
*CAP
1 *1884:A_N 8.44717e-05
2 *1885:A 0
3 *1877:Y 0.000565516
4 *253:12 0.000649988
5 *1884:A_N *1884:B 0.00011964
6 *253:12 *2059:A 0
7 *253:12 *2078:A 0.000236026
8 *253:12 *259:12 0.000116165
9 *253:12 *527:109 7.68414e-06
10 *253:12 *537:69 0
11 *1877:B *253:12 1.08758e-05
*RES
1 *1877:Y *253:12 13.205 
2 *253:12 *1885:A 1.6 
3 *253:12 *1884:A_N 3.43 
*END

*D_NET *254 0.000955358
*CONN
*I *1883:A I *D sky130_fd_sc_hd__xnor2_1
*I *1906:A1 I *D sky130_fd_sc_hd__o21ba_1
*I *1878:Y O *D sky130_fd_sc_hd__nand2_1
*CAP
1 *1883:A 0.000160823
2 *1906:A1 0.000109079
3 *1878:Y 0
4 *254:4 0.000269901
5 *1883:A *527:51 0.000119762
6 *1906:A1 *1878:A 1.56428e-05
7 *1906:A1 *490:27 0.000139238
8 *1863:B *1906:A1 0.000140912
*RES
1 *1878:Y *254:4 1.6 
2 *254:4 *1906:A1 8.03 
3 *254:4 *1883:A 4.615 
*END

*D_NET *255 0.000781984
*CONN
*I *1908:A2 I *D sky130_fd_sc_hd__a21oi_2
*I *1879:Y O *D sky130_fd_sc_hd__nand2_1
*CAP
1 *1908:A2 0.000238625
2 *1879:Y 0.000238625
3 *1908:A2 *1653:B 1.33293e-05
4 *1908:A2 *486:8 9.52646e-05
5 *1908:A2 *492:87 0.000120186
6 *1908:A2 *517:58 6.55328e-05
7 *1908:A2 *549:107 5.062e-06
8 *1908:A2 *549:118 5.35969e-06
*RES
1 *1879:Y *1908:A2 11.1 
*END

*D_NET *256 0.00174259
*CONN
*I *1906:B1_N I *D sky130_fd_sc_hd__o21ba_1
*I *1882:A I *D sky130_fd_sc_hd__nor2_1
*I *1880:X O *D sky130_fd_sc_hd__and3_1
*CAP
1 *1906:B1_N 1.6259e-05
2 *1882:A 0.000163623
3 *1880:X 0.000325365
4 *256:12 0.000505247
5 *1882:A *1882:B 0.000140904
6 *1882:A *1910:B 1.37328e-05
7 *1882:A *284:8 2.96334e-05
8 *1906:B1_N *527:45 4.38051e-05
9 *1906:B1_N *535:22 2.7881e-05
10 *256:12 *1862:A 4.72561e-05
11 *256:12 *1862:B 4.82863e-05
12 *256:12 *1881:A1 4.82863e-05
13 *256:12 *1881:A2 2.87621e-05
14 *256:12 *257:12 4.01778e-05
15 *256:12 *527:45 9.54469e-05
16 *256:12 *535:22 5.02217e-05
17 *1881:B1 *256:12 0.000117702
*RES
1 *1880:X *256:12 9.675 
2 *256:12 *1882:A 6.045 
3 *256:12 *1906:B1_N 4.215 
*END

*D_NET *257 0.00137765
*CONN
*I *1906:A2 I *D sky130_fd_sc_hd__o21ba_1
*I *1882:B I *D sky130_fd_sc_hd__nor2_1
*I *1881:Y O *D sky130_fd_sc_hd__a21oi_1
*CAP
1 *1906:A2 0
2 *1882:B 0.000136203
3 *1881:Y 0.00020272
4 *257:12 0.000338923
5 *1882:B *2025:B1 4.38278e-05
6 *1882:B *284:8 2.75229e-05
7 *257:12 *1862:A 0.000124895
8 *257:12 *490:27 0.000208491
9 *257:12 *527:45 0.000113988
10 *1882:A *1882:B 0.000140904
11 *256:12 *257:12 4.01778e-05
*RES
1 *1881:Y *257:12 10.175 
2 *257:12 *1882:B 4.495 
3 *257:12 *1906:A2 1.6 
*END

*D_NET *258 0.000232722
*CONN
*I *1883:B I *D sky130_fd_sc_hd__xnor2_1
*I *1882:Y O *D sky130_fd_sc_hd__nor2_1
*CAP
1 *1883:B 5.25128e-05
2 *1882:Y 5.25128e-05
3 *1883:B *524:25 6.20952e-05
4 *1883:B *535:22 6.56015e-05
*RES
1 *1882:Y *1883:B 8.58 
*END

*D_NET *259 0.00147753
*CONN
*I *1885:B I *D sky130_fd_sc_hd__xnor2_1
*I *1884:B I *D sky130_fd_sc_hd__and2b_1
*I *1883:Y O *D sky130_fd_sc_hd__xnor2_1
*CAP
1 *1885:B 0
2 *1884:B 0.000158797
3 *1883:Y 0.000275801
4 *259:12 0.000434597
5 *1884:B *261:18 0.000203178
6 *259:12 *2059:A 0
7 *259:12 *527:51 5.27885e-05
8 *259:12 *537:69 0.000116568
9 *1884:A_N *1884:B 0.00011964
10 *253:12 *259:12 0.000116165
*RES
1 *1883:Y *259:12 10.505 
2 *259:12 *1884:B 5.17 
3 *259:12 *1885:B 1.6 
*END

*D_NET *260 0.00207942
*CONN
*I *1914:A1 I *D sky130_fd_sc_hd__o21ai_1
*I *1915:A I *D sky130_fd_sc_hd__or3_1
*I *1884:X O *D sky130_fd_sc_hd__and2b_1
*CAP
1 *1914:A1 9.88487e-05
2 *1915:A 0
3 *1884:X 0.000649118
4 *260:10 0.000747967
5 *1914:A1 *1888:B 0
6 *1914:A1 *1914:A2 5.83121e-06
7 *1914:A1 *1914:B1 0.00017354
8 *1914:A1 *1916:B 0.000139245
9 *1914:A1 *292:12 2.49909e-05
10 *1914:A1 *388:10 0
11 *260:10 *1914:B1 9.50342e-06
12 *260:10 *261:18 0.000111853
13 *260:10 *291:8 0.00011852
14 *260:10 *388:10 0
*RES
1 *1884:X *260:10 11.64 
2 *260:10 *1915:A 3.6 
3 *260:10 *1914:A1 6.45 
*END

*D_NET *261 0.00175023
*CONN
*I *1887:B1 I *D sky130_fd_sc_hd__a21oi_1
*I *1886:C I *D sky130_fd_sc_hd__and3_1
*I *1885:Y O *D sky130_fd_sc_hd__xnor2_1
*CAP
1 *1887:B1 8.31127e-05
2 *1886:C 0
3 *1885:Y 0.000496366
4 *261:18 0.000579478
5 *1887:B1 *1886:A 0.000106429
6 *261:18 *1886:A 9.16333e-06
7 *261:18 *526:62 0.000160651
8 *261:18 *538:28 0
9 *1884:B *261:18 0.000203178
10 *260:10 *261:18 0.000111853
*RES
1 *1885:Y *261:18 13.745 
2 *261:18 *1886:C 1.6 
3 *261:18 *1887:B1 3.145 
*END

*D_NET *262 0.000670819
*CONN
*I *1598:A2 I *D sky130_fd_sc_hd__a2111oi_1
*I *1589:Y O *D sky130_fd_sc_hd__inv_2
*CAP
1 *1598:A2 6.23729e-05
2 *1589:Y 6.23729e-05
3 *1598:A2 *1598:A1 6.16148e-05
4 *1598:A2 *1807:C 8.49205e-05
5 *1598:A2 *550:67 8.82557e-05
6 *1956:A2 *1598:A2 7.49327e-05
7 *182:16 *1598:A2 0.00023635
*RES
1 *1589:Y *1598:A2 6.065 
*END

*D_NET *263 0.00169774
*CONN
*I *1914:A2 I *D sky130_fd_sc_hd__o21ai_1
*I *1888:A I *D sky130_fd_sc_hd__nor2_1
*I *1915:B I *D sky130_fd_sc_hd__or3_1
*I *1886:X O *D sky130_fd_sc_hd__and3_1
*CAP
1 *1914:A2 0.000218381
2 *1888:A 9.08204e-05
3 *1915:B 0.000176806
4 *1886:X 0
5 *263:21 0.000356886
6 *263:4 0.00022449
7 *1888:A *1888:B 8.23457e-05
8 *1888:A *1891:A2 5.05437e-05
9 *1914:A2 *1888:B 1.91597e-05
10 *1914:A2 *1914:B1 4.82863e-05
11 *1914:A2 *292:12 6.07575e-06
12 *1915:B *1887:A2 0.000183442
13 *263:21 *1888:B 0.000116158
14 *263:21 *526:62 0.00011852
15 *1914:A1 *1914:A2 5.83121e-06
*RES
1 *1886:X *263:4 1.6 
2 *263:4 *1915:B 4.84 
3 *263:4 *263:21 5.38 
4 *263:21 *1888:A 3.445 
5 *263:21 *1914:A2 4.825 
*END

*D_NET *264 0.000511801
*CONN
*I *1888:B I *D sky130_fd_sc_hd__nor2_1
*I *1887:Y O *D sky130_fd_sc_hd__a21oi_1
*CAP
1 *1888:B 0.000141679
2 *1887:Y 0.000141679
3 *1888:B *1914:B1 0
4 *1888:B *526:62 1.07797e-05
5 *1888:A *1888:B 8.23457e-05
6 *1914:A1 *1888:B 0
7 *1914:A2 *1888:B 1.91597e-05
8 *263:21 *1888:B 0.000116158
*RES
1 *1887:Y *1888:B 9.975 
*END

*D_NET *265 0.00193741
*CONN
*I *1890:B I *D sky130_fd_sc_hd__nand2_1
*I *1889:B I *D sky130_fd_sc_hd__and2_1
*I *1891:A2 I *D sky130_fd_sc_hd__o21a_1
*I *1888:Y O *D sky130_fd_sc_hd__nor2_1
*CAP
1 *1890:B 8.16061e-05
2 *1889:B 0
3 *1891:A2 0.000400581
4 *1888:Y 0
5 *265:17 0.000206636
6 *265:4 0.000525611
7 *1890:B *1893:A1 0
8 *1890:B *526:62 0.000122155
9 *1891:A2 *1893:B2 0.00012657
10 *265:17 *526:62 0.00022921
11 *265:17 *534:153 0
12 *1888:A *1891:A2 5.05437e-05
13 *1889:A *1890:B 0.000113983
14 *1890:A *265:17 0
15 *234:27 *1891:A2 8.05167e-05
16 *234:27 *265:17 0
*RES
1 *1888:Y *265:4 1.6 
2 *265:4 *1891:A2 6.535 
3 *265:4 *265:17 6.655 
4 *265:17 *1889:B 1.6 
5 *265:17 *1890:B 4.15 
*END

*D_NET *266 0.000550155
*CONN
*I *1917:A I *D sky130_fd_sc_hd__or2_1
*I *1918:A I *D sky130_fd_sc_hd__nand2_1
*I *1889:X O *D sky130_fd_sc_hd__and2_1
*CAP
1 *1917:A 0
2 *1918:A 9.27106e-05
3 *1889:X 0.000162421
4 *266:12 0.000255131
5 *1918:A *1917:B 3.54536e-05
6 *1918:A *1951:A 0
7 *266:12 *295:12 0
8 *266:12 *526:62 4.43871e-06
*RES
1 *1889:X *266:12 7.685 
2 *266:12 *1918:A 3.46 
3 *266:12 *1917:A 1.6 
*END

*D_NET *267 0.000839667
*CONN
*I *1895:B1 I *D sky130_fd_sc_hd__a221o_1
*I *1890:Y O *D sky130_fd_sc_hd__nand2_1
*CAP
1 *1895:B1 0.000245637
2 *1890:Y 0.000245637
3 *1895:B1 *1893:A1 0.000220071
4 *1895:B1 *1895:B2 1.12643e-05
5 *1895:B1 *1895:C1 4.82919e-05
6 *1895:B1 *526:62 2.04748e-05
7 *1889:A *1895:B1 4.82919e-05
*RES
1 *1890:Y *1895:B1 7.445 
*END

*D_NET *268 0.000474088
*CONN
*I *1895:B2 I *D sky130_fd_sc_hd__a221o_1
*I *1891:X O *D sky130_fd_sc_hd__o21a_1
*CAP
1 *1895:B2 0.000122308
2 *1891:X 0.000122308
3 *1895:B2 *1892:A1 0
4 *1895:B2 *1893:A1 1.12643e-05
5 *1895:B2 *1895:A1 4.18603e-06
6 *1895:B2 *1896:C1 0
7 *1895:B2 *540:110 8.8266e-05
8 *1891:B1 *1895:B2 0.000114492
9 *1895:B1 *1895:B2 1.12643e-05
*RES
1 *1891:X *1895:B2 9.48375 
*END

*D_NET *269 0.00114623
*CONN
*I *1893:B2 I *D sky130_fd_sc_hd__o22a_1
*I *1892:Y O *D sky130_fd_sc_hd__a21oi_1
*CAP
1 *1893:B2 0.000225829
2 *1892:Y 0.000225829
3 *1893:B2 *2059:A 0.000203776
4 *1891:A2 *1893:B2 0.00012657
5 *1891:B1 *1893:B2 0
6 *1893:B1 *1893:B2 9.50342e-06
7 *234:16 *1893:B2 0.000279787
8 *234:27 *1893:B2 7.49327e-05
*RES
1 *1892:Y *1893:B2 12.81 
*END

*D_NET *270 0.000116022
*CONN
*I *1895:C1 I *D sky130_fd_sc_hd__a221o_1
*I *1893:X O *D sky130_fd_sc_hd__o22a_1
*CAP
1 *1895:C1 9.71884e-06
2 *1893:X 9.71884e-06
3 *1895:C1 *1893:A1 4.82919e-05
4 *1895:B1 *1895:C1 4.82919e-05
*RES
1 *1893:X *1895:C1 3.65 
*END

*D_NET *271 0.000406561
*CONN
*I *1896:B1 I *D sky130_fd_sc_hd__a211o_1
*I *1894:X O *D sky130_fd_sc_hd__a32o_1
*CAP
1 *1896:B1 0.000104661
2 *1894:X 0.000104661
3 *1896:B1 *1896:C1 9.50342e-06
4 *1896:B1 *518:54 0
5 *1896:B1 *519:88 0.000139443
6 *1896:B1 *524:113 4.82919e-05
*RES
1 *1894:X *1896:B1 9.285 
*END

*D_NET *272 0.00572848
*CONN
*I *1896:C1 I *D sky130_fd_sc_hd__a211o_1
*I *1895:X O *D sky130_fd_sc_hd__a221o_1
*CAP
1 *1896:C1 0.00165401
2 *1895:X 0.00165401
3 *1896:C1 *1607:B1 0.00013529
4 *1896:C1 *1892:A1 4.18147e-05
5 *1896:C1 *2011:A2 0.000259683
6 *1896:C1 *2081:A 0.000454863
7 *1896:C1 *391:12 4.30179e-05
8 *1896:C1 *518:54 6.16226e-06
9 *1896:C1 *519:88 6.17895e-06
10 *1896:C1 *540:97 9.49575e-05
11 *1836:A1 *1896:C1 0.000718076
12 *1895:B2 *1896:C1 0
13 *1896:B1 *1896:C1 9.50342e-06
14 *205:62 *1896:C1 8.17624e-06
15 *205:64 *1896:C1 0.000642739
*RES
1 *1895:X *1896:C1 13.2115 
*END

*D_NET *273 0.00912655
*CONN
*I *1839:A I *D sky130_fd_sc_hd__xnor2_1
*I *1804:A1 I *D sky130_fd_sc_hd__a2111o_1
*I *2054:A I *D sky130_fd_sc_hd__buf_2
*I *1590:Y O *D sky130_fd_sc_hd__inv_2
*CAP
1 *1839:A 0.000407703
2 *1804:A1 0
3 *2054:A 0.000170909
4 *1590:Y 2.18567e-05
5 *273:27 0.00169678
6 *273:8 0.00148184
7 *1839:A *1844:A2 0
8 *1839:A *536:16 0
9 *2054:A *1637:A2 0.000222233
10 *2054:A *423:10 0.000485215
11 *2054:A *454:18 3.69766e-05
12 *2054:A *518:54 1.52184e-05
13 *2054:A *519:88 0.000153356
14 *2054:A *543:42 0
15 *273:8 *518:54 8.49205e-05
16 *273:8 *550:32 4.80285e-05
17 *273:27 *1596:D 0.00142449
18 *273:27 *1728:A0 0.000640627
19 *273:27 *1796:A1 1.97849e-05
20 *273:27 *515:33 1.71013e-05
21 *273:27 *515:42 0.000780433
22 *273:27 *518:54 0.000182096
23 *273:27 *519:88 0.000180321
24 *273:27 *536:16 0
25 *273:27 *536:20 0
26 *273:27 *543:42 0.000127929
27 *1781:A1 *273:27 0
28 *1804:B1 *273:27 0.000283851
29 *1839:B *1839:A 2.75145e-05
30 *1841:B *1839:A 5.55578e-05
31 *1843:A2 *1839:A 0.000113964
32 *103:8 *273:27 0.000103471
33 *103:10 *273:27 5.83121e-06
34 *105:10 *273:27 0.000248104
35 *167:25 *273:27 9.044e-05
*RES
1 *1590:Y *273:8 4.395 
2 *273:8 *2054:A 9.825 
3 *273:8 *273:27 39.865 
4 *273:27 *1804:A1 3.6 
5 *273:27 *1839:A 10.875 
*END

*D_NET *274 0.00493125
*CONN
*I *1897:A_N I *D sky130_fd_sc_hd__nand2b_1
*I *1896:X O *D sky130_fd_sc_hd__a211o_1
*CAP
1 *1897:A_N 0.00117957
2 *1896:X 0.00117957
3 *1897:A_N *1728:A0 4.65643e-05
4 *1897:A_N *1865:A1 5.16418e-05
5 *1897:A_N *1867:A1 5.83121e-06
6 *1897:A_N *1896:A1 6.97118e-05
7 *1897:A_N *1924:A1 6.16226e-06
8 *1897:A_N *1925:B1 0.000899599
9 *1897:A_N *2117:A 0.000663977
10 *1897:A_N *277:10 0
11 *1897:A_N *326:18 3.81111e-05
12 *1897:A_N *326:90 5.15163e-05
13 *1897:A_N *519:88 0.000114492
14 *1897:A_N *519:105 0.000143604
15 *1897:A_N *552:10 0
16 *1850:B *1897:A_N 1.67131e-05
17 *1868:B1 *1897:A_N 0
18 *1873:A *1897:A_N 0
19 *1876:A *1897:A_N 1.95608e-05
20 *1876:B *1897:A_N 7.23533e-05
21 *1897:B *1897:A_N 0.000102322
22 *1925:A1 *1897:A_N 0
23 *245:10 *1897:A_N 0.000269952
24 *250:10 *1897:A_N 0
*RES
1 *1896:X *1897:A_N 33.615 
*END

*D_NET *275 0.000272488
*CONN
*I *1899:B I *D sky130_fd_sc_hd__xor2_1
*I *1898:Y O *D sky130_fd_sc_hd__nand2_1
*CAP
1 *1899:B 4.54378e-05
2 *1898:Y 4.54378e-05
3 *1899:B *518:82 9.2741e-05
4 *191:14 *1899:B 1.91597e-05
5 *191:22 *1899:B 6.97118e-05
*RES
1 *1898:Y *1899:B 4.685 
*END

*D_NET *276 0.00092941
*CONN
*I *1955:A2 I *D sky130_fd_sc_hd__a21o_1
*I *1900:B I *D sky130_fd_sc_hd__xnor2_1
*I *1899:X O *D sky130_fd_sc_hd__xor2_1
*CAP
1 *1955:A2 0.000178696
2 *1900:B 9.33836e-05
3 *1899:X 0
4 *276:6 0.000272079
5 *1900:B *1925:B1 0
6 *1900:B *1955:A1 2.46498e-05
7 *1900:B *277:10 0
8 *1900:B *518:74 4.99619e-05
9 *1955:A2 *1955:A1 0.000269952
10 *1955:A2 *1955:B1 1.31735e-05
11 *1955:A2 *277:10 0
12 *1901:B *1955:A2 0
13 *191:22 *1900:B 2.75145e-05
14 *250:10 *1955:A2 0
*RES
1 *1899:X *276:6 3.6 
2 *276:6 *1900:B 5.31 
3 *276:6 *1955:A2 7.275 
*END

*D_NET *277 0.0010119
*CONN
*I *1902:B1 I *D sky130_fd_sc_hd__a21oi_1
*I *1901:C I *D sky130_fd_sc_hd__and3_1
*I *1900:Y O *D sky130_fd_sc_hd__xnor2_1
*CAP
1 *1902:B1 0.000156077
2 *1901:C 3.79806e-05
3 *1900:Y 0.000137069
4 *277:10 0.000331127
5 *1902:B1 *526:98 3.23663e-05
6 *277:10 *1925:B1 7.21296e-06
7 *1897:A_N *277:10 0
8 *1900:B *277:10 0
9 *1901:B *277:10 3.86607e-05
10 *1902:A1 *1902:B1 8.57024e-05
11 *1955:A2 *277:10 0
12 *247:14 *1902:B1 0
13 *247:14 *277:10 7.09999e-05
14 *247:25 *1901:C 5.49479e-05
15 *247:25 *1902:B1 3.74161e-05
16 *250:10 *277:10 2.23407e-05
*RES
1 *1900:Y *277:10 8 
2 *277:10 *1901:C 2.11 
3 *277:10 *1902:B1 3.79 
*END

*D_NET *278 0.000402067
*CONN
*I *1925:A2 I *D sky130_fd_sc_hd__o31ai_1
*I *1901:X O *D sky130_fd_sc_hd__and3_1
*CAP
1 *1925:A2 4.99798e-05
2 *1901:X 4.99798e-05
3 *1925:A2 *1925:A3 0.000122325
4 *1925:A2 *526:98 0.000179782
*RES
1 *1901:X *1925:A2 4.8575 
*END

*D_NET *279 0.0018241
*CONN
*I *1955:B1 I *D sky130_fd_sc_hd__a21o_1
*I *1925:A3 I *D sky130_fd_sc_hd__o31ai_1
*I *1902:Y O *D sky130_fd_sc_hd__a21oi_1
*CAP
1 *1955:B1 0.000229422
2 *1925:A3 0.000228001
3 *1902:Y 0
4 *279:4 0.000457423
5 *1925:A3 *526:98 0.000286318
6 *1955:B1 *1955:A1 6.18754e-05
7 *1955:B1 *2075:A 5.16418e-05
8 *1955:B1 *526:98 0.000232099
9 *1955:B1 *538:12 1.94892e-05
10 *1845:A *1955:B1 0
11 *1901:B *1925:A3 0.000122331
12 *1925:A2 *1925:A3 0.000122325
13 *1955:A2 *1955:B1 1.31735e-05
*RES
1 *1902:Y *279:4 1.6 
2 *279:4 *1925:A3 5.965 
3 *279:4 *1955:B1 10.175 
*END

*D_NET *280 0.00234031
*CONN
*I *1905:A I *D sky130_fd_sc_hd__or2_1
*I *1977:A1 I *D sky130_fd_sc_hd__a21o_1
*I *1947:A I *D sky130_fd_sc_hd__xnor2_1
*I *1903:X O *D sky130_fd_sc_hd__and4_1
*CAP
1 *1905:A 0
2 *1977:A1 0
3 *1947:A 0.000111895
4 *1903:X 0.000245354
5 *280:26 0.000267456
6 *280:22 0.000400915
7 *1947:A *1945:B1 0.00022921
8 *1947:A *1947:B 0.000162325
9 *1947:A *325:12 4.02903e-05
10 *1947:A *388:10 1.61717e-05
11 *280:22 *1904:A1 2.05571e-05
12 *280:22 *1905:B 4.9968e-05
13 *280:22 *1912:A_N 9.29751e-06
14 *280:22 *1913:B 0.000186185
15 *280:22 *526:19 4.65565e-05
16 *280:22 *526:62 8.57816e-05
17 *280:22 *527:76 0.000101924
18 *280:26 *1912:B 7.41529e-05
19 *280:26 *1977:A2 2.49909e-05
20 *280:26 *288:8 0.000237238
21 *280:26 *289:6 3.00381e-05
*RES
1 *1903:X *280:22 9.67667 
2 *280:22 *280:26 3.57 
3 *280:26 *1947:A 9.05 
4 *280:26 *1977:A1 1.6 
5 *280:22 *1905:A 1.6 
*END

*D_NET *281 0.000942333
*CONN
*I *1905:B I *D sky130_fd_sc_hd__or2_1
*I *1904:Y O *D sky130_fd_sc_hd__a22oi_1
*CAP
1 *1905:B 0.000158282
2 *1904:Y 0.000158282
3 *1905:B *1912:A_N 2.92496e-05
4 *1905:B *1912:B 0.000122337
5 *1905:B *1913:A 7.23602e-05
6 *1905:B *1944:B 3.09233e-05
7 *1905:B *1945:A2 6.45236e-05
8 *1905:B *282:8 4.82863e-05
9 *1905:B *288:8 2.75229e-05
10 *1905:B *289:6 0.000128956
11 *1905:B *526:19 5.16418e-05
12 *280:22 *1905:B 4.9968e-05
*RES
1 *1904:Y *1905:B 15.22 
*END

*D_NET *282 0.000928283
*CONN
*I *1913:A I *D sky130_fd_sc_hd__xnor2_1
*I *1912:A_N I *D sky130_fd_sc_hd__nand2b_1
*I *1905:X O *D sky130_fd_sc_hd__or2_1
*CAP
1 *1913:A 0.000117431
2 *1912:A_N 2.83655e-05
3 *1905:X 3.38751e-05
4 *282:8 0.000179671
5 *1912:A_N *1913:B 2.7881e-05
6 *1912:A_N *1944:B 2.34345e-05
7 *1913:A *1913:B 0.000154031
8 *1913:A *1945:A2 1.08856e-05
9 *1913:A *527:76 6.04396e-05
10 *1913:A *527:89 0.000133075
11 *1905:B *1912:A_N 2.92496e-05
12 *1905:B *1913:A 7.23602e-05
13 *1905:B *282:8 4.82863e-05
14 *280:22 *1912:A_N 9.29751e-06
*RES
1 *1905:X *282:8 4.05 
2 *282:8 *1912:A_N 4.47 
3 *282:8 *1913:A 7.02 
*END

*D_NET *283 0.0153959
*CONN
*I *1786:C1 I *D sky130_fd_sc_hd__a211o_1
*I *1787:C1 I *D sky130_fd_sc_hd__o211a_1
*I *1747:A I *D sky130_fd_sc_hd__xnor2_1
*I *2026:C I *D sky130_fd_sc_hd__or4b_1
*I *1646:A I *D sky130_fd_sc_hd__xnor2_2
*I *1702:B1 I *D sky130_fd_sc_hd__a21oi_1
*I *1703:B1 I *D sky130_fd_sc_hd__a21o_1
*I *1701:A I *D sky130_fd_sc_hd__and3_1
*I *1591:Y O *D sky130_fd_sc_hd__inv_2
*CAP
1 *1786:C1 2.29048e-05
2 *1787:C1 0
3 *1747:A 0.00060967
4 *2026:C 8.1783e-05
5 *1646:A 0
6 *1702:B1 0
7 *1703:B1 1.70954e-05
8 *1701:A 5.3611e-05
9 *1591:Y 2.75505e-05
10 *283:93 0.00085511
11 *283:85 0.000898873
12 *283:67 0.000712618
13 *283:32 0.000110494
14 *283:26 0.000882153
15 *283:12 0.00210277
16 *283:8 0.00128765
17 *1747:A *531:25 0.00015635
18 *1747:A *565:73 0
19 *2026:C *2026:D_N 0.000158072
20 *2026:C *477:8 0.000259544
21 *283:8 *1591:A 0.00012657
22 *283:8 *1645:A 7.49327e-05
23 *283:8 *471:49 0.000201503
24 *283:12 *1673:C 0.000222126
25 *283:12 *471:26 5.43215e-05
26 *283:12 *471:41 2.25075e-05
27 *283:12 *471:49 0.000585026
28 *283:12 *531:72 0
29 *283:12 *534:74 0.000127373
30 *283:12 *536:20 1.07797e-05
31 *283:12 *536:22 2.58818e-05
32 *283:12 *536:24 1.44259e-05
33 *283:26 *1698:B1 0.000164457
34 *283:26 *1709:B1 8.52845e-05
35 *283:26 *546:81 8.10455e-05
36 *283:67 *1645:A 0.000161407
37 *283:67 *1688:B1 4.82919e-05
38 *283:67 *2026:D_N 0.000124895
39 *283:67 *477:8 0.000188753
40 *283:67 *477:10 0.000200615
41 *283:67 *479:10 1.46828e-05
42 *283:67 *546:81 0.000156528
43 *283:85 *1725:A 0.000204456
44 *283:85 *531:72 0
45 *283:85 *536:16 0.000219628
46 *283:85 *536:20 0.000532857
47 *283:85 *542:63 0.000110315
48 *283:93 *1787:A2 9.81472e-05
49 *283:93 *497:29 0.000121027
50 *1674:D *283:12 0.000116165
51 *1700:B *1701:A 0
52 *1703:A2 *283:26 4.77719e-05
53 *1706:B1 *283:26 0
54 *1711:B *1701:A 7.91002e-05
55 *1711:B *1703:B1 2.49909e-05
56 *1716:A1 *283:12 0.000199734
57 *1733:B *283:85 1.88904e-05
58 *1747:B *1747:A 8.65905e-05
59 *1785:A *283:85 0.00038133
60 *1786:A1 *283:93 2.04648e-05
61 *1786:B1 *1786:C1 9.53428e-06
62 *1786:B1 *283:85 2.67275e-05
63 *1786:B1 *283:93 1.83756e-05
64 *1787:A1 *283:93 0.000158532
65 *48:12 *283:12 0.000163185
66 *48:12 *283:26 0
67 *73:12 *1701:A 0
68 *73:31 *1701:A 6.97034e-05
69 *73:31 *1703:B1 1.91597e-05
70 *74:8 *283:26 0.000172779
71 *74:14 *283:26 0.000122699
72 *77:12 *283:32 0.000139238
73 *84:44 *283:32 0.000137578
74 *97:10 *283:85 0.000827477
75 *97:21 *283:85 0.00013994
76 *155:14 *283:85 0
77 *162:12 *283:93 0.000201812
*RES
1 *1591:Y *283:8 5.43 
2 *283:8 *283:12 18.17 
3 *283:12 *283:26 17.23 
4 *283:26 *283:32 5.635 
5 *283:32 *1701:A 3.1 
6 *283:32 *1703:B1 2.05 
7 *283:26 *1702:B1 1.6 
8 *283:12 *283:67 11.85 
9 *283:67 *1646:A 1.6 
10 *283:67 *2026:C 4.12 
11 *283:8 *283:85 22.205 
12 *283:85 *283:93 5.76 
13 *283:93 *1747:A 14.84 
14 *283:93 *1787:C1 1.6 
15 *283:85 *1786:C1 2.215 
*END

*D_NET *284 0.00119291
*CONN
*I *1910:A_N I *D sky130_fd_sc_hd__nand2b_1
*I *1911:A I *D sky130_fd_sc_hd__xnor2_2
*I *1906:X O *D sky130_fd_sc_hd__o21ba_1
*CAP
1 *1910:A_N 0.000135143
2 *1911:A 0
3 *1906:X 0.000191229
4 *284:8 0.000326373
5 *1910:A_N *1910:B 0.000388784
6 *1910:A_N *289:6 4.66108e-05
7 *284:8 *1910:B 4.76128e-05
8 *1882:A *284:8 2.96334e-05
9 *1882:B *284:8 2.75229e-05
*RES
1 *1906:X *284:8 4.825 
2 *284:8 *1911:A 1.6 
3 *284:8 *1910:A_N 5.155 
*END

*D_NET *285 0.000572015
*CONN
*I *2124:A I *D sky130_fd_sc_hd__dlymetal6s2s_1
*I *1908:B1 I *D sky130_fd_sc_hd__a21oi_2
*I *1907:X O *D sky130_fd_sc_hd__and3_1
*CAP
1 *2124:A 2.946e-05
2 *1908:B1 0.000110899
3 *1907:X 2.08101e-05
4 *285:6 0.000161169
5 *1908:B1 *1907:B 0.000191236
6 *1908:B1 *1908:A1 4.43871e-06
7 *1908:B1 *517:58 0
8 *1907:C *1908:B1 5.4003e-05
*RES
1 *1907:X *285:6 1.96 
2 *285:6 *1908:B1 8.195 
3 *285:6 *2124:A 2.05 
*END

*D_NET *286 0.00129953
*CONN
*I *1932:A1 I *D sky130_fd_sc_hd__a31oi_2
*I *2122:A I *D sky130_fd_sc_hd__buf_2
*I *1908:Y O *D sky130_fd_sc_hd__a21oi_2
*CAP
1 *1932:A1 0
2 *2122:A 0.000207019
3 *1908:Y 0.000212185
4 *286:8 0.000419203
5 *2122:A *1932:A3 0.000139245
6 *2122:A *1932:B1 0.000161241
7 *286:8 *1932:A3 0.000160635
*RES
1 *1908:Y *286:8 4.825 
2 *286:8 *2122:A 9.425 
3 *286:8 *1932:A1 1.6 
*END

*D_NET *287 0.00218366
*CONN
*I *1911:B I *D sky130_fd_sc_hd__xnor2_2
*I *1910:B I *D sky130_fd_sc_hd__nand2b_1
*I *1909:Y O *D sky130_fd_sc_hd__xnor2_2
*CAP
1 *1911:B 0
2 *1910:B 0.000287876
3 *1909:Y 0.000144727
4 *287:12 0.000432604
5 *1910:B *289:6 2.45928e-05
6 *287:12 *1982:B1 0.000186627
7 *287:12 *523:16 0.000118294
8 *287:12 *537:69 0.000339879
9 *287:12 *544:30 0.000198934
10 *1882:A *1910:B 1.37328e-05
11 *1910:A_N *1910:B 0.000388784
12 *284:8 *1910:B 4.76128e-05
*RES
1 *1909:Y *287:12 11.36 
2 *287:12 *1910:B 7.01875 
3 *287:12 *1911:B 1.6 
*END

*D_NET *288 0.00220727
*CONN
*I *1945:A1 I *D sky130_fd_sc_hd__a21oi_1
*I *1944:A I *D sky130_fd_sc_hd__and3_1
*I *1910:Y O *D sky130_fd_sc_hd__nand2b_1
*CAP
1 *1945:A1 6.71235e-05
2 *1944:A 0.00015488
3 *1910:Y 0.000370228
4 *288:8 0.000592231
5 *1944:A *1944:B 0.000130134
6 *1944:A *1945:B1 0.000112813
7 *1944:A *323:14 1.70906e-05
8 *1945:A1 *1944:B 0.00011235
9 *1945:A1 *1945:A2 0.000139443
10 *1945:A1 *1945:B1 0.000143501
11 *288:8 *289:6 0.000102718
12 *1905:B *288:8 2.75229e-05
13 *280:26 *288:8 0.000237238
*RES
1 *1910:Y *288:8 8.535 
2 *288:8 *1944:A 6.825 
3 *288:8 *1945:A1 6.51 
*END

*D_NET *289 0.00198674
*CONN
*I *1912:B I *D sky130_fd_sc_hd__nand2b_1
*I *1913:B I *D sky130_fd_sc_hd__xnor2_1
*I *1911:Y O *D sky130_fd_sc_hd__xnor2_2
*CAP
1 *1912:B 4.30928e-05
2 *1913:B 0.000169538
3 *1911:Y 0.000262657
4 *289:6 0.000475288
5 *1912:B *1977:A2 0
6 *1913:B *1904:A1 9.26606e-05
7 *1913:B *526:62 3.7923e-05
8 *1913:B *527:89 8.08153e-06
9 *1905:B *1912:B 0.000122337
10 *1905:B *289:6 0.000128956
11 *1910:A_N *289:6 4.66108e-05
12 *1910:B *289:6 2.45928e-05
13 *1912:A_N *1913:B 2.7881e-05
14 *1913:A *1913:B 0.000154031
15 *280:22 *1913:B 0.000186185
16 *280:26 *1912:B 7.41529e-05
17 *280:26 *289:6 3.00381e-05
18 *288:8 *289:6 0.000102718
*RES
1 *1911:Y *289:6 6.535 
2 *289:6 *1913:B 10.235 
3 *289:6 *1912:B 3.20875 
*END

*D_NET *290 0.00109056
*CONN
*I *1945:A2 I *D sky130_fd_sc_hd__a21oi_1
*I *1944:B I *D sky130_fd_sc_hd__and3_1
*I *1912:Y O *D sky130_fd_sc_hd__nand2b_1
*CAP
1 *1945:A2 4.44708e-05
2 *1944:B 0.000177033
3 *1912:Y 0
4 *290:6 0.000221504
5 *1944:B *323:14 9.61344e-05
6 *1944:B *388:10 0
7 *1944:B *526:19 0
8 *1945:A2 *527:76 3.97211e-05
9 *1905:B *1944:B 3.09233e-05
10 *1905:B *1945:A2 6.45236e-05
11 *1912:A_N *1944:B 2.34345e-05
12 *1913:A *1945:A2 1.08856e-05
13 *1944:A *1944:B 0.000130134
14 *1945:A1 *1944:B 0.00011235
15 *1945:A1 *1945:A2 0.000139443
*RES
1 *1912:Y *290:6 3.6 
2 *290:6 *1944:B 7.47 
3 *290:6 *1945:A2 5.235 
*END

*D_NET *291 0.00100645
*CONN
*I *1914:B1 I *D sky130_fd_sc_hd__o21ai_1
*I *1915:C I *D sky130_fd_sc_hd__or3_1
*I *1913:Y O *D sky130_fd_sc_hd__xnor2_1
*CAP
1 *1914:B1 0.000113602
2 *1915:C 0
3 *1913:Y 0.000139629
4 *291:8 0.000253231
5 *1914:B1 *292:12 1.83756e-05
6 *1914:B1 *526:62 0
7 *291:8 *388:10 0
8 *291:8 *527:89 0.000131763
9 *1888:B *1914:B1 0
10 *1914:A1 *1914:B1 0.00017354
11 *1914:A2 *1914:B1 4.82863e-05
12 *260:10 *1914:B1 9.50342e-06
13 *260:10 *291:8 0.00011852
*RES
1 *1913:Y *291:8 7.275 
2 *291:8 *1915:C 3.6 
3 *291:8 *1914:B1 6.195 
*END

*D_NET *292 0.00106203
*CONN
*I *1950:A I *D sky130_fd_sc_hd__nand2_1
*I *1948:A I *D sky130_fd_sc_hd__or2_4
*I *1916:A I *D sky130_fd_sc_hd__and2_1
*I *1914:Y O *D sky130_fd_sc_hd__o21ai_1
*CAP
1 *1950:A 6.83224e-05
2 *1948:A 0
3 *1916:A 0
4 *1914:Y 0.000168578
5 *292:19 0.00022248
6 *292:12 0.000322736
7 *1950:A *1950:B 4.82919e-05
8 *292:12 *1916:B 0.00011852
9 *292:12 *388:10 6.36578e-05
10 *1914:A1 *292:12 2.49909e-05
11 *1914:A2 *292:12 6.07575e-06
12 *1914:B1 *292:12 1.83756e-05
*RES
1 *1914:Y *292:12 8.465 
2 *292:12 *1916:A 1.6 
3 *292:12 *292:19 2.175 
4 *292:19 *1948:A 1.6 
5 *292:19 *1950:A 2.74 
*END

*D_NET *293 0.000721973
*CONN
*I *1916:B I *D sky130_fd_sc_hd__and2_1
*I *1915:X O *D sky130_fd_sc_hd__or3_1
*CAP
1 *1916:B 0.000197338
2 *1915:X 0.000197338
3 *1916:B *388:10 6.95335e-05
4 *1916:B *526:62 0
5 *1914:A1 *1916:B 0.000139245
6 *292:12 *1916:B 0.00011852
*RES
1 *1915:X *1916:B 11.415 
*END

*D_NET *294 0.0149707
*CONN
*I *1626:B I *D sky130_fd_sc_hd__and3_1
*I *1627:B1 I *D sky130_fd_sc_hd__a21oi_1
*I *1666:A2 I *D sky130_fd_sc_hd__a221o_1
*I *1696:A I *D sky130_fd_sc_hd__xnor2_1
*I *1781:C1 I *D sky130_fd_sc_hd__o211a_1
*I *1592:Y O *D sky130_fd_sc_hd__inv_2
*CAP
1 *1626:B 8.25691e-05
2 *1627:B1 6.27837e-05
3 *1666:A2 3.1378e-05
4 *1696:A 0.000178115
5 *1781:C1 0.000631646
6 *1592:Y 0
7 *294:55 0.00169344
8 *294:47 0.00157221
9 *294:43 0.000934239
10 *294:4 0.00145783
11 *1626:B *565:58 0.000112349
12 *1627:B1 *1626:A 7.04675e-05
13 *1627:B1 *1626:C 0.000108226
14 *1627:B1 *1644:A0 0.00015896
15 *1627:B1 *565:58 4.21973e-05
16 *1666:A2 *1666:A1 1.2818e-05
17 *1666:A2 *1698:B1 1.07797e-05
18 *1666:A2 *484:10 2.59981e-05
19 *1666:A2 *485:12 6.45236e-05
20 *1696:A *1696:B 8.8266e-05
21 *1696:A *2082:A 0
22 *1696:A *484:10 6.5525e-05
23 *1696:A *485:12 0.000279797
24 *1696:A *546:73 0
25 *1781:C1 *1780:C1 0.000168176
26 *1781:C1 *1867:A1 2.49909e-05
27 *1781:C1 *1867:A2 0.000490873
28 *1781:C1 *1924:A2 9.54399e-05
29 *1781:C1 *543:23 0.000302131
30 *1781:C1 *552:10 3.47837e-05
31 *294:43 *1600:B 0.000185398
32 *294:43 *1610:A 0.000227562
33 *294:43 *1728:A0 7.06865e-05
34 *294:43 *2084:A 0.000161687
35 *294:43 *515:88 0.000643431
36 *294:43 *518:54 0.000659654
37 *294:43 *548:94 0.00016063
38 *294:43 *552:10 0.000222105
39 *294:43 *552:12 0.000491018
40 *294:43 *565:58 0.000270409
41 *294:47 *1626:C 6.52111e-05
42 *294:47 *1644:A0 1.71013e-05
43 *294:47 *552:46 1.52945e-05
44 *294:55 *1626:C 3.09233e-05
45 *294:55 *1640:A2 0
46 *294:55 *1644:A0 5.81253e-05
47 *294:55 *1647:A 0
48 *294:55 *1656:A1 0.000139238
49 *294:55 *1657:A1 0.000224487
50 *294:55 *1657:B1 0.000159269
51 *294:55 *1986:A 8.10355e-05
52 *294:55 *459:16 7.4027e-05
53 *294:55 *473:10 5.99925e-05
54 *294:55 *474:18 0.000198279
55 *294:55 *517:8 0.000234872
56 *294:55 *517:14 1.61831e-05
57 *294:55 *518:54 0
58 *294:55 *552:46 0.000126799
59 *1660:B1 *294:55 7.92464e-06
60 *1776:B *1781:C1 4.82863e-05
61 *1781:A1 *1781:C1 4.82863e-05
62 *1781:B1 *1781:C1 1.23763e-05
63 *1868:B1 *1781:C1 6.07575e-06
64 *1896:A2 *294:43 0.000354305
65 *34:8 *294:55 0.000957337
66 *39:10 *1666:A2 1.2818e-05
67 *151:6 *1781:C1 0.000129398
*RES
1 *1592:Y *294:4 1.6 
2 *294:4 *1781:C1 19.265 
3 *294:4 *294:43 27.025 
4 *294:43 *294:47 2.87 
5 *294:47 *294:55 29.41 
6 *294:55 *1696:A 8.16 
7 *294:55 *1666:A2 4.59375 
8 *294:47 *1627:B1 5.775 
9 *294:43 *1626:B 2.74 
*END

*D_NET *295 0.000530874
*CONN
*I *1917:B I *D sky130_fd_sc_hd__or2_1
*I *1918:B I *D sky130_fd_sc_hd__nand2_1
*I *1916:X O *D sky130_fd_sc_hd__and2_1
*CAP
1 *1917:B 9.40536e-05
2 *1918:B 0
3 *1916:X 0.000153657
4 *295:12 0.00024771
5 *1917:B *1951:A 0
6 *295:12 *388:10 0
7 *1918:A *1917:B 3.54536e-05
8 *266:12 *295:12 0
*RES
1 *1916:X *295:12 7.685 
2 *295:12 *1918:B 1.6 
3 *295:12 *1917:B 3.1 
*END

*D_NET *296 0.00118971
*CONN
*I *1923:A2 I *D sky130_fd_sc_hd__a311o_1
*I *1917:X O *D sky130_fd_sc_hd__or2_1
*CAP
1 *1923:A2 0.000516022
2 *1917:X 0.000516022
3 *1923:A2 *1895:A1 0
4 *1923:A2 *2059:A 3.1835e-05
5 *1923:A2 *520:8 5.34747e-05
6 *1923:A2 *534:153 0
7 *1891:B1 *1923:A2 7.23533e-05
*RES
1 *1917:X *1923:A2 13.605 
*END

*D_NET *297 0.0026121
*CONN
*I *1953:A I *D sky130_fd_sc_hd__nor2_1
*I *1954:A1 I *D sky130_fd_sc_hd__o21a_1
*I *1952:A I *D sky130_fd_sc_hd__nand2_1
*I *1923:A3 I *D sky130_fd_sc_hd__a311o_1
*I *1918:Y O *D sky130_fd_sc_hd__nand2_1
*CAP
1 *1953:A 0
2 *1954:A1 5.05434e-05
3 *1952:A 2.08101e-05
4 *1923:A3 0.000226269
5 *1918:Y 0.000213758
6 *297:36 0.000183877
7 *297:12 0.00053175
8 *297:8 0.000631762
9 *1923:A3 *1895:A1 0
10 *1923:A3 *1920:A2 8.69182e-05
11 *1923:A3 *1921:A 7.58604e-05
12 *1923:A3 *1923:B1 0
13 *1923:A3 *1923:C1 4.66742e-05
14 *1923:A3 *1967:B1 1.61831e-05
15 *1952:A *1921:A 0
16 *1954:A1 *332:21 0.000124895
17 *297:8 *1968:B1 0
18 *297:8 *332:12 0
19 *297:12 *1952:B 0.000351262
20 *297:12 *1967:B1 4.9253e-06
21 *297:36 *1952:B 0
22 *297:36 *332:12 0
23 *1921:B *1923:A3 4.66108e-05
24 *196:74 *297:8 0
*RES
1 *1918:Y *297:8 7.02 
2 *297:8 *297:12 7.28 
3 *297:12 *1923:A3 9.92 
4 *297:12 *1952:A 1.96 
5 *297:8 *297:36 4.145 
6 *297:36 *1954:A1 2.74 
7 *297:36 *1953:A 1.6 
*END

*D_NET *298 0.00108638
*CONN
*I *1920:B2 I *D sky130_fd_sc_hd__o22a_1
*I *1919:Y O *D sky130_fd_sc_hd__a21oi_1
*CAP
1 *1920:B2 0.000129065
2 *1919:Y 0.000129065
3 *1920:B2 *1920:A1 0.000211778
4 *1920:B2 *1920:A2 4.82863e-05
5 *1920:B2 *1967:B2 2.59926e-05
6 *1920:B2 *1969:B 4.82919e-05
7 *1920:B2 *518:124 1.93494e-05
8 *1920:B1 *1920:B2 0.000368802
9 *1967:A2 *1920:B2 0.000105748
*RES
1 *1919:Y *1920:B2 8.06 
*END

*D_NET *299 0.00109231
*CONN
*I *1923:B1 I *D sky130_fd_sc_hd__a311o_1
*I *1920:X O *D sky130_fd_sc_hd__o22a_1
*CAP
1 *1923:B1 0.000288964
2 *1920:X 0.000288964
3 *1923:B1 *1920:A2 9.14049e-05
4 *1923:B1 *1921:A 5.5554e-05
5 *1923:B1 *1923:C1 0.000139238
6 *1923:B1 *1967:B2 0.000196376
7 *1923:B1 *534:153 3.18054e-05
8 *1923:A3 *1923:B1 0
*RES
1 *1920:X *1923:B1 12.705 
*END

*D_NET *300 0.000484927
*CONN
*I *1923:C1 I *D sky130_fd_sc_hd__a311o_1
*I *1921:X O *D sky130_fd_sc_hd__and2_1
*CAP
1 *1923:C1 0.000111351
2 *1921:X 0.000111351
3 *1923:C1 *534:153 7.63125e-05
4 *1923:A3 *1923:C1 4.66742e-05
5 *1923:B1 *1923:C1 0.000139238
*RES
1 *1921:X *1923:C1 9.63 
*END

*D_NET *301 0.000230602
*CONN
*I *1924:B1 I *D sky130_fd_sc_hd__a211oi_1
*I *1922:X O *D sky130_fd_sc_hd__a32o_1
*CAP
1 *1924:B1 3.71421e-05
2 *1922:X 3.71421e-05
3 *1924:B1 *1596:C 4.21973e-05
4 *1924:B1 *1924:C1 0.00011412
*RES
1 *1922:X *1924:B1 4.34 
*END

*D_NET *302 0.0068021
*CONN
*I *1924:C1 I *D sky130_fd_sc_hd__a211oi_1
*I *1923:X O *D sky130_fd_sc_hd__a311o_1
*CAP
1 *1924:C1 0.00166872
2 *1923:X 0.00166872
3 *1924:C1 *1596:C 0.000619256
4 *1924:C1 *1968:A3 0.000105508
5 *1924:C1 *1968:B1 0.0018722
6 *1924:C1 *1969:C 0.000456803
7 *1924:C1 *538:12 4.04579e-05
8 *1924:C1 *538:28 6.34105e-05
9 *1845:A *1924:C1 0.000192907
10 *1924:B1 *1924:C1 0.00011412
*RES
1 *1923:X *1924:C1 34.07 
*END

*D_NET *303 0.0023717
*CONN
*I *1925:B1 I *D sky130_fd_sc_hd__o31ai_1
*I *1924:Y O *D sky130_fd_sc_hd__a211oi_1
*CAP
1 *1925:B1 0.000286474
2 *1924:Y 0.000286474
3 *1925:B1 *518:67 0
4 *1925:B1 *519:105 0.000665874
5 *1925:B1 *526:98 4.66108e-05
6 *1873:B *1925:B1 4.66108e-05
7 *1897:A_N *1925:B1 0.000899599
8 *1900:B *1925:B1 0
9 *247:14 *1925:B1 0.000132842
10 *277:10 *1925:B1 7.21296e-06
*RES
1 *1924:Y *1925:B1 18.21 
*END

*D_NET *304 0.000780818
*CONN
*I *1753:A1_N I *D sky130_fd_sc_hd__o2bb2a_1
*I *1752:A1 I *D sky130_fd_sc_hd__o21bai_1
*I *1593:Y O *D sky130_fd_sc_hd__inv_2
*CAP
1 *1753:A1_N 0
2 *1752:A1 1.77605e-05
3 *1593:Y 0.00010532
4 *304:12 0.000123081
5 *304:12 *471:71 0
6 *304:12 *534:50 0.000131875
7 *1753:B1 *1752:A1 0.000104958
8 *1753:B1 *304:12 9.15156e-05
9 *113:6 *304:12 7.20899e-05
10 *113:10 *1752:A1 0.000104045
11 *113:10 *304:12 3.01732e-05
*RES
1 *1593:Y *304:12 8.2025 
2 *304:12 *1752:A1 2.5675 
3 *304:12 *1753:A1_N 1.6 
*END

*D_NET *305 0.00113815
*CONN
*I *1929:B1 I *D sky130_fd_sc_hd__o21a_1
*I *1930:A I *D sky130_fd_sc_hd__nor3_1
*I *1926:Y O *D sky130_fd_sc_hd__nand2_1
*CAP
1 *1929:B1 6.90501e-05
2 *1930:A 0
3 *1926:Y 0.000167346
4 *305:12 0.000236396
5 *1929:B1 *1930:B 0.000136884
6 *1929:B1 *1930:C 0.000112742
7 *1929:B1 *1979:A2 4.82863e-05
8 *305:12 *1930:C 4.82919e-05
9 *305:12 *1979:A2 0.00027299
10 *305:12 *1984:A 4.61658e-05
11 *305:12 *2059:A 0
*RES
1 *1926:Y *305:12 9.5 
2 *305:12 *1930:A 1.6 
3 *305:12 *1929:B1 7.685 
*END

*D_NET *306 0.00198327
*CONN
*I *1979:B1 I *D sky130_fd_sc_hd__a211oi_1
*I *1978:A1 I *D sky130_fd_sc_hd__o211a_1
*I *1930:B I *D sky130_fd_sc_hd__nor3_1
*I *1929:A1 I *D sky130_fd_sc_hd__o21a_1
*I *1927:X O *D sky130_fd_sc_hd__and4_1
*CAP
1 *1979:B1 0.0001143
2 *1978:A1 1.85694e-05
3 *1930:B 0.000107318
4 *1929:A1 0.000114664
5 *1927:X 7.1572e-05
6 *306:36 0.000286133
7 *306:12 0.000264299
8 *306:10 0.000267152
9 *1929:A1 *527:18 3.96737e-05
10 *1929:A1 *534:153 8.49205e-05
11 *1930:B *1930:C 1.23331e-05
12 *1930:B *1931:A 6.28843e-05
13 *1930:B *1978:B1 0
14 *1930:B *2059:A 0
15 *1930:B *309:16 0
16 *1930:B *534:153 1.52184e-05
17 *1978:A1 *1978:A2 9.53428e-06
18 *1978:A1 *1978:C1 0
19 *1978:A1 *1979:C1 0
20 *1979:B1 *1979:C1 0.000111901
21 *1979:B1 *527:8 1.47347e-05
22 *306:10 *323:14 0
23 *306:10 *534:153 0
24 *306:12 *534:153 7.57202e-05
25 *306:36 *1979:C1 1.61831e-05
26 *306:36 *309:16 4.43682e-05
27 *306:36 *534:153 0.000114912
28 *1929:B1 *1930:B 0.000136884
*RES
1 *1927:X *306:10 6.725 
2 *306:10 *306:12 0.795 
3 *306:12 *1929:A1 3.445 
4 *306:12 *1930:B 8.255 
5 *306:10 *306:36 2.88 
6 *306:36 *1978:A1 1.96 
7 *306:36 *1979:B1 3.775 
*END

*D_NET *307 0.00156911
*CONN
*I *1929:A2 I *D sky130_fd_sc_hd__o21a_1
*I *1930:C I *D sky130_fd_sc_hd__nor3_1
*I *1928:Y O *D sky130_fd_sc_hd__a22oi_1
*CAP
1 *1929:A2 0
2 *1930:C 0.000145066
3 *1928:Y 0.000218411
4 *307:10 0.000363477
5 *1930:C *1979:A2 4.21973e-05
6 *1930:C *2059:A 5.57736e-05
7 *1930:C *309:8 7.00889e-06
8 *1930:C *534:153 5.33085e-05
9 *1930:C *541:36 0.000118534
10 *307:10 *527:34 8.40213e-05
11 *307:10 *529:14 0.000172743
12 *307:10 *534:153 7.23533e-05
13 *307:10 *541:36 6.28498e-05
14 *1929:B1 *1930:C 0.000112742
15 *1930:B *1930:C 1.23331e-05
16 *305:12 *1930:C 4.82919e-05
*RES
1 *1928:Y *307:10 6.99 
2 *307:10 *1930:C 7.74 
3 *307:10 *1929:A2 3.6 
*END

*D_NET *308 0.000335947
*CONN
*I *1931:A I *D sky130_fd_sc_hd__nor2_1
*I *1929:X O *D sky130_fd_sc_hd__o21a_1
*CAP
1 *1931:A 8.09537e-05
2 *1929:X 8.09537e-05
3 *1931:A *309:16 6.28687e-05
4 *1931:A *527:18 4.82863e-05
5 *1930:B *1931:A 6.28843e-05
*RES
1 *1929:X *1931:A 9.03 
*END

*D_NET *309 0.00137113
*CONN
*I *1931:B I *D sky130_fd_sc_hd__nor2_1
*I *1979:C1 I *D sky130_fd_sc_hd__a211oi_1
*I *1978:A2 I *D sky130_fd_sc_hd__o211a_1
*I *1930:Y O *D sky130_fd_sc_hd__nor3_1
*CAP
1 *1931:B 0
2 *1979:C1 6.65836e-05
3 *1978:A2 1.68577e-05
4 *1930:Y 9.41072e-05
5 *309:16 0.00022158
6 *309:8 0.000232246
7 *1978:A2 *1978:C1 4.00541e-06
8 *1978:A2 *527:18 0
9 *1979:C1 *527:8 0.000223016
10 *309:8 *1979:A2 3.99879e-05
11 *309:8 *310:12 1.16578e-05
12 *309:16 *1978:B1 1.0183e-05
13 *309:16 *323:14 0
14 *309:16 *527:8 4.82919e-05
15 *309:16 *527:18 0.000123225
16 *309:16 *534:153 2.75229e-05
17 *1930:B *309:16 0
18 *1930:C *309:8 7.00889e-06
19 *1931:A *309:16 6.28687e-05
20 *1978:A1 *1978:A2 9.53428e-06
21 *1978:A1 *1979:C1 0
22 *1979:B1 *1979:C1 0.000111901
23 *306:36 *1979:C1 1.61831e-05
24 *306:36 *309:16 4.43682e-05
*RES
1 *1930:Y *309:8 3.355 
2 *309:8 *309:16 7.12 
3 *309:16 *1978:A2 1.96 
4 *309:16 *1979:C1 4.135 
5 *309:8 *1931:B 1.6 
*END

*D_NET *310 0.00138261
*CONN
*I *1942:A I *D sky130_fd_sc_hd__nand2_1
*I *1941:A I *D sky130_fd_sc_hd__or2_1
*I *1931:Y O *D sky130_fd_sc_hd__nor2_1
*CAP
1 *1942:A 0
2 *1941:A 0.000148975
3 *1931:Y 0.00034115
4 *310:12 0.000490125
5 *1941:A *1942:B 0.000164874
6 *310:12 *1943:B 0.000143266
7 *310:12 *1979:A2 3.81908e-06
8 *310:12 *1999:A1 0
9 *310:12 *2000:A 0
10 *310:12 *2059:A 0
11 *310:12 *322:8 7.87426e-05
12 *310:12 *323:14 0
13 *310:12 *363:10 0
14 *309:8 *310:12 1.16578e-05
*RES
1 *1931:Y *310:12 11.765 
2 *310:12 *1941:A 4.135 
3 *310:12 *1942:A 1.6 
*END

*D_NET *311 0.0013507
*CONN
*I *1940:A I *D sky130_fd_sc_hd__xnor2_1
*I *1939:A I *D sky130_fd_sc_hd__or3_1
*I *1932:Y O *D sky130_fd_sc_hd__a31oi_2
*CAP
1 *1940:A 0
2 *1939:A 0.000116197
3 *1932:Y 0.000478292
4 *311:10 0.000594489
5 *1939:A *1938:A 4.99619e-05
6 *1939:A *1938:B 4.82863e-05
7 *1939:A *1940:B 4.91189e-05
8 *1939:A *368:12 0
9 *1939:A *490:27 0
10 *311:10 *1940:B 1.43521e-05
11 *311:10 *368:12 0
12 *311:10 *490:27 0
*RES
1 *1932:Y *311:10 10.425 
2 *311:10 *1939:A 5.94 
3 *311:10 *1940:A 3.6 
*END

*D_NET *312 0.000787763
*CONN
*I *1937:A I *D sky130_fd_sc_hd__nor3_1
*I *1936:B1 I *D sky130_fd_sc_hd__o21a_1
*I *1933:Y O *D sky130_fd_sc_hd__nand2_1
*CAP
1 *1937:A 2.26738e-05
2 *1936:B1 0
3 *1933:Y 0.000182073
4 *312:12 0.000204747
5 *1937:A *1937:C 0.000122337
6 *1937:A *313:18 0.000124007
7 *312:12 *2037:A 8.78813e-05
8 *312:12 *519:6 2.66586e-05
9 *312:12 *519:12 1.7386e-05
10 *312:12 *546:44 0
*RES
1 *1933:Y *312:12 8.975 
2 *312:12 *1936:B1 1.6 
3 *312:12 *1937:A 2.74 
*END

*D_NET *313 0.00168212
*CONN
*I *1936:A1 I *D sky130_fd_sc_hd__o21a_1
*I *1937:B I *D sky130_fd_sc_hd__nor3_1
*I *1993:A1 I *D sky130_fd_sc_hd__o21a_1
*I *1992:A I *D sky130_fd_sc_hd__nor3_1
*I *1934:X O *D sky130_fd_sc_hd__and3_1
*CAP
1 *1936:A1 0
2 *1937:B 0
3 *1993:A1 0.000122025
4 *1992:A 0
5 *1934:X 9.27724e-05
6 *313:24 0.000174531
7 *313:18 0.000222518
8 *313:8 0.000262785
9 *1993:A1 *1993:B1 5.16182e-05
10 *1993:A1 *375:12 0.000124007
11 *313:8 *1934:C 1.37328e-05
12 *313:8 *314:8 0.000162311
13 *313:18 *1937:C 0.000114597
14 *313:18 *314:8 2.30292e-05
15 *313:24 *2037:A 5.42473e-05
16 *313:24 *490:27 0.00013994
17 *1937:A *313:18 0.000124007
*RES
1 *1934:X *313:8 3.7 
2 *313:8 *313:18 3.81 
3 *313:18 *313:24 5.635 
4 *313:24 *1992:A 1.6 
5 *313:24 *1993:A1 3.79 
6 *313:18 *1937:B 1.6 
7 *313:8 *1936:A1 1.6 
*END

*D_NET *314 0.00129648
*CONN
*I *1937:C I *D sky130_fd_sc_hd__nor3_1
*I *1936:A2 I *D sky130_fd_sc_hd__o21a_1
*I *1935:Y O *D sky130_fd_sc_hd__a21oi_1
*CAP
1 *1937:C 0.000126088
2 *1936:A2 0
3 *1935:Y 0.000181424
4 *314:8 0.000307512
5 *1937:C *316:10 9.4087e-05
6 *1937:C *317:8 3.64998e-06
7 *314:8 *1934:C 0.000112737
8 *314:8 *1986:A 2.75145e-05
9 *314:8 *448:33 2.11921e-05
10 *1937:A *1937:C 0.000122337
11 *313:8 *314:8 0.000162311
12 *313:18 *1937:C 0.000114597
13 *313:18 *314:8 2.30292e-05
*RES
1 *1935:Y *314:8 5.515 
2 *314:8 *1936:A2 1.6 
3 *314:8 *1937:C 4.825 
*END

*D_NET *315 0.00247671
*CONN
*I *1817:C I *D sky130_fd_sc_hd__or4b_4
*I *1595:B I *D sky130_fd_sc_hd__and3b_2
*I *1812:D1 I *D sky130_fd_sc_hd__o2111a_1
*I *1594:Y O *D sky130_fd_sc_hd__nor2_1
*CAP
1 *1817:C 1.772e-05
2 *1595:B 0.000124217
3 *1812:D1 0.000139475
4 *1594:Y 5.29025e-05
5 *315:23 0.000243698
6 *315:8 0.000294138
7 *1595:B *1595:A_N 7.23602e-05
8 *1595:B *326:6 7.57202e-05
9 *1595:B *326:18 4.66108e-05
10 *1595:B *326:56 9.14049e-05
11 *1812:D1 *1586:A 0
12 *1812:D1 *1594:B 5.06809e-05
13 *1812:D1 *500:35 5.30673e-05
14 *1812:D1 *500:46 2.0458e-05
15 *1812:D1 *530:17 0
16 *1812:D1 *530:66 2.97004e-06
17 *1817:C *1817:B 8.40269e-05
18 *1817:C *2068:A 3.23663e-05
19 *315:8 *1594:B 8.5242e-05
20 *315:8 *489:21 0
21 *315:23 *1814:A 8.40213e-05
22 *315:23 *1816:C 0.000238137
23 *315:23 *1817:B 3.66286e-05
24 *315:23 *2068:A 3.23663e-05
25 *315:23 *500:48 4.80285e-05
26 *315:23 *530:6 7.3151e-05
27 *315:23 *530:94 0.000153217
28 *1812:B1 *1812:D1 8.65905e-05
29 *1817:D_N *315:23 9.07793e-05
30 *189:10 *315:23 2.96426e-05
31 *192:24 *1812:D1 0.000111012
32 *192:24 *315:23 6.07575e-06
*RES
1 *1594:Y *315:8 4.725 
2 *315:8 *1812:D1 6.795 
3 *315:8 *315:23 6.59 
4 *315:23 *1595:B 7.865 
5 *315:23 *1817:C 2.395 
*END

*D_NET *316 0.00142815
*CONN
*I *1938:A I *D sky130_fd_sc_hd__nor2_1
*I *1939:B I *D sky130_fd_sc_hd__or3_1
*I *1936:X O *D sky130_fd_sc_hd__o21a_1
*CAP
1 *1938:A 0.000115598
2 *1939:B 0
3 *1936:X 0.000280665
4 *316:10 0.000396264
5 *1938:A *1938:B 9.05017e-05
6 *1938:A *2058:A 0.000247671
7 *1938:A *317:34 2.42236e-05
8 *1938:A *319:10 4.35348e-05
9 *1938:A *368:12 0
10 *316:10 *317:8 1.32843e-05
11 *316:10 *317:34 7.23602e-05
12 *316:10 *368:12 0
13 *1937:C *316:10 9.4087e-05
14 *1939:A *1938:A 4.99619e-05
*RES
1 *1936:X *316:10 7.335 
2 *316:10 *1939:B 3.6 
3 *316:10 *1938:A 7.2 
*END

*D_NET *317 0.00189455
*CONN
*I *1938:B I *D sky130_fd_sc_hd__nor2_1
*I *1939:C I *D sky130_fd_sc_hd__or3_1
*I *1993:A2 I *D sky130_fd_sc_hd__o21a_1
*I *1992:B I *D sky130_fd_sc_hd__nor3_1
*I *1937:Y O *D sky130_fd_sc_hd__nor3_1
*CAP
1 *1938:B 0.00011271
2 *1939:C 0
3 *1993:A2 4.98455e-05
4 *1992:B 7.8755e-05
5 *1937:Y 0.000102958
6 *317:34 0.000250955
7 *317:12 0.000264653
8 *317:8 0.000377254
9 *1938:B *2058:A 9.80032e-06
10 *1938:B *319:10 4.88702e-05
11 *1992:B *1994:A 4.82863e-05
12 *1992:B *375:12 1.61831e-05
13 *1993:A2 *1994:A 8.65961e-05
14 *317:12 *490:27 7.16263e-05
15 *317:34 *2058:A 2.75229e-05
16 *317:34 *368:12 0
17 *317:34 *490:27 9.62274e-05
18 *1937:C *317:8 3.64998e-06
19 *1938:A *1938:B 9.05017e-05
20 *1938:A *317:34 2.42236e-05
21 *1939:A *1938:B 4.82863e-05
22 *316:10 *317:8 1.32843e-05
23 *316:10 *317:34 7.23602e-05
*RES
1 *1937:Y *317:8 4.74 
2 *317:8 *317:12 4.145 
3 *317:12 *1992:B 2.755 
4 *317:12 *1993:A2 2.395 
5 *317:8 *317:34 5.36 
6 *317:34 *1939:C 1.6 
7 *317:34 *1938:B 4.255 
*END

*D_NET *318 0.000410016
*CONN
*I *1940:B I *D sky130_fd_sc_hd__xnor2_1
*I *1938:Y O *D sky130_fd_sc_hd__nor2_1
*CAP
1 *1940:B 0.000102473
2 *1938:Y 0.000102473
3 *1940:B *368:12 0.000141599
4 *1939:A *1940:B 4.91189e-05
5 *311:10 *1940:B 1.43521e-05
*RES
1 *1938:Y *1940:B 9.63 
*END

*D_NET *319 0.0019109
*CONN
*I *1998:A1 I *D sky130_fd_sc_hd__a21oi_1
*I *1997:A I *D sky130_fd_sc_hd__and3_1
*I *1939:X O *D sky130_fd_sc_hd__or3_1
*CAP
1 *1998:A1 0.000181646
2 *1997:A 0
3 *1939:X 0.000425641
4 *319:10 0.000607287
5 *1998:A1 *1998:B1 0.000154426
6 *1998:A1 *381:14 1.70906e-05
7 *1998:A1 *566:14 2.59835e-05
8 *319:10 *2058:A 0.000286784
9 *319:10 *566:14 0.00011964
10 *1938:A *319:10 4.35348e-05
11 *1938:B *319:10 4.88702e-05
*RES
1 *1939:X *319:10 9.415 
2 *319:10 *1997:A 1.6 
3 *319:10 *1998:A1 4.135 
*END

*D_NET *320 0.00143204
*CONN
*I *1942:B I *D sky130_fd_sc_hd__nand2_1
*I *1941:B I *D sky130_fd_sc_hd__or2_1
*I *1940:Y O *D sky130_fd_sc_hd__xnor2_1
*CAP
1 *1942:B 0.00011047
2 *1941:B 0
3 *1940:Y 0.00051256
4 *320:8 0.00062303
5 *1942:B *1943:A 2.11084e-05
6 *1941:A *1942:B 0.000164874
*RES
1 *1940:Y *320:8 7.24 
2 *320:8 *1941:B 1.6 
3 *320:8 *1942:B 4.135 
*END

*D_NET *321 0.000312843
*CONN
*I *1943:A I *D sky130_fd_sc_hd__nand2_1
*I *1941:X O *D sky130_fd_sc_hd__or2_1
*CAP
1 *1943:A 0.000106383
2 *1941:X 0.000106383
3 *1943:A *1943:B 7.45302e-05
4 *1943:A *2059:A 0
5 *1943:A *322:8 4.43871e-06
6 *1942:B *1943:A 2.11084e-05
*RES
1 *1941:X *1943:A 9.285 
*END

*D_NET *322 0.00112424
*CONN
*I *1943:B I *D sky130_fd_sc_hd__nand2_1
*I *1998:A2 I *D sky130_fd_sc_hd__a21oi_1
*I *1997:B I *D sky130_fd_sc_hd__and3_1
*I *1942:Y O *D sky130_fd_sc_hd__nand2_1
*CAP
1 *1943:B 3.59334e-05
2 *1998:A2 9.71884e-06
3 *1997:B 0.000126101
4 *1942:Y 0
5 *322:8 0.000287201
6 *322:6 0.000187314
7 *1997:B *1999:A1 0
8 *1997:B *381:14 4.13249e-05
9 *1997:B *566:14 2.75229e-05
10 *1998:A2 *1998:B1 4.82919e-05
11 *1998:A2 *566:14 4.82919e-05
12 *322:8 *1999:A1 0
13 *322:8 *2059:A 0
14 *322:8 *381:14 1.1561e-05
15 *1943:A *1943:B 7.45302e-05
16 *1943:A *322:8 4.43871e-06
17 *310:12 *1943:B 0.000143266
18 *310:12 *322:8 7.87426e-05
*RES
1 *1942:Y *322:6 3.6 
2 *322:6 *322:8 2.655 
3 *322:8 *1997:B 5.37 
4 *322:8 *1998:A2 4.05 
5 *322:6 *1943:B 5.235 
*END

*D_NET *323 0.00346608
*CONN
*I *1945:B1 I *D sky130_fd_sc_hd__a21oi_1
*I *1944:C I *D sky130_fd_sc_hd__and3_1
*I *1943:Y O *D sky130_fd_sc_hd__nand2_1
*CAP
1 *1945:B1 0.000210559
2 *1944:C 0
3 *1943:Y 0.000948794
4 *323:14 0.00115935
5 *1945:B1 *1946:A 8.49205e-05
6 *1945:B1 *388:10 0
7 *323:14 *1978:B1 0
8 *323:14 *2020:A 0.000233224
9 *323:14 *2062:A 0
10 *323:14 *2063:A 0
11 *323:14 *2065:A 0
12 *323:14 *360:8 0
13 *323:14 *361:8 0.000170484
14 *323:14 *363:10 6.00003e-05
15 *323:14 *388:10 0
16 *323:14 *523:10 0
17 *323:14 *526:19 0
18 *1944:A *1945:B1 0.000112813
19 *1944:A *323:14 1.70906e-05
20 *1944:B *323:14 9.61344e-05
21 *1945:A1 *1945:B1 0.000143501
22 *1947:A *1945:B1 0.00022921
23 *306:10 *323:14 0
24 *309:16 *323:14 0
25 *310:12 *323:14 0
*RES
1 *1943:Y *323:14 20.72 
2 *323:14 *1944:C 1.6 
3 *323:14 *1945:B1 10.955 
*END

*D_NET *324 0.000976162
*CONN
*I *1946:A I *D sky130_fd_sc_hd__nor2_1
*I *1944:X O *D sky130_fd_sc_hd__and3_1
*CAP
1 *1946:A 0.00037301
2 *1944:X 0.00037301
3 *1946:A *360:8 2.67022e-05
4 *1946:A *388:10 0
5 *1946:A *431:12 0.00011852
6 *1945:B1 *1946:A 8.49205e-05
*RES
1 *1944:X *1946:A 12.135 
*END

*D_NET *325 0.000833462
*CONN
*I *1946:B I *D sky130_fd_sc_hd__nor2_1
*I *1977:B1 I *D sky130_fd_sc_hd__a21o_1
*I *1945:Y O *D sky130_fd_sc_hd__a21oi_1
*CAP
1 *1946:B 5.7432e-05
2 *1977:B1 0
3 *1945:Y 0.000150776
4 *325:12 0.000208208
5 *1946:B *327:6 0.000122331
6 *325:12 *1947:B 0.000116853
7 *325:12 *388:10 0.000137571
8 *1947:A *325:12 4.02903e-05
*RES
1 *1945:Y *325:12 8.375 
2 *325:12 *1977:B1 1.6 
3 *325:12 *1946:B 2.74 
*END

*D_NET *326 0.0211688
*CONN
*I *2011:A1 I *D sky130_fd_sc_hd__a211o_1
*I *2048:B2 I *D sky130_fd_sc_hd__a32o_1
*I *1968:A1 I *D sky130_fd_sc_hd__a31o_1
*I *1924:A1 I *D sky130_fd_sc_hd__a211oi_1
*I *1896:A1 I *D sky130_fd_sc_hd__a211o_1
*I *1867:A1 I *D sky130_fd_sc_hd__a211o_1
*I *1806:B1 I *D sky130_fd_sc_hd__o21a_1
*I *1844:A1 I *D sky130_fd_sc_hd__a22o_1
*I *1595:X O *D sky130_fd_sc_hd__and3b_2
*CAP
1 *2011:A1 1.78918e-05
2 *2048:B2 0
3 *1968:A1 0
4 *1924:A1 1.0137e-05
5 *1896:A1 5.68639e-05
6 *1867:A1 0.000120532
7 *1806:B1 0.000584023
8 *1844:A1 0.000147842
9 *1595:X 4.63481e-05
10 *326:90 0.00032659
11 *326:86 0.000848205
12 *326:78 0.0011116
13 *326:68 0.000785065
14 *326:56 0.00098401
15 *326:18 0.00186017
16 *326:6 0.00177843
17 *1806:B1 *2069:A 7.68786e-05
18 *1806:B1 *534:139 0.000154036
19 *1844:A1 *1841:A 0
20 *1844:A1 *1844:A2 9.50342e-06
21 *1844:A1 *501:8 0
22 *1924:A1 *552:10 1.15399e-05
23 *2011:A1 *2011:B1 2.49909e-05
24 *326:18 *1594:A 4.36241e-05
25 *326:18 *1841:A 0.000314745
26 *326:18 *2069:A 1.91597e-05
27 *326:18 *2113:A 2.0514e-05
28 *326:18 *2116:A 0.000164874
29 *326:18 *489:21 8.65905e-05
30 *326:18 *491:26 0.000577741
31 *326:18 *500:10 8.65905e-05
32 *326:18 *511:51 1.03423e-05
33 *326:18 *534:139 0.000156708
34 *326:56 *1595:A_N 1.1561e-05
35 *326:56 *1821:B 7.07702e-05
36 *326:56 *2011:B1 2.10279e-05
37 *326:56 *336:18 1.19928e-05
38 *326:56 *489:23 0
39 *326:56 *522:10 2.11419e-05
40 *326:56 *532:14 0.000714496
41 *326:68 *2047:B2 0.000106784
42 *326:78 *1598:A1 0.000126616
43 *326:78 *1807:B 0.000120655
44 *326:78 *1807:C 2.99518e-06
45 *326:78 *1969:C 0.000747042
46 *326:78 *348:32 8.12462e-06
47 *326:78 *492:56 0.000171625
48 *326:78 *547:45 5.19173e-05
49 *326:78 *550:67 0.000332785
50 *326:78 *550:95 0.00014719
51 *326:78 *554:75 6.58176e-05
52 *326:86 *1968:A2 1.88656e-05
53 *326:86 *2081:A 0
54 *326:86 *547:45 1.03572e-05
55 *326:86 *554:75 2.06578e-05
56 *326:90 *1728:A0 0.000136301
57 *326:90 *1865:A1 2.42236e-05
58 *326:90 *552:10 0.000325402
59 op_out[0] *326:18 0.000279787
60 *1595:B *326:6 7.57202e-05
61 *1595:B *326:18 4.66108e-05
62 *1595:B *326:56 9.14049e-05
63 *1781:C1 *1867:A1 2.49909e-05
64 *1827:B *1806:B1 0.000737761
65 *1827:B *326:18 0.00130566
66 *1841:B *1844:A1 0
67 *1843:A2 *1844:A1 0
68 *1844:B2 *1844:A1 4.18603e-06
69 *1850:A *326:18 4.82863e-05
70 *1850:B *326:18 4.3375e-05
71 *1865:B1 *326:86 0.000592808
72 *1867:C1 *1867:A1 5.32116e-05
73 *1867:C1 *1896:A1 6.1357e-05
74 *1868:A2 *326:18 0.000239813
75 *1868:B1 *1867:A1 2.75229e-05
76 *1868:B1 *326:18 4.82863e-05
77 *1897:A_N *1867:A1 5.83121e-06
78 *1897:A_N *1896:A1 6.97118e-05
79 *1897:A_N *1924:A1 6.16226e-06
80 *1897:A_N *326:18 3.81111e-05
81 *1897:A_N *326:90 5.15163e-05
82 *1897:B *326:18 1.12643e-05
83 *1956:A2 *326:78 3.23955e-05
84 *1967:A2 *326:68 8.40269e-05
85 *2007:B1 *2011:A1 1.91597e-05
86 *2007:B1 *326:56 0.000193801
87 *2010:A2 *326:56 0.000191426
88 *2091:A *326:18 0.000200615
89 *2104:A *326:6 0.000163204
90 *2104:A *326:18 4.82863e-05
91 *2105:A *326:18 8.65439e-05
92 *196:8 *326:56 0
93 *196:8 *326:68 0.000111012
94 *196:12 *326:68 0.000575006
95 *196:12 *326:78 0.000205219
96 *197:16 *326:56 0
97 *197:63 *326:86 0.00101759
98 *199:41 *326:56 4.66108e-05
99 *199:45 *326:56 2.73058e-05
100 *199:89 *326:68 4.38695e-05
101 *205:26 *326:68 0.000277516
102 *205:28 *326:68 1.03572e-05
103 *205:47 *326:68 3.91574e-05
104 *205:47 *326:78 0.000205219
105 *215:10 *1844:A1 0
106 *224:14 *326:18 2.32688e-05
*RES
1 *1595:X *326:6 3.085 
2 *326:6 *326:18 35.445 
3 *326:18 *1844:A1 5.745 
4 *326:18 *1806:B1 12.54 
5 *326:6 *326:56 17.74 
6 *326:56 *326:68 15.165 
7 *326:68 *326:78 17.8 
8 *326:78 *326:86 3.4483 
9 *326:86 *326:90 5.8025 
10 *326:90 *1867:A1 3.79 
11 *326:90 *1896:A1 3.1 
12 *326:86 *1924:A1 3.8325 
13 *326:78 *1968:A1 3.6 
14 *326:68 *2048:B2 3.6 
15 *326:56 *2011:A1 2.05 
*END

*D_NET *327 0.000893235
*CONN
*I *1947:B I *D sky130_fd_sc_hd__xnor2_1
*I *1977:A2 I *D sky130_fd_sc_hd__a21o_1
*I *1946:Y O *D sky130_fd_sc_hd__nor2_1
*CAP
1 *1947:B 4.30082e-05
2 *1977:A2 7.55614e-05
3 *1946:Y 0.000101749
4 *327:6 0.000220318
5 *1947:B *388:10 2.60986e-05
6 *1912:B *1977:A2 0
7 *1946:B *327:6 0.000122331
8 *1947:A *1947:B 0.000162325
9 *280:26 *1977:A2 2.49909e-05
10 *325:12 *1947:B 0.000116853
*RES
1 *1946:Y *327:6 3.43 
2 *327:6 *1977:A2 2.755 
3 *327:6 *1947:B 7.49 
*END

*D_NET *328 0.00201003
*CONN
*I *1950:B I *D sky130_fd_sc_hd__nand2_1
*I *1948:B I *D sky130_fd_sc_hd__or2_4
*I *1947:Y O *D sky130_fd_sc_hd__xnor2_1
*CAP
1 *1950:B 9.60097e-05
2 *1948:B 0
3 *1947:Y 0.000477295
4 *328:12 0.000573305
5 *328:12 *431:12 0.000815129
6 *1950:A *1950:B 4.82919e-05
*RES
1 *1947:Y *328:12 16.025 
2 *328:12 *1948:B 1.6 
3 *328:12 *1950:B 3.1 
*END

*D_NET *329 0.00154681
*CONN
*I *1949:A I *D sky130_fd_sc_hd__inv_2
*I *2004:B I *D sky130_fd_sc_hd__xnor2_1
*I *1951:A I *D sky130_fd_sc_hd__nand2_1
*I *1948:X O *D sky130_fd_sc_hd__or2_4
*CAP
1 *1949:A 7.29401e-05
2 *2004:B 5.11545e-05
3 *1951:A 9.47919e-05
4 *1948:X 7.68111e-05
5 *329:23 0.000294448
6 *329:8 0.000341956
7 *1951:A *1951:B 4.66108e-05
8 *2004:B *2004:A 4.82863e-05
9 *329:8 *388:10 0.000164679
10 *329:8 *431:12 0
11 *329:23 *388:10 0.000355129
12 *329:23 *431:12 0
13 *1917:B *1951:A 0
14 *1918:A *1951:A 0
*RES
1 *1948:X *329:8 5.49 
2 *329:8 *1951:A 5.1 
3 *329:8 *329:23 6.185 
4 *329:23 *2004:B 2.395 
5 *329:23 *1949:A 2.755 
*END

*D_NET *330 0.000421723
*CONN
*I *2019:A1 I *D sky130_fd_sc_hd__o21ai_1
*I *1949:Y O *D sky130_fd_sc_hd__inv_2
*CAP
1 *2019:A1 8.98425e-05
2 *1949:Y 8.98425e-05
3 *2019:A1 *389:12 4.76581e-05
4 *2019:A1 *405:12 7.58604e-05
5 *2019:A1 *431:12 0.00011852
*RES
1 *1949:Y *2019:A1 9.375 
*END

*D_NET *331 0.000655937
*CONN
*I *1951:B I *D sky130_fd_sc_hd__nand2_1
*I *1950:Y O *D sky130_fd_sc_hd__nand2_1
*CAP
1 *1951:B 0.000276063
2 *1950:Y 0.000276063
3 *1951:B *431:12 5.72004e-05
4 *1951:A *1951:B 4.66108e-05
*RES
1 *1950:Y *1951:B 11.7 
*END

*D_NET *332 0.00230705
*CONN
*I *1954:A2 I *D sky130_fd_sc_hd__o21a_1
*I *1952:B I *D sky130_fd_sc_hd__nand2_1
*I *1953:B I *D sky130_fd_sc_hd__nor2_1
*I *1951:Y O *D sky130_fd_sc_hd__nand2_1
*CAP
1 *1954:A2 0
2 *1952:B 0.000242392
3 *1953:B 0
4 *1951:Y 0.00031624
5 *332:21 0.000379476
6 *332:12 0.000453325
7 *1952:B *1968:B1 0.0001032
8 *332:12 *2019:B1 8.6099e-05
9 *332:12 *334:6 6.19997e-05
10 *332:12 *388:10 0.000181152
11 *332:21 *334:6 7.00889e-06
12 *1954:A1 *332:21 0.000124895
13 *297:8 *332:12 0
14 *297:12 *1952:B 0.000351262
15 *297:36 *1952:B 0
16 *297:36 *332:12 0
*RES
1 *1951:Y *332:12 12.545 
2 *332:12 *1953:B 1.6 
3 *332:12 *332:21 2.535 
4 *332:21 *1952:B 10.955 
5 *332:21 *1954:A2 1.6 
*END

*D_NET *333 0.000812339
*CONN
*I *1967:B1 I *D sky130_fd_sc_hd__a221o_1
*I *1952:Y O *D sky130_fd_sc_hd__nand2_1
*CAP
1 *1967:B1 0.000237836
2 *1952:Y 0.000237836
3 *1967:B1 *1895:A1 2.87867e-05
4 *1967:B1 *1920:A2 0.000234674
5 *1967:B1 *1921:A 5.20968e-05
6 *1967:B1 *497:56 0
7 *1923:A3 *1967:B1 1.61831e-05
8 *297:12 *1967:B1 4.9253e-06
*RES
1 *1952:Y *1967:B1 10.845 
*END

*D_NET *334 0.00110196
*CONN
*I *2019:A2 I *D sky130_fd_sc_hd__o21ai_1
*I *2005:A I *D sky130_fd_sc_hd__or2_1
*I *2006:A I *D sky130_fd_sc_hd__nand2_1
*I *1953:Y O *D sky130_fd_sc_hd__nor2_1
*CAP
1 *2019:A2 0
2 *2005:A 0
3 *2006:A 9.12352e-05
4 *1953:Y 0.00019799
5 *334:12 0.000178906
6 *334:6 0.000285661
7 *2006:A *2006:B 4.2057e-05
8 *2006:A *2012:A2 1.19928e-05
9 *2006:A *389:12 4.66108e-05
10 *334:6 *2019:B1 2.75145e-05
11 *334:6 *405:12 1.17409e-05
12 *334:12 *389:12 0.000139245
13 *332:12 *334:6 6.19997e-05
14 *332:21 *334:6 7.00889e-06
*RES
1 *1953:Y *334:6 4.12 
2 *334:6 *334:12 5.635 
3 *334:12 *2006:A 3.46 
4 *334:12 *2005:A 1.6 
5 *334:6 *2019:A2 1.6 
*END

*D_NET *335 0.000803665
*CONN
*I *1967:B2 I *D sky130_fd_sc_hd__a221o_1
*I *1954:X O *D sky130_fd_sc_hd__o21a_1
*CAP
1 *1967:B2 0.000234158
2 *1954:X 0.000234158
3 *1967:B2 *1920:A1 7.51335e-05
4 *1967:B2 *1920:A2 2.75145e-05
5 *1920:B1 *1967:B2 1.03323e-05
6 *1920:B2 *1967:B2 2.59926e-05
7 *1923:B1 *1967:B2 0.000196376
*RES
1 *1954:X *1967:B2 7.91375 
*END

*D_NET *336 0.00679605
*CONN
*I *1962:A I *D sky130_fd_sc_hd__or2_1
*I *1961:A I *D sky130_fd_sc_hd__nand2_1
*I *1955:X O *D sky130_fd_sc_hd__a21o_1
*CAP
1 *1962:A 4.85449e-05
2 *1961:A 9.25715e-05
3 *1955:X 0.0018234
4 *336:18 0.00196451
5 *1961:A *2050:C1 0
6 *1962:A *1962:B 8.65961e-05
7 *1962:A *1963:C 4.60584e-05
8 *336:18 *1962:B 8.40213e-05
9 *336:18 *1963:C 2.55587e-05
10 *336:18 *2011:C1 4.96965e-05
11 *336:18 *529:63 0.000382752
12 *336:18 *554:88 0.000122605
13 *336:18 *554:111 3.80606e-05
14 *1812:A1 *336:18 1.34594e-05
15 *1823:A *336:18 8.49205e-05
16 *1823:B *336:18 0.000193801
17 *1826:A3 *336:18 0.000237243
18 *1826:C1 *336:18 0.000331314
19 *1827:C *336:18 8.65905e-05
20 *1956:A2 *336:18 0.000382764
21 *1956:B1 *336:18 8.65905e-05
22 *1963:A_N *1961:A 0.000155234
23 *1963:A_N *1962:A 3.83041e-05
24 *1963:A_N *336:18 4.82919e-05
25 *2010:A2 *336:18 4.83522e-05
26 *196:8 *336:18 4.74794e-05
27 *196:12 *336:18 1.37864e-05
28 *199:18 *336:18 5.20523e-05
29 *199:41 *336:18 5.24934e-05
30 *199:45 *336:18 0.000130821
31 *199:89 *336:18 1.61831e-05
32 *326:56 *336:18 1.19928e-05
*RES
1 *1955:X *336:18 38.09 
2 *336:18 *1961:A 7.49 
3 *336:18 *1962:A 3.085 
*END

*D_NET *337 0.0050138
*CONN
*I *1598:C1 I *D sky130_fd_sc_hd__a2111oi_1
*I *1808:A I *D sky130_fd_sc_hd__or2_1
*I *1601:B1 I *D sky130_fd_sc_hd__a211o_1
*I *1599:A4 I *D sky130_fd_sc_hd__o41ai_4
*I *1641:B1 I *D sky130_fd_sc_hd__a21o_1
*I *1605:B1 I *D sky130_fd_sc_hd__a211oi_2
*I *1596:X O *D sky130_fd_sc_hd__or4_4
*CAP
1 *1598:C1 0
2 *1808:A 5.59892e-05
3 *1601:B1 0
4 *1599:A4 0.000251448
5 *1641:B1 0.000130618
6 *1605:B1 6.11621e-05
7 *1596:X 0
8 *337:60 0.000242235
9 *337:29 0.000382067
10 *337:18 0.000117054
11 *337:16 0.000362863
12 *337:6 0.000493217
13 *1599:A4 *369:6 0.000232111
14 *1599:A4 *369:10 0.000107205
15 *1599:A4 *547:82 1.34503e-05
16 *1605:B1 *1597:B 0.000197126
17 *1605:B1 *1968:A3 0.000203762
18 *1605:B1 *543:76 8.53113e-06
19 *1641:B1 *1601:A2 1.83756e-05
20 *1641:B1 *1607:A2 0.000147196
21 *1641:B1 *1641:A1 8.73389e-06
22 *1641:B1 *369:10 0.000245843
23 *1641:B1 *412:6 0.000158066
24 *1808:A *2131:A 9.47454e-05
25 *1808:A *524:64 2.50049e-05
26 *1808:A *554:75 0
27 *337:16 *1596:B 0
28 *337:16 *1597:B 6.45618e-05
29 *337:16 *1968:A3 0.000492865
30 *337:16 *524:64 4.98836e-05
31 *337:16 *540:10 0.000104979
32 *337:16 *540:12 2.99953e-05
33 *337:16 *540:18 0.00018615
34 *337:18 *1597:B 1.64562e-05
35 *337:18 *1607:A2 0.000114492
36 *337:18 *1968:A3 0.000158619
37 *337:60 *1596:B 0
38 *337:60 *524:64 7.89689e-05
39 *337:60 *538:12 0
40 *337:60 *547:45 3.64998e-06
41 *1867:C1 *337:16 8.40269e-05
42 *182:16 *1808:A 7.23533e-05
*RES
1 *1596:X *337:6 3.6 
2 *337:6 *337:16 11.635 
3 *337:16 *337:18 1.89 
4 *337:18 *1605:B1 6 
5 *337:18 *337:29 2 
6 *337:29 *1641:B1 5.425 
7 *337:29 *1599:A4 5.77 
8 *337:16 *1601:B1 3.6 
9 *337:6 *337:60 5.12 
10 *337:60 *1808:A 7.235 
11 *337:60 *1598:C1 1.6 
*END

*D_NET *338 0.00128016
*CONN
*I *1970:B1 I *D sky130_fd_sc_hd__a21o_1
*I *1957:B I *D sky130_fd_sc_hd__xnor2_1
*I *1956:X O *D sky130_fd_sc_hd__o21a_1
*CAP
1 *1970:B1 4.62451e-05
2 *1957:B 4.2183e-05
3 *1956:X 0.000163294
4 *338:8 0.000251723
5 *1957:B *1957:A 0.000122331
6 *1957:B *2008:A1 4.66108e-05
7 *1970:B1 *2008:A1 0.00013994
8 *1970:B1 *2008:B2 7.90356e-06
9 *1970:B1 *2015:A1 0.000185405
10 *1970:B1 *553:68 3.09233e-05
11 *338:8 *2008:B2 6.02202e-05
12 *338:8 *2015:A1 4.9968e-05
13 *338:8 *2074:A 3.96153e-05
14 *338:8 *339:12 0
15 *338:8 *537:12 2.1444e-05
16 *338:8 *537:42 7.23533e-05
17 *338:8 *554:111 0
*RES
1 *1956:X *338:8 7.02 
2 *338:8 *1957:B 4.74 
3 *338:8 *1970:B1 5.745 
*END

*D_NET *339 0.000501206
*CONN
*I *1958:B I *D sky130_fd_sc_hd__or2_1
*I *1959:B I *D sky130_fd_sc_hd__nand2_1
*I *1957:Y O *D sky130_fd_sc_hd__xnor2_1
*CAP
1 *1958:B 1.16927e-05
2 *1959:B 0
3 *1957:Y 0.000121091
4 *339:12 0.000132783
5 *1958:B *1958:A 4.82863e-05
6 *1958:B *341:6 4.66108e-05
7 *339:12 *534:153 0.00013521
8 *339:12 *554:111 5.53249e-06
9 *338:8 *339:12 0
*RES
1 *1957:Y *339:12 7.685 
2 *339:12 *1959:B 1.6 
3 *339:12 *1958:B 2.05 
*END

*D_NET *340 0.000166078
*CONN
*I *1960:A I *D sky130_fd_sc_hd__and2_1
*I *1958:X O *D sky130_fd_sc_hd__or2_1
*CAP
1 *1960:A 1.23724e-05
2 *1958:X 1.23724e-05
3 *1960:A *2012:B1 5.30673e-05
4 *1960:A *341:6 8.8266e-05
*RES
1 *1958:X *1960:A 3.995 
*END

*D_NET *341 0.00222598
*CONN
*I *1975:A1 I *D sky130_fd_sc_hd__a31o_1
*I *1974:A1 I *D sky130_fd_sc_hd__a21oi_1
*I *1960:B I *D sky130_fd_sc_hd__and2_1
*I *1959:Y O *D sky130_fd_sc_hd__nand2_1
*CAP
1 *1975:A1 1.09588e-05
2 *1974:A1 0.000132787
3 *1960:B 2.08101e-05
4 *1959:Y 6.59136e-05
5 *341:19 0.000329437
6 *341:6 0.000272415
7 *1974:A1 *1974:A2 8.43744e-05
8 *1974:A1 *1975:A3 9.5433e-05
9 *1974:A1 *2050:C1 0
10 *1975:A1 *2050:C1 0
11 *341:6 *1958:A 6.77501e-05
12 *341:6 *2011:B1 0.000389566
13 *341:6 *2012:B1 5.98073e-05
14 *341:19 *1974:A2 3.60648e-06
15 *341:19 *2011:B1 0.000349592
16 *341:19 *2012:B1 0.00016204
17 *341:19 *2050:C1 0
18 *341:19 *342:6 4.66108e-05
19 *1958:B *341:6 4.66108e-05
20 *1960:A *341:6 8.8266e-05
21 *1963:A_N *341:19 0
*RES
1 *1959:Y *341:6 5.155 
2 *341:6 *1960:B 1.96 
3 *341:6 *341:19 6.9725 
4 *341:19 *1974:A1 6.2625 
5 *341:19 *1975:A1 3.8325 
*END

*D_NET *342 0.000896712
*CONN
*I *1961:B I *D sky130_fd_sc_hd__nand2_1
*I *1962:B I *D sky130_fd_sc_hd__or2_1
*I *1960:X O *D sky130_fd_sc_hd__and2_1
*CAP
1 *1961:B 0
2 *1962:B 8.66427e-05
3 *1960:X 1.36534e-05
4 *342:6 0.000100296
5 *1962:B *1963:B 9.14049e-05
6 *1962:B *1963:C 0.000158066
7 *1962:B *343:23 4.9968e-05
8 *342:6 *2012:B1 4.66108e-05
9 *1962:A *1962:B 8.65961e-05
10 *1963:A_N *1962:B 0.000132842
11 *336:18 *1962:B 8.40213e-05
12 *341:19 *342:6 4.66108e-05
*RES
1 *1960:X *342:6 2.05 
2 *342:6 *1962:B 8.72 
3 *342:6 *1961:B 1.6 
*END

*D_NET *343 0.00185533
*CONN
*I *1975:A2 I *D sky130_fd_sc_hd__a31o_1
*I *1974:A2 I *D sky130_fd_sc_hd__a21oi_1
*I *1963:B I *D sky130_fd_sc_hd__and3b_1
*I *1961:Y O *D sky130_fd_sc_hd__nand2_1
*CAP
1 *1975:A2 0.000106966
2 *1974:A2 6.87317e-05
3 *1963:B 0.000120488
4 *1961:Y 6.52939e-05
5 *343:23 0.0003974
6 *343:8 0.000407484
7 *1963:B *1968:B1 5.53249e-06
8 *1963:B *2050:A3 0
9 *1963:B *534:153 0
10 *1974:A2 *1975:A3 2.03321e-05
11 *1975:A2 *1975:A3 2.75229e-05
12 *1975:A2 *1976:B 0
13 *343:8 *2012:B1 8.23457e-05
14 *343:23 *534:153 0
15 *1962:B *1963:B 9.14049e-05
16 *1962:B *343:23 4.9968e-05
17 *1963:A_N *1963:B 2.34345e-05
18 *1963:A_N *1974:A2 2.86623e-05
19 *1963:A_N *343:23 8.07863e-05
20 *1974:A1 *1974:A2 8.43744e-05
21 *1975:B1 *1975:A2 5.05521e-05
22 *1975:B1 *343:23 4.80285e-05
23 *192:99 *1974:A2 9.24127e-05
24 *341:19 *1974:A2 3.60648e-06
*RES
1 *1961:Y *343:8 4.395 
2 *343:8 *1963:B 5.745 
3 *343:8 *343:23 5.885 
4 *343:23 *1974:A2 8 
5 *343:23 *1975:A2 3.445 
*END

*D_NET *344 0.000738171
*CONN
*I *1963:C I *D sky130_fd_sc_hd__and3b_1
*I *1962:X O *D sky130_fd_sc_hd__or2_1
*CAP
1 *1963:C 0.000254244
2 *1962:X 0.000254244
3 *1962:A *1963:C 4.60584e-05
4 *1962:B *1963:C 0.000158066
5 *336:18 *1963:C 2.55587e-05
*RES
1 *1962:X *1963:C 6.41 
*END

*D_NET *345 0.00637222
*CONN
*I *1968:B1 I *D sky130_fd_sc_hd__a31o_1
*I *1963:X O *D sky130_fd_sc_hd__and3b_1
*CAP
1 *1968:B1 0.00113041
2 *1963:X 0.00113041
3 *1968:B1 *524:52 0.000674992
4 *1968:B1 *524:56 8.34281e-06
5 *1968:B1 *534:153 0
6 *1968:B1 *538:28 0.000157959
7 *1835:A2 *1968:B1 0.000162853
8 *1924:C1 *1968:B1 0.0018722
9 *1952:B *1968:B1 0.0001032
10 *1963:B *1968:B1 5.53249e-06
11 *196:46 *1968:B1 0.000145088
12 *196:63 *1968:B1 2.54522e-05
13 *196:74 *1968:B1 0.000615201
14 *196:93 *1968:B1 0.00034058
15 *297:8 *1968:B1 0
*RES
1 *1963:X *1968:B1 39.96 
*END

*D_NET *346 0.000505064
*CONN
*I *1965:B2 I *D sky130_fd_sc_hd__o22a_1
*I *1964:Y O *D sky130_fd_sc_hd__a21oi_1
*CAP
1 *1965:B2 0.000143094
2 *1964:Y 0.000143094
3 *1965:B2 *1964:A2 3.51884e-05
4 *1965:B2 *1967:C1 4.99619e-05
5 *1965:B2 *537:42 5.33085e-05
6 *1965:B2 *537:46 2.75229e-05
7 *1919:B1 *1965:B2 4.13249e-05
8 *1920:B1 *1965:B2 1.15688e-05
*RES
1 *1964:Y *1965:B2 9.555 
*END

*D_NET *347 0.000610564
*CONN
*I *1967:C1 I *D sky130_fd_sc_hd__a221o_1
*I *1965:X O *D sky130_fd_sc_hd__o22a_1
*CAP
1 *1967:C1 0.00013504
2 *1965:X 0.00013504
3 *1967:C1 *1920:A2 1.22676e-05
4 *1967:C1 *1921:A 0.000155928
5 *1967:C1 *1964:A2 0.000122325
6 *1967:C1 *534:153 0
7 *1965:B2 *1967:C1 4.99619e-05
*RES
1 *1965:X *1967:C1 10.23 
*END

*D_NET *348 0.00333455
*CONN
*I *1807:C I *D sky130_fd_sc_hd__or3_1
*I *1598:D1 I *D sky130_fd_sc_hd__a2111oi_1
*I *1601:C1 I *D sky130_fd_sc_hd__a211o_1
*I *1599:A3 I *D sky130_fd_sc_hd__o41ai_4
*I *1597:X O *D sky130_fd_sc_hd__or2_4
*CAP
1 *1807:C 0.000288654
2 *1598:D1 0
3 *1601:C1 5.72511e-05
4 *1599:A3 0.000103944
5 *1597:X 0
6 *348:32 0.000400096
7 *348:10 0.000344994
8 *348:6 0.00029524
9 *1599:A3 *1607:A1 0.000181692
10 *1599:A3 *1607:B1 9.5799e-06
11 *1599:A3 *1968:A2 6.10685e-05
12 *1599:A3 *2011:A2 2.1163e-05
13 *1599:A3 *540:18 2.20418e-05
14 *1601:C1 *1601:A1 1.67131e-05
15 *1601:C1 *1607:A2 3.4026e-05
16 *1601:C1 *1832:B1 1.84596e-05
17 *1601:C1 *547:37 0.000120655
18 *1807:C *1598:A1 4.82919e-05
19 *1807:C *1899:A 0
20 *1807:C *524:64 1.15399e-05
21 *1807:C *529:51 1.81522e-05
22 *1807:C *550:67 4.82863e-05
23 *348:10 *1968:A2 5.71093e-06
24 *348:10 *540:10 3.09233e-05
25 *348:10 *540:12 3.79595e-05
26 *348:10 *540:18 0.000276259
27 *348:10 *547:45 0.000165193
28 *348:32 *524:64 0.000195248
29 *348:32 *540:10 3.76857e-05
30 *348:32 *547:45 0.000255727
31 *1598:A2 *1807:C 8.49205e-05
32 *197:63 *1807:C 0.000131955
33 *199:51 *1807:C 0
34 *326:78 *1807:C 2.99518e-06
35 *326:78 *348:32 8.12462e-06
*RES
1 *1597:X *348:6 3.6 
2 *348:6 *348:10 4.635 
3 *348:10 *1599:A3 6.255 
4 *348:10 *1601:C1 5.1 
5 *348:6 *348:32 3.42 
6 *348:32 *1598:D1 3.6 
7 *348:32 *1807:C 6.61913 
*END

*D_NET *349 0.000200728
*CONN
*I *1969:A I *D sky130_fd_sc_hd__or3_1
*I *1966:X O *D sky130_fd_sc_hd__a32o_1
*CAP
1 *1969:A 2.6306e-05
2 *1966:X 2.6306e-05
3 *1969:A *1966:A2 1.91597e-05
4 *1969:A *1969:C 4.66108e-05
5 *1967:A2 *1969:A 8.23457e-05
*RES
1 *1966:X *1969:A 3.995 
*END

*D_NET *350 0.000848346
*CONN
*I *1969:B I *D sky130_fd_sc_hd__or3_1
*I *1967:X O *D sky130_fd_sc_hd__a221o_1
*CAP
1 *1969:B 0.0002348
2 *1967:X 0.0002348
3 *1969:B *2118:A 8.40269e-05
4 *1920:B2 *1969:B 4.82919e-05
5 *1967:A2 *1969:B 0.000246427
*RES
1 *1967:X *1969:B 7.34 
*END

*D_NET *351 0.00433227
*CONN
*I *1969:C I *D sky130_fd_sc_hd__or3_1
*I *1968:X O *D sky130_fd_sc_hd__a31o_1
*CAP
1 *1969:C 0.00120775
2 *1968:X 0.00120775
3 *1969:C *1966:A2 8.23457e-05
4 *1969:C *490:27 0.000181376
5 *1969:C *563:69 0.000222813
6 *1924:C1 *1969:C 0.000456803
7 *1956:A2 *1969:C 2.18677e-05
8 *1967:A2 *1969:C 1.91597e-05
9 *1969:A *1969:C 4.66108e-05
10 *197:28 *1969:C 8.7152e-06
11 *197:40 *1969:C 1.88656e-05
12 *199:51 *1969:C 7.06865e-05
13 *199:95 *1969:C 4.04805e-05
14 *326:78 *1969:C 0.000747042
*RES
1 *1968:X *1969:C 29.185 
*END

*D_NET *352 0.00135845
*CONN
*I *1971:B I *D sky130_fd_sc_hd__xor2_1
*I *2015:B1 I *D sky130_fd_sc_hd__a21o_1
*I *1970:X O *D sky130_fd_sc_hd__a21o_1
*CAP
1 *1971:B 0.00018462
2 *2015:B1 0
3 *1970:X 0.000163787
4 *352:10 0.000348407
5 *1971:B *2016:B 4.84717e-05
6 *1971:B *2017:B 0.000241483
7 *1971:B *2118:A 0
8 *1971:B *534:153 0
9 *1971:B *553:68 3.25831e-05
10 *352:10 *2118:A 0
11 *352:10 *553:47 2.65814e-06
12 *352:10 *553:68 0.000139245
13 *191:76 *352:10 6.55328e-05
14 *192:97 *1971:B 0.000131667
*RES
1 *1970:X *352:10 6.375 
2 *352:10 *2015:B1 3.6 
3 *352:10 *1971:B 8.61 
*END

*D_NET *353 0.00110439
*CONN
*I *1972:A I *D sky130_fd_sc_hd__inv_2
*I *1973:B I *D sky130_fd_sc_hd__xor2_1
*I *1971:X O *D sky130_fd_sc_hd__xor2_1
*CAP
1 *1972:A 0.000139241
2 *1973:B 0
3 *1971:X 5.94559e-05
4 *353:6 0.000198697
5 *1972:A *2013:A2 0.000116165
6 *1972:A *2017:B 8.65905e-05
7 *353:6 *2017:B 0.000356395
8 *192:97 *353:6 0.000147841
*RES
1 *1971:X *353:6 4.81 
2 *353:6 *1973:B 1.6 
3 *353:6 *1972:A 8.54 
*END

*D_NET *354 0.00060951
*CONN
*I *2013:A2 I *D sky130_fd_sc_hd__a21oi_1
*I *1972:Y O *D sky130_fd_sc_hd__inv_2
*CAP
1 *2013:A2 0.000150001
2 *1972:Y 0.000150001
3 *2013:A2 *1973:A 7.89767e-05
4 *2013:A2 *355:8 0.000105068
5 *1972:A *2013:A2 0.000116165
6 *192:97 *2013:A2 9.29751e-06
*RES
1 *1972:Y *2013:A2 11.07 
*END

*D_NET *355 0.00101705
*CONN
*I *1974:B1 I *D sky130_fd_sc_hd__a21oi_1
*I *1975:A3 I *D sky130_fd_sc_hd__a31o_1
*I *1973:X O *D sky130_fd_sc_hd__xor2_1
*CAP
1 *1974:B1 0
2 *1975:A3 0.000138983
3 *1973:X 0.000204465
4 *355:8 0.000343449
5 *1975:A3 *1976:B 0
6 *1975:A3 *2050:C1 0
7 *355:8 *2013:B1 0
8 *355:8 *2017:A 8.18011e-05
9 *355:8 *2050:C1 0
10 *1974:A1 *1975:A3 9.5433e-05
11 *1974:A2 *1975:A3 2.03321e-05
12 *1975:A2 *1975:A3 2.75229e-05
13 *2013:A2 *355:8 0.000105068
14 *192:97 *355:8 0
15 *192:99 *355:8 0
*RES
1 *1973:X *355:8 8.04 
2 *355:8 *1975:A3 6.39 
3 *355:8 *1974:B1 3.6 
*END

*D_NET *356 0.00139702
*CONN
*I *1976:A I *D sky130_fd_sc_hd__nor2_1
*I *2013:B1 I *D sky130_fd_sc_hd__a21oi_1
*I *1974:Y O *D sky130_fd_sc_hd__a21oi_1
*CAP
1 *1976:A 0.000164957
2 *2013:B1 0.000187541
3 *1974:Y 0.000142909
4 *356:6 0.000495408
5 *1976:A *2050:C1 8.47286e-05
6 *2013:B1 *2017:A 2.59981e-05
7 *2013:B1 *2018:B 4.43871e-06
8 *2013:B1 *2050:C1 9.37731e-05
9 *2018:A *2013:B1 0.000197269
10 *355:8 *2013:B1 0
*RES
1 *1974:Y *356:6 3.43 
2 *356:6 *2013:B1 9.32 
3 *356:6 *1976:A 8.795 
*END

*D_NET *357 0.000112893
*CONN
*I *1976:B I *D sky130_fd_sc_hd__nor2_1
*I *1975:X O *D sky130_fd_sc_hd__a31o_1
*CAP
1 *1976:B 5.64465e-05
2 *1975:X 5.64465e-05
3 *1975:A2 *1976:B 0
4 *1975:A3 *1976:B 0
*RES
1 *1975:X *1976:B 4.01 
*END

*D_NET *358 0.000805489
*CONN
*I *2131:A I *D sky130_fd_sc_hd__clkbuf_1
*I *1598:Y O *D sky130_fd_sc_hd__a2111oi_1
*CAP
1 *2131:A 0.000219941
2 *1598:Y 0.000219941
3 *2131:A *1966:B2 4.99619e-05
4 *2131:A *524:64 0.000115464
5 *2131:A *554:75 0
6 *1808:A *2131:A 9.47454e-05
7 *182:16 *2131:A 4.41506e-05
8 *183:12 *2131:A 6.12863e-05
*RES
1 *1598:Y *2131:A 11.79 
*END

*D_NET *359 0.00412743
*CONN
*I *2011:B1 I *D sky130_fd_sc_hd__a211o_1
*I *1976:Y O *D sky130_fd_sc_hd__nor2_1
*CAP
1 *2011:B1 0.00108692
2 *1976:Y 0.00108692
3 *2011:B1 *1958:A 1.34594e-05
4 *2011:B1 *2008:B2 0.000121437
5 *2011:B1 *2012:B1 0.00091292
6 *2011:B1 *2050:C1 9.54469e-05
7 *2007:B1 *2011:B1 2.51519e-05
8 *2011:A1 *2011:B1 2.49909e-05
9 *326:56 *2011:B1 2.10279e-05
10 *341:6 *2011:B1 0.000389566
11 *341:19 *2011:B1 0.000349592
*RES
1 *1976:Y *2011:B1 27.33 
*END

*D_NET *360 0.00273131
*CONN
*I *2003:A I *D sky130_fd_sc_hd__xnor2_1
*I *2002:A I *D sky130_fd_sc_hd__and3_1
*I *1977:X O *D sky130_fd_sc_hd__a21o_1
*CAP
1 *2003:A 0
2 *2002:A 0.000191797
3 *1977:X 0.00016622
4 *360:8 0.000358017
5 *2002:A *2003:B 0.000855878
6 *2002:A *2062:A 0.000851857
7 *360:8 *2003:B 3.09164e-05
8 *360:8 *388:10 0.000249921
9 *360:8 *431:12 0
10 *1946:A *360:8 2.67022e-05
11 *323:14 *360:8 0
*RES
1 *1977:X *360:8 7.275 
2 *360:8 *2002:A 13.395 
3 *360:8 *2003:A 3.6 
*END

*D_NET *361 0.00128447
*CONN
*I *1980:A I *D sky130_fd_sc_hd__or2_1
*I *2020:A I *D sky130_fd_sc_hd__xnor2_1
*I *1978:X O *D sky130_fd_sc_hd__o211a_1
*CAP
1 *1980:A 1.75298e-05
2 *2020:A 0.000206869
3 *1978:X 6.63441e-05
4 *361:8 0.000290743
5 *1980:A *1979:A2 4.82919e-05
6 *1980:A *363:10 1.1392e-05
7 *2020:A *1980:B 4.43871e-06
8 *2020:A *2062:A 0
9 *2020:A *363:10 0.000139933
10 *361:8 *1980:B 9.52234e-05
11 *323:14 *2020:A 0.000233224
12 *323:14 *361:8 0.000170484
*RES
1 *1978:X *361:8 5.745 
2 *361:8 *2020:A 8.085 
3 *361:8 *1980:A 4.05 
*END

*D_NET *362 0.000434367
*CONN
*I *1980:B I *D sky130_fd_sc_hd__or2_1
*I *1979:Y O *D sky130_fd_sc_hd__a211oi_1
*CAP
1 *1980:B 0.00013242
2 *1979:Y 0.00013242
3 *1980:B *1979:A2 4.82919e-05
4 *1980:B *2062:A 0
5 *1980:B *2065:A 2.15738e-05
6 *2020:A *1980:B 4.43871e-06
7 *361:8 *1980:B 9.52234e-05
*RES
1 *1979:Y *1980:B 9.795 
*END

*D_NET *363 0.00121741
*CONN
*I *1999:B1 I *D sky130_fd_sc_hd__o21ai_1
*I *2000:A I *D sky130_fd_sc_hd__or3_1
*I *1980:X O *D sky130_fd_sc_hd__or2_1
*CAP
1 *1999:B1 0
2 *2000:A 0.000105503
3 *1980:X 0.000334545
4 *363:10 0.000440047
5 *2000:A *1999:A1 6.64979e-05
6 *2000:A *1999:A2 0
7 *2000:A *2043:A 0
8 *363:10 *1979:A2 3.1562e-06
9 *363:10 *2020:B 5.63405e-05
10 *363:10 *2043:A 0
11 *363:10 *2062:A 0
12 *363:10 *384:12 0
13 *1980:A *363:10 1.1392e-05
14 *2020:A *363:10 0.000139933
15 *310:12 *2000:A 0
16 *310:12 *363:10 0
17 *323:14 *363:10 6.00003e-05
*RES
1 *1980:X *363:10 9.855 
2 *363:10 *2000:A 5.745 
3 *363:10 *1999:B1 3.6 
*END

*D_NET *364 0.000294108
*CONN
*I *1985:A I *D sky130_fd_sc_hd__xnor2_1
*I *1981:Y O *D sky130_fd_sc_hd__nand2_1
*CAP
1 *1985:A 0.000138273
2 *1981:Y 0.000138273
3 *1985:A *1981:A 5.83121e-06
4 *1985:A *1985:B 0
5 *1985:A *2040:A 0
6 *1985:A *490:27 0
7 *1985:A *537:84 1.17309e-05
*RES
1 *1981:Y *1985:A 9.285 
*END

*D_NET *365 0.000473922
*CONN
*I *1984:A I *D sky130_fd_sc_hd__nor2_1
*I *1982:Y O *D sky130_fd_sc_hd__a22oi_1
*CAP
1 *1984:A 0.000153576
2 *1982:Y 0.000153576
3 *1984:A *1926:B 2.49909e-05
4 *1984:A *2059:A 0
5 *1984:A *521:39 4.90031e-05
6 *1984:A *527:34 0
7 *1984:A *541:36 4.66108e-05
8 *305:12 *1984:A 4.61658e-05
*RES
1 *1982:Y *1984:A 9.795 
*END

*D_NET *366 0.000915276
*CONN
*I *1984:B I *D sky130_fd_sc_hd__nor2_1
*I *2038:B1 I *D sky130_fd_sc_hd__a31o_1
*I *1983:X O *D sky130_fd_sc_hd__and4_1
*CAP
1 *1984:B 5.99862e-05
2 *2038:B1 0
3 *1983:X 9.23238e-05
4 *366:12 0.00015231
5 *1984:B *1979:A2 9.07793e-05
6 *1984:B *1981:A 4.82863e-05
7 *1984:B *367:6 0.0001249
8 *1984:B *537:84 8.23457e-05
9 *366:12 *1926:B 1.56428e-05
10 *366:12 *1979:A2 3.90266e-05
11 *366:12 *1983:C 4.66108e-05
12 *366:12 *1983:D 9.50342e-06
13 *366:12 *490:27 0
14 *366:12 *525:92 0.00015356
*RES
1 *1983:X *366:12 7.94 
2 *366:12 *2038:B1 1.6 
3 *366:12 *1984:B 3.775 
*END

*D_NET *367 0.000747152
*CONN
*I *2038:A3 I *D sky130_fd_sc_hd__a31o_1
*I *1985:B I *D sky130_fd_sc_hd__xnor2_1
*I *1984:Y O *D sky130_fd_sc_hd__nor2_1
*CAP
1 *2038:A3 0
2 *1985:B 0.00019638
3 *1984:Y 6.91324e-05
4 *367:6 0.000265512
5 *1985:B *2038:A2 9.50342e-06
6 *1985:B *2040:A 6.55406e-05
7 *367:6 *1979:A2 1.61831e-05
8 *1984:B *367:6 0.0001249
9 *1985:A *1985:B 0
*RES
1 *1984:Y *367:6 3.085 
2 *367:6 *1985:B 8.975 
3 *367:6 *2038:A3 1.6 
*END

*D_NET *368 0.00165921
*CONN
*I *1996:A I *D sky130_fd_sc_hd__xor2_1
*I *2039:A1 I *D sky130_fd_sc_hd__a21oi_1
*I *1985:Y O *D sky130_fd_sc_hd__xnor2_1
*CAP
1 *1996:A 0
2 *2039:A1 4.43954e-05
3 *1985:Y 0.000522275
4 *368:12 0.000566671
5 *2039:A1 *1996:B 6.55328e-05
6 *2039:A1 *2040:A 4.70343e-05
7 *368:12 *2040:A 0.000271707
8 *1938:A *368:12 0
9 *1939:A *368:12 0
10 *1940:B *368:12 0.000141599
11 *311:10 *368:12 0
12 *316:10 *368:12 0
13 *317:34 *368:12 0
*RES
1 *1985:Y *368:12 15.53 
2 *368:12 *2039:A1 6.98 
3 *368:12 *1996:A 1.6 
*END

*D_NET *369 0.00309385
*CONN
*I *1607:A1 I *D sky130_fd_sc_hd__a21oi_1
*I *1641:A2 I *D sky130_fd_sc_hd__a21o_1
*I *1605:A2 I *D sky130_fd_sc_hd__a211oi_2
*I *1604:B1_N I *D sky130_fd_sc_hd__o21bai_1
*I *1608:A2 I *D sky130_fd_sc_hd__a211o_1
*I *1599:Y O *D sky130_fd_sc_hd__o41ai_4
*CAP
1 *1607:A1 5.39443e-05
2 *1641:A2 0
3 *1605:A2 0
4 *1604:B1_N 4.4018e-05
5 *1608:A2 9.8626e-05
6 *1599:Y 5.46624e-05
7 *369:25 4.4018e-05
8 *369:14 0.000145263
9 *369:10 0.000174558
10 *369:6 0.000236528
11 *1604:B1_N *1604:A1 0.000234674
12 *1604:B1_N *550:32 0.000234674
13 *1607:A1 *540:18 0.000179338
14 *1608:A2 *1608:A1 0.000201393
15 *1608:A2 *2078:A 4.9968e-05
16 *1608:A2 *474:14 0
17 *369:6 *1599:A2 0.000108753
18 *369:6 *547:82 2.75229e-05
19 *369:10 *1599:A2 2.75229e-05
20 *369:10 *1641:A1 0.000100142
21 *369:14 *1608:A1 0.000159964
22 *369:14 *2078:A 0.000151432
23 *1599:A3 *1607:A1 0.000181692
24 *1599:A4 *369:6 0.000232111
25 *1599:A4 *369:10 0.000107205
26 *1641:B1 *369:10 0.000245843
*RES
1 *1599:Y *369:6 3.775 
2 *369:6 *369:10 3.57 
3 *369:10 *369:14 3.89 
4 *369:14 *1608:A2 6 
5 *369:14 *369:25 2 
6 *369:25 *1604:B1_N 3.775 
7 *369:25 *1605:A2 1.6 
8 *369:10 *1641:A2 1.6 
9 *369:6 *1607:A1 7.745 
*END

*D_NET *370 0.00119162
*CONN
*I *1991:A I *D sky130_fd_sc_hd__xor2_1
*I *2031:A1 I *D sky130_fd_sc_hd__o21bai_1
*I *1986:Y O *D sky130_fd_sc_hd__nand2_1
*CAP
1 *1991:A 0
2 *2031:A1 0.0001953
3 *1986:Y 0.000117345
4 *370:8 0.000312645
5 *2031:A1 *1989:A1 6.53629e-05
6 *2031:A1 *1989:A2 1.2818e-05
7 *2031:A1 *1989:B2 4.66108e-05
8 *2031:A1 *2031:A2 0.000253242
9 *2031:A1 *492:87 2.59835e-05
10 *370:8 *1986:A 0.000162311
*RES
1 *1986:Y *370:8 4.135 
2 *370:8 *2031:A1 6.325 
3 *370:8 *1991:A 1.6 
*END

*D_NET *371 0.000308326
*CONN
*I *2034:A I *D sky130_fd_sc_hd__xor2_1
*I *1987:Y O *D sky130_fd_sc_hd__nand2_1
*CAP
1 *2034:A 0.000154163
2 *1987:Y 0.000154163
3 *2034:A *2033:A 0
4 *2034:A *492:87 0
*RES
1 *1987:Y *2034:A 5.39 
*END

*D_NET *372 0.00109451
*CONN
*I *1990:A I *D sky130_fd_sc_hd__or2_1
*I *2031:B1_N I *D sky130_fd_sc_hd__o21bai_1
*I *1988:X O *D sky130_fd_sc_hd__and3_1
*CAP
1 *1990:A 0.000179698
2 *2031:B1_N 0.000177021
3 *1988:X 0
4 *372:4 0.000356719
5 *1990:A *1988:A 4.82919e-05
6 *1990:A *1988:C 1.70906e-05
7 *1990:A *1990:B 4.66108e-05
8 *1990:A *549:72 3.45588e-05
9 *1990:A *549:81 4.43682e-05
10 *2031:B1_N *1988:A 0
11 *2031:B1_N *492:87 5.33085e-05
12 *2031:B1_N *549:72 1.90092e-05
13 *2031:B1_N *554:23 0.000117832
*RES
1 *1988:X *372:4 1.6 
2 *372:4 *2031:B1_N 8.465 
3 *372:4 *1990:A 5.08 
*END

*D_NET *373 0.00112879
*CONN
*I *1990:B I *D sky130_fd_sc_hd__or2_1
*I *2031:A2 I *D sky130_fd_sc_hd__o21bai_1
*I *1989:Y O *D sky130_fd_sc_hd__a22oi_1
*CAP
1 *1990:B 0.000133607
2 *2031:A2 0.000186481
3 *1989:Y 0
4 *373:4 0.000320087
5 *1990:B *1986:A 0
6 *1990:B *1989:B1 1.26548e-05
7 *1990:B *1989:B2 4.9968e-05
8 *1990:B *1991:B 0
9 *1990:B *492:87 9.37731e-05
10 *2031:A2 *1989:A1 3.23663e-05
11 *1990:A *1990:B 4.66108e-05
12 *2031:A1 *2031:A2 0.000253242
*RES
1 *1989:Y *373:4 1.6 
2 *373:4 *2031:A2 5.08 
3 *373:4 *1990:B 8.195 
*END

*D_NET *374 0.000354345
*CONN
*I *1991:B I *D sky130_fd_sc_hd__xor2_1
*I *1990:X O *D sky130_fd_sc_hd__or2_1
*CAP
1 *1991:B 0.000145344
2 *1990:X 0.000145344
3 *1991:B *1986:A 6.36578e-05
4 *1991:B *375:12 0
5 *1990:B *1991:B 0
*RES
1 *1990:X *1991:B 9.285 
*END

*D_NET *375 0.00189719
*CONN
*I *1992:C I *D sky130_fd_sc_hd__nor3_1
*I *1993:B1 I *D sky130_fd_sc_hd__o21a_1
*I *1991:X O *D sky130_fd_sc_hd__xor2_1
*CAP
1 *1992:C 0
2 *1993:B1 8.95998e-05
3 *1991:X 0.000502597
4 *375:12 0.000592197
5 *1993:B1 *1994:A 0.000200615
6 *375:12 *1986:A 0.000152972
7 *375:12 *546:35 1.94805e-05
8 *375:12 *546:44 0.000147918
9 *1991:B *375:12 0
10 *1992:B *375:12 1.61831e-05
11 *1993:A1 *1993:B1 5.16182e-05
12 *1993:A1 *375:12 0.000124007
*RES
1 *1991:X *375:12 15.92 
2 *375:12 *1993:B1 4.15 
3 *375:12 *1992:C 1.6 
*END

*D_NET *376 0.00077857
*CONN
*I *1994:A I *D sky130_fd_sc_hd__or2_1
*I *1992:Y O *D sky130_fd_sc_hd__nor3_1
*CAP
1 *1994:A 0.000194799
2 *1992:Y 0.000194799
3 *1994:A *2039:A2 0
4 *1994:A *2039:B1 3.23663e-05
5 *1994:A *377:6 2.11084e-05
6 *1994:A *378:8 0
7 *1992:B *1994:A 4.82863e-05
8 *1993:A2 *1994:A 8.65961e-05
9 *1993:B1 *1994:A 0.000200615
*RES
1 *1992:Y *1994:A 7.37 
*END

*D_NET *377 0.000355327
*CONN
*I *2039:B1 I *D sky130_fd_sc_hd__a21oi_1
*I *1994:B I *D sky130_fd_sc_hd__or2_1
*I *1993:X O *D sky130_fd_sc_hd__o21a_1
*CAP
1 *2039:B1 0.000113074
2 *1994:B 0
3 *1993:X 2.40911e-05
4 *377:6 0.000137165
5 *2039:B1 *378:8 2.75229e-05
6 *1994:A *2039:B1 3.23663e-05
7 *1994:A *377:6 2.11084e-05
*RES
1 *1993:X *377:6 2.05 
2 *377:6 *1994:B 1.6 
3 *377:6 *2039:B1 3.43 
*END

*D_NET *378 0.00070446
*CONN
*I *1995:A I *D sky130_fd_sc_hd__inv_2
*I *1996:B I *D sky130_fd_sc_hd__xor2_1
*I *1994:X O *D sky130_fd_sc_hd__or2_1
*CAP
1 *1995:A 0
2 *1996:B 0.000158849
3 *1994:X 0.000127066
4 *378:8 0.000285916
5 *1996:B *2040:A 0
6 *1996:B *2042:B 0
7 *378:8 *2039:A2 3.95724e-05
8 *1994:A *378:8 0
9 *2039:A1 *1996:B 6.55328e-05
10 *2039:B1 *378:8 2.75229e-05
*RES
1 *1994:X *378:8 3.79 
2 *378:8 *1996:B 8.195 
3 *378:8 *1995:A 1.6 
*END

*D_NET *379 0.000177516
*CONN
*I *2039:A2 I *D sky130_fd_sc_hd__a21oi_1
*I *1995:Y O *D sky130_fd_sc_hd__inv_2
*CAP
1 *2039:A2 6.8972e-05
2 *1995:Y 6.8972e-05
3 *1994:A *2039:A2 0
4 *378:8 *2039:A2 3.95724e-05
*RES
1 *1995:Y *2039:A2 4.355 
*END

*D_NET *380 0.00177639
*CONN
*I *1602:B I *D sky130_fd_sc_hd__nor2_1
*I *1601:A2 I *D sky130_fd_sc_hd__a211o_1
*I *1603:B I *D sky130_fd_sc_hd__or2_1
*I *1600:X O *D sky130_fd_sc_hd__and2b_1
*CAP
1 *1602:B 0
2 *1601:A2 0.000381385
3 *1603:B 0
4 *1600:X 7.39733e-05
5 *380:12 0.000449961
6 *380:8 0.000142549
7 *1601:A2 *1596:D 0
8 *1601:A2 *1602:A 8.65961e-05
9 *1601:A2 *1604:A2 3.57349e-05
10 *1601:A2 *1832:B1 7.61941e-05
11 *1601:A2 *2078:A 0.000225175
12 *1601:A2 *412:6 3.99879e-05
13 *1601:A2 *543:42 0
14 *1601:A2 *547:12 5.83121e-06
15 *1601:A2 *547:26 0.000107415
16 *380:12 *1602:A 4.82863e-05
17 *380:12 *1604:A2 8.49205e-05
18 *1641:B1 *1601:A2 1.83756e-05
*RES
1 *1600:X *380:8 2.755 
2 *380:8 *380:12 1.5 
3 *380:12 *1603:B 1.6 
4 *380:12 *1601:A2 12.95 
5 *380:8 *1602:B 1.6 
*END

*D_NET *381 0.00145167
*CONN
*I *1998:B1 I *D sky130_fd_sc_hd__a21oi_1
*I *1997:C I *D sky130_fd_sc_hd__and3_1
*I *1996:X O *D sky130_fd_sc_hd__xor2_1
*CAP
1 *1998:B1 6.21248e-05
2 *1997:C 0
3 *1996:X 0.000420653
4 *381:14 0.000482778
5 *1998:B1 *566:14 0.00013732
6 *381:14 *2042:B 6.69341e-05
7 *381:14 *2059:A 0
8 *381:14 *566:14 9.16333e-06
9 *1997:B *381:14 4.13249e-05
10 *1998:A1 *1998:B1 0.000154426
11 *1998:A1 *381:14 1.70906e-05
12 *1998:A2 *1998:B1 4.82919e-05
13 *322:8 *381:14 1.1561e-05
*RES
1 *1996:X *381:14 11.21 
2 *381:14 *1997:C 1.6 
3 *381:14 *1998:B1 3.715 
*END

*D_NET *382 0.00100322
*CONN
*I *2000:B I *D sky130_fd_sc_hd__or3_1
*I *1999:A1 I *D sky130_fd_sc_hd__o21ai_1
*I *1997:X O *D sky130_fd_sc_hd__and3_1
*CAP
1 *2000:B 2.99209e-05
2 *1999:A1 0.000164235
3 *1997:X 0.000158284
4 *382:10 0.000352441
5 *1999:A1 *1999:A2 0
6 *2000:B *383:6 4.82919e-05
7 *382:10 *383:6 0.000116984
8 *382:10 *566:14 6.6566e-05
9 *1997:B *1999:A1 0
10 *2000:A *1999:A1 6.64979e-05
11 *310:12 *1999:A1 0
12 *322:8 *1999:A1 0
*RES
1 *1997:X *382:10 4.24 
2 *382:10 *1999:A1 8 
3 *382:10 *2000:B 2.41 
*END

*D_NET *383 0.00231448
*CONN
*I *2021:A_N I *D sky130_fd_sc_hd__and2b_1
*I *1999:A2 I *D sky130_fd_sc_hd__o21ai_1
*I *2000:C I *D sky130_fd_sc_hd__or3_1
*I *1998:Y O *D sky130_fd_sc_hd__a21oi_1
*CAP
1 *2021:A_N 0.000218331
2 *1999:A2 0.000261987
3 *2000:C 1.88809e-05
4 *1998:Y 3.09935e-05
5 *383:15 0.000572756
6 *383:6 0.000142313
7 *1999:A2 *2043:A 7.25036e-05
8 *1999:A2 *2062:A 3.64998e-06
9 *1999:A2 *384:12 9.78429e-05
10 *2000:C *566:14 5.4155e-06
11 *2021:A_N *2021:B 0
12 *2021:A_N *2043:A 0
13 *2021:A_N *385:8 0.000108761
14 *2021:A_N *385:23 0
15 *2021:A_N *566:14 0.000123304
16 *383:6 *566:14 0.00010854
17 *383:15 *385:8 9.91257e-05
18 *383:15 *566:14 0.000131658
19 *1999:A1 *1999:A2 0
20 *2000:A *1999:A2 0
21 *2000:B *383:6 4.82919e-05
22 *2109:A *2021:A_N 0.000153139
23 *382:10 *383:6 0.000116984
*RES
1 *1998:Y *383:6 3.01375 
2 *383:6 *2000:C 1.96 
3 *383:6 *383:15 2.865 
4 *383:15 *1999:A2 10.61 
5 *383:15 *2021:A_N 10.7 
*END

*D_NET *384 0.000883399
*CONN
*I *2001:A I *D sky130_fd_sc_hd__nand2_1
*I *2002:B I *D sky130_fd_sc_hd__and3_1
*I *1999:Y O *D sky130_fd_sc_hd__o21ai_1
*CAP
1 *2001:A 0.000108047
2 *2002:B 0
3 *1999:Y 0.000210779
4 *384:12 0.000318827
5 *2001:A *2002:C 6.97118e-05
6 *2001:A *2003:B 5.83121e-06
7 *384:12 *2062:A 7.23602e-05
8 *1999:A2 *384:12 9.78429e-05
9 *363:10 *384:12 0
*RES
1 *1999:Y *384:12 8.645 
2 *384:12 *2002:B 1.6 
3 *384:12 *2001:A 3.61 
*END

*D_NET *385 0.00206685
*CONN
*I *2002:C I *D sky130_fd_sc_hd__and3_1
*I *2001:B I *D sky130_fd_sc_hd__nand2_1
*I *2021:B I *D sky130_fd_sc_hd__and2b_1
*I *2000:X O *D sky130_fd_sc_hd__or3_1
*CAP
1 *2002:C 0.000197239
2 *2001:B 0
3 *2021:B 5.54155e-05
4 *2000:X 0.000238052
5 *385:23 0.000454102
6 *385:8 0.00055033
7 *2002:C *2003:B 8.73389e-06
8 *2021:B *2043:A 5.2089e-05
9 *385:23 *2043:A 0.000233292
10 *2001:A *2002:C 6.97118e-05
11 *2021:A_N *2021:B 0
12 *2021:A_N *385:8 0.000108761
13 *2021:A_N *385:23 0
14 *2108:A *385:23 0
15 *2109:A *385:23 0
16 *383:15 *385:8 9.91257e-05
*RES
1 *2000:X *385:8 6.81 
2 *385:8 *2021:B 4.725 
3 *385:8 *385:23 7.4 
4 *385:23 *2001:B 1.6 
5 *385:23 *2002:C 4.105 
*END

*D_NET *386 0.00203196
*CONN
*I *2003:B I *D sky130_fd_sc_hd__xnor2_1
*I *2001:Y O *D sky130_fd_sc_hd__nand2_1
*CAP
1 *2003:B 0.000303567
2 *2001:Y 0.000303567
3 *2003:B *2043:A 0.00020613
4 *2003:B *2062:A 3.76596e-05
5 *2003:B *431:12 0.000279681
6 *2003:B *544:18 0
7 *2001:A *2003:B 5.83121e-06
8 *2002:A *2003:B 0.000855878
9 *2002:C *2003:B 8.73389e-06
10 *360:8 *2003:B 3.09164e-05
*RES
1 *2001:Y *2003:B 18.465 
*END

*D_NET *387 0.00022296
*CONN
*I *2020:B I *D sky130_fd_sc_hd__xnor2_1
*I *2002:X O *D sky130_fd_sc_hd__and3_1
*CAP
1 *2020:B 5.51397e-05
2 *2002:X 5.51397e-05
3 *2020:B *2062:A 5.63405e-05
4 *363:10 *2020:B 5.63405e-05
*RES
1 *2002:X *2020:B 8.835 
*END

*D_NET *388 0.00401097
*CONN
*I *2019:B1 I *D sky130_fd_sc_hd__o21ai_1
*I *2004:A I *D sky130_fd_sc_hd__xnor2_1
*I *2003:Y O *D sky130_fd_sc_hd__xnor2_1
*CAP
1 *2019:B1 8.89059e-05
2 *2004:A 4.90585e-05
3 *2003:Y 0.00107616
4 *388:10 0.00121413
5 *2019:B1 *389:12 7.63204e-05
6 *2019:B1 *405:12 2.75145e-05
7 *2019:B1 *431:12 0
8 *388:10 *431:12 0
9 *388:10 *527:76 0
10 *388:10 *527:89 0
11 *388:10 *544:18 5.30673e-05
12 *1914:A1 *388:10 0
13 *1916:B *388:10 6.95335e-05
14 *1944:B *388:10 0
15 *1945:B1 *388:10 0
16 *1946:A *388:10 0
17 *1947:A *388:10 1.61717e-05
18 *1947:B *388:10 2.60986e-05
19 *2004:B *2004:A 4.82863e-05
20 *260:10 *388:10 0
21 *291:8 *388:10 0
22 *292:12 *388:10 6.36578e-05
23 *295:12 *388:10 0
24 *323:14 *388:10 0
25 *325:12 *388:10 0.000137571
26 *329:8 *388:10 0.000164679
27 *329:23 *388:10 0.000355129
28 *332:12 *2019:B1 8.6099e-05
29 *332:12 *388:10 0.000181152
30 *334:6 *2019:B1 2.75145e-05
31 *360:8 *388:10 0.000249921
*RES
1 *2003:Y *388:10 26.43 
2 *388:10 *2004:A 4.395 
3 *388:10 *2019:B1 6.195 
*END

*D_NET *389 0.0010403
*CONN
*I *2006:B I *D sky130_fd_sc_hd__nand2_1
*I *2005:B I *D sky130_fd_sc_hd__or2_1
*I *2004:Y O *D sky130_fd_sc_hd__xnor2_1
*CAP
1 *2006:B 0.000105541
2 *2005:B 0
3 *2004:Y 0.000121981
4 *389:12 0.000227522
5 *389:12 *2012:A2 5.83121e-06
6 *389:12 *405:12 0.000227536
7 *2006:A *2006:B 4.2057e-05
8 *2006:A *389:12 4.66108e-05
9 *2019:A1 *389:12 4.76581e-05
10 *2019:B1 *389:12 7.63204e-05
11 *334:12 *389:12 0.000139245
*RES
1 *2004:Y *389:12 9.725 
2 *389:12 *2005:B 1.6 
3 *389:12 *2006:B 3.46 
*END

*D_NET *390 0.000517102
*CONN
*I *2012:A2 I *D sky130_fd_sc_hd__a31o_1
*I *2005:X O *D sky130_fd_sc_hd__or2_1
*CAP
1 *2012:A2 0.000144101
2 *2005:X 0.000144101
3 *2012:A2 *2012:A3 2.42236e-05
4 *2012:A2 *2050:B1 0.000114492
5 *2012:A2 *405:12 7.23602e-05
6 *2006:A *2012:A2 1.19928e-05
7 *389:12 *2012:A2 5.83121e-06
*RES
1 *2005:X *2012:A2 9.72 
*END

*D_NET *391 0.00351685
*CONN
*I *1607:B1 I *D sky130_fd_sc_hd__a21oi_1
*I *1604:A1 I *D sky130_fd_sc_hd__o21bai_1
*I *1608:B1 I *D sky130_fd_sc_hd__a211o_1
*I *1601:X O *D sky130_fd_sc_hd__a211o_1
*CAP
1 *1607:B1 0.000308293
2 *1604:A1 0.000144205
3 *1608:B1 5.4438e-05
4 *1601:X 9.6987e-05
5 *391:16 0.00035992
6 *391:12 0.000566557
7 *1604:A1 *1590:A 0
8 *1604:A1 *1605:A1 4.82863e-05
9 *1604:A1 *1618:B 0.000176511
10 *1604:A1 *2078:A 0.00015639
11 *1604:A1 *423:10 2.30292e-05
12 *1604:A1 *518:54 4.82863e-05
13 *1604:A1 *550:32 0.000141266
14 *1607:B1 *1607:A2 3.21081e-06
15 *1607:B1 *1832:B1 3.83084e-05
16 *1607:B1 *1968:A2 1.79536e-05
17 *1607:B1 *2011:A2 2.38557e-05
18 *1607:B1 *547:37 2.75145e-05
19 *1608:B1 *1599:A1 0.00017354
20 *1608:B1 *1608:A1 2.15594e-05
21 *1608:B1 *1618:B 0.000139238
22 *1608:B1 *516:79 9.50342e-06
23 *391:12 *1597:B 3.63701e-06
24 *391:12 *2078:A 1.17114e-05
25 *391:16 *1597:B 0.000190179
26 *391:16 *1599:A1 0.000180682
27 *391:16 *1608:A1 0.000129226
28 *391:16 *2078:A 0
29 *1599:A3 *1607:B1 9.5799e-06
30 *1604:B1_N *1604:A1 0.000234674
31 *1896:C1 *1607:B1 0.00013529
32 *1896:C1 *391:12 4.30179e-05
*RES
1 *1601:X *391:12 4.48703 
2 *391:12 *391:16 5.0675 
3 *391:16 *1608:B1 5.745 
4 *391:16 *1604:A1 8.895 
5 *391:12 *1607:B1 5.5774 
*END

*D_NET *392 0.000398646
*CONN
*I *2012:A3 I *D sky130_fd_sc_hd__a31o_1
*I *2006:Y O *D sky130_fd_sc_hd__nand2_1
*CAP
1 *2012:A3 6.41101e-05
2 *2006:Y 6.41101e-05
3 *2012:A3 *2044:A 1.91597e-05
4 *2012:A3 *2045:A 1.16578e-05
5 *2012:A3 *2045:B 4.82863e-05
6 *2012:A3 *405:12 7.23533e-05
7 *2012:A3 *431:12 9.47454e-05
8 *2012:A2 *2012:A3 2.42236e-05
*RES
1 *2006:Y *2012:A3 9.03 
*END

*D_NET *393 0.000624733
*CONN
*I *2008:B2 I *D sky130_fd_sc_hd__o22a_1
*I *2007:Y O *D sky130_fd_sc_hd__a21oi_1
*CAP
1 *2008:B2 0.00014013
2 *2007:Y 0.00014013
3 *2008:B2 *1970:A1 5.4003e-05
4 *2008:B2 *2008:A1 9.50342e-06
5 *2008:B2 *537:12 9.14049e-05
6 *1970:B1 *2008:B2 7.90356e-06
7 *2011:B1 *2008:B2 0.000121437
8 *338:8 *2008:B2 6.02202e-05
*RES
1 *2007:Y *2008:B2 9.975 
*END

*D_NET *394 0.000892508
*CONN
*I *2010:B1 I *D sky130_fd_sc_hd__a211o_1
*I *2008:X O *D sky130_fd_sc_hd__o22a_1
*CAP
1 *2010:B1 0.000111846
2 *2008:X 0.000111846
3 *2010:B1 *2010:C1 8.8266e-05
4 *2010:B1 *535:69 3.13458e-05
5 *2008:B1 *2010:B1 0.00042787
6 *2009:A3 *2010:B1 6.65725e-05
7 *2009:B1 *2010:B1 5.47608e-05
*RES
1 *2008:X *2010:B1 7.46 
*END

*D_NET *395 0.000197062
*CONN
*I *2010:C1 I *D sky130_fd_sc_hd__a211o_1
*I *2009:X O *D sky130_fd_sc_hd__a32o_1
*CAP
1 *2010:C1 1.02651e-05
2 *2009:X 1.02651e-05
3 *2009:A3 *2010:C1 8.8266e-05
4 *2010:B1 *2010:C1 8.8266e-05
*RES
1 *2009:X *2010:C1 3.995 
*END

*D_NET *396 0.0005364
*CONN
*I *2011:C1 I *D sky130_fd_sc_hd__a211o_1
*I *2010:X O *D sky130_fd_sc_hd__a211o_1
*CAP
1 *2011:C1 0.000109594
2 *2010:X 0.000109594
3 *2010:A2 *2011:C1 4.70695e-05
4 *196:8 *2011:C1 0.000136418
5 *205:14 *2011:C1 8.40269e-05
6 *336:18 *2011:C1 4.96965e-05
*RES
1 *2010:X *2011:C1 9.63 
*END

*D_NET *397 0.00442309
*CONN
*I *2012:B1 I *D sky130_fd_sc_hd__a31o_1
*I *2011:X O *D sky130_fd_sc_hd__a211o_1
*CAP
1 *2012:B1 0.00100575
2 *2011:X 0.00100575
3 *2012:B1 *1958:A 0.000231634
4 *2012:B1 *2007:A2 8.23457e-05
5 *2012:B1 *2050:A3 2.13396e-05
6 *2012:B1 *2050:B1 0.000183043
7 *2012:B1 *2050:C1 0.000139245
8 *2012:B1 *2119:A 0
9 *2012:B1 *535:22 4.82919e-05
10 *2012:B1 *535:61 4.82863e-05
11 *2012:B1 *537:6 3.03775e-05
12 *2012:B1 *537:12 3.1835e-05
13 *1960:A *2012:B1 5.30673e-05
14 *2007:B1 *2012:B1 0.000139166
15 *2011:B1 *2012:B1 0.00091292
16 *2050:A1 *2012:B1 0.000139245
17 *341:6 *2012:B1 5.98073e-05
18 *341:19 *2012:B1 0.00016204
19 *342:6 *2012:B1 4.66108e-05
20 *343:8 *2012:B1 8.23457e-05
*RES
1 *2011:X *2012:B1 28.98 
*END

*D_NET *398 0.000570879
*CONN
*I *2017:A I *D sky130_fd_sc_hd__xnor2_1
*I *2013:Y O *D sky130_fd_sc_hd__a21oi_1
*CAP
1 *2017:A 0.000169928
2 *2013:Y 0.000169928
3 *2017:A *2018:B 0
4 *2013:B1 *2017:A 2.59981e-05
5 *2018:A *2017:A 0.000123225
6 *355:8 *2017:A 8.18011e-05
*RES
1 *2013:Y *2017:A 10.74 
*END

*D_NET *399 0.000651116
*CONN
*I *2016:A I *D sky130_fd_sc_hd__xnor2_1
*I *2014:Y O *D sky130_fd_sc_hd__xnor2_1
*CAP
1 *2016:A 0.000247473
2 *2014:Y 0.000247473
3 *2016:A *532:6 4.99619e-05
4 *192:97 *2016:A 0.000106207
*RES
1 *2014:Y *2016:A 7.37 
*END

*D_NET *400 0.000331695
*CONN
*I *2016:B I *D sky130_fd_sc_hd__xnor2_1
*I *2015:X O *D sky130_fd_sc_hd__a21o_1
*CAP
1 *2016:B 0.000130599
2 *2015:X 0.000130599
3 *2016:B *2118:A 0
4 *1971:B *2016:B 4.84717e-05
5 *2015:A2 *2016:B 3.64998e-06
6 *191:72 *2016:B 1.83756e-05
*RES
1 *2015:X *2016:B 9.285 
*END

*D_NET *401 0.000559383
*CONN
*I *1604:A2 I *D sky130_fd_sc_hd__o21bai_1
*I *1602:Y O *D sky130_fd_sc_hd__nor2_1
*CAP
1 *1604:A2 0.000129846
2 *1602:Y 0.000129846
3 *1604:A2 *518:54 0.000116158
4 *1604:A2 *543:42 6.28765e-05
5 *1601:A2 *1604:A2 3.57349e-05
6 *380:12 *1604:A2 8.49205e-05
*RES
1 *1602:Y *1604:A2 9.72 
*END

*D_NET *402 0.00186534
*CONN
*I *2017:B I *D sky130_fd_sc_hd__xnor2_1
*I *2016:Y O *D sky130_fd_sc_hd__xnor2_1
*CAP
1 *2017:B 0.000554873
2 *2016:Y 0.000554873
3 *2017:B *1971:A 2.75145e-05
4 *1971:B *2017:B 0.000241483
5 *1972:A *2017:B 8.65905e-05
6 *192:97 *2017:B 4.36153e-05
7 *353:6 *2017:B 0.000356395
*RES
1 *2016:Y *2017:B 13.085 
*END

*D_NET *403 0.000243727
*CONN
*I *2018:B I *D sky130_fd_sc_hd__nor2_1
*I *2017:Y O *D sky130_fd_sc_hd__xnor2_1
*CAP
1 *2018:B 0.00010909
2 *2017:Y 0.00010909
3 *2018:B *2050:C1 2.11084e-05
4 *2013:B1 *2018:B 4.43871e-06
5 *2017:A *2018:B 0
*RES
1 *2017:Y *2018:B 9.03 
*END

*D_NET *404 0.00147965
*CONN
*I *2050:C1 I *D sky130_fd_sc_hd__a311o_1
*I *2018:Y O *D sky130_fd_sc_hd__nor2_1
*CAP
1 *2050:C1 0.000483873
2 *2018:Y 0.000483873
3 *2050:C1 *2050:A3 3.09164e-05
4 op_out[7] *2050:C1 0
5 *1961:A *2050:C1 0
6 *1963:A_N *2050:C1 0
7 *1974:A1 *2050:C1 0
8 *1975:A1 *2050:C1 0
9 *1975:A3 *2050:C1 0
10 *1976:A *2050:C1 8.47286e-05
11 *2011:B1 *2050:C1 9.54469e-05
12 *2012:B1 *2050:C1 0.000139245
13 *2013:B1 *2050:C1 9.37731e-05
14 *2018:A *2050:C1 4.66826e-05
15 *2018:B *2050:C1 2.11084e-05
16 *341:19 *2050:C1 0
17 *355:8 *2050:C1 0
*RES
1 *2018:Y *2050:C1 16.185 
*END

*D_NET *405 0.00194467
*CONN
*I *2044:A I *D sky130_fd_sc_hd__or2_1
*I *2045:A I *D sky130_fd_sc_hd__nand2_1
*I *2019:Y O *D sky130_fd_sc_hd__o21ai_1
*CAP
1 *2044:A 0.000157526
2 *2045:A 0.000128306
3 *2019:Y 0.000224101
4 *405:12 0.000509933
5 *2044:A *2044:B 4.82919e-05
6 *2044:A *2045:B 1.23482e-05
7 *2044:A *2050:A2 2.66586e-05
8 *2045:A *2045:B 3.9258e-05
9 *405:12 *431:12 0.000128225
10 *2012:A1 *2045:A 9.61248e-05
11 *2012:A2 *405:12 7.23602e-05
12 *2012:A3 *2044:A 1.91597e-05
13 *2012:A3 *2045:A 1.16578e-05
14 *2012:A3 *405:12 7.23533e-05
15 *2019:A1 *405:12 7.58604e-05
16 *2019:B1 *405:12 2.75145e-05
17 *196:93 *2045:A 5.57182e-05
18 *334:6 *405:12 1.17409e-05
19 *389:12 *405:12 0.000227536
*RES
1 *2019:Y *405:12 11.015 
2 *405:12 *2045:A 4.15 
3 *405:12 *2044:A 3.79 
*END

*D_NET *406 0.00031559
*CONN
*I *2043:B I *D sky130_fd_sc_hd__xnor2_1
*I *2020:Y O *D sky130_fd_sc_hd__xnor2_1
*CAP
1 *2043:B 9.60233e-05
2 *2020:Y 9.60233e-05
3 *2043:B *2043:A 7.35813e-05
4 *2043:B *431:12 4.99619e-05
*RES
1 *2020:Y *2043:B 5.045 
*END

*D_NET *407 0.000427516
*CONN
*I *2042:A I *D sky130_fd_sc_hd__xnor2_2
*I *2021:X O *D sky130_fd_sc_hd__and2b_1
*CAP
1 *2042:A 0.000213758
2 *2021:X 0.000213758
*RES
1 *2021:X *2042:A 6.425 
*END

*D_NET *408 0.00042848
*CONN
*I *2030:A I *D sky130_fd_sc_hd__xnor2_1
*I *2022:Y O *D sky130_fd_sc_hd__nand2_1
*CAP
1 *2030:A 0.000149367
2 *2022:Y 0.000149367
3 *2030:A *2029:B 4.99619e-05
4 *2030:A *2030:B 4.66742e-05
5 *2030:A *2037:A 3.31103e-05
*RES
1 *2022:Y *2030:A 5.735 
*END

*D_NET *409 0.00060818
*CONN
*I *2027:A I *D sky130_fd_sc_hd__and4_1
*I *2028:A1 I *D sky130_fd_sc_hd__a22o_1
*I *2023:X O *D sky130_fd_sc_hd__a22o_1
*CAP
1 *2027:A 0
2 *2028:A1 6.35138e-05
3 *2023:X 4.90945e-05
4 *409:8 0.000112608
5 *2028:A1 *1640:A1 0
6 *2028:A1 *2027:D 8.08153e-06
7 *2028:A1 *2028:B1 9.5433e-05
8 *2028:A1 *492:87 0.000184703
9 *2028:A1 *540:33 0
10 *409:8 *492:87 9.47454e-05
11 *409:8 *540:33 0
*RES
1 *2023:X *409:8 4.725 
2 *409:8 *2028:A1 5.745 
3 *409:8 *2027:A 3.6 
*END

*D_NET *410 0.000671734
*CONN
*I *2027:B I *D sky130_fd_sc_hd__and4_1
*I *2028:A2 I *D sky130_fd_sc_hd__a22o_1
*I *2024:Y O *D sky130_fd_sc_hd__nand4_1
*CAP
1 *2027:B 0
2 *2028:A2 0.000121461
3 *2024:Y 6.87234e-05
4 *410:8 0.000190184
5 *2028:A2 *492:87 0.000159964
6 *410:8 *492:87 0.000131401
7 *1907:C *2028:A2 0
8 *1907:C *410:8 0
*RES
1 *2024:Y *410:8 5.235 
2 *410:8 *2028:A2 5.94 
3 *410:8 *2027:B 3.6 
*END

*D_NET *411 0.000703831
*CONN
*I *2027:C I *D sky130_fd_sc_hd__and4_1
*I *2028:B1 I *D sky130_fd_sc_hd__a22o_1
*I *2025:X O *D sky130_fd_sc_hd__a22o_1
*CAP
1 *2027:C 0.000111839
2 *2028:B1 2.96072e-05
3 *2025:X 3.38751e-05
4 *411:6 0.000175322
5 *2027:C *2027:D 0.000155497
6 *2028:B1 *2027:D 5.39718e-05
7 *411:6 *2027:D 4.82863e-05
8 *2028:A1 *2028:B1 9.5433e-05
*RES
1 *2025:X *411:6 2.05 
2 *411:6 *2028:B1 6.725 
3 *411:6 *2027:C 3.085 
*END

*D_NET *412 0.00250737
*CONN
*I *1607:A2 I *D sky130_fd_sc_hd__a21oi_1
*I *1608:A1 I *D sky130_fd_sc_hd__a211o_1
*I *1603:X O *D sky130_fd_sc_hd__or2_1
*CAP
1 *1607:A2 0.000218708
2 *1608:A1 0.000146338
3 *1603:X 0.000191233
4 *412:6 0.000556279
5 *1607:A2 *1597:B 0.000116158
6 *1607:A2 *1601:A1 1.08758e-05
7 *1607:A2 *1832:B1 6.33103e-05
8 *1607:A2 *547:37 2.03356e-05
9 *1608:A1 *1618:B 0.000139238
10 *1608:A1 *2078:A 3.57768e-05
11 *1601:A2 *412:6 3.99879e-05
12 *1601:C1 *1607:A2 3.4026e-05
13 *1607:B1 *1607:A2 3.21081e-06
14 *1608:A2 *1608:A1 0.000201393
15 *1608:B1 *1608:A1 2.15594e-05
16 *1641:B1 *1607:A2 0.000147196
17 *1641:B1 *412:6 0.000158066
18 *337:18 *1607:A2 0.000114492
19 *369:14 *1608:A1 0.000159964
20 *391:16 *1608:A1 0.000129226
*RES
1 *1603:X *412:6 4.12 
2 *412:6 *1608:A1 10.55 
3 *412:6 *1607:A2 9.965 
*END

*D_NET *413 0.00355822
*CONN
*I *2028:B2 I *D sky130_fd_sc_hd__a22o_1
*I *2027:D I *D sky130_fd_sc_hd__and4_1
*I *2026:X O *D sky130_fd_sc_hd__or4b_1
*CAP
1 *2028:B2 0
2 *2027:D 0.000165916
3 *2026:X 0.00122166
4 *413:10 0.00138758
5 *2027:D *1640:A1 1.1561e-05
6 *2027:D *1926:B 8.05985e-05
7 *2027:D *2025:A1 0.000118527
8 *2027:D *492:87 0
9 *413:10 *1643:A 2.81759e-05
10 *413:10 *1643:B 2.75229e-05
11 *413:10 *1644:A0 5.05521e-05
12 *413:10 *1644:A1 8.03466e-05
13 *413:10 *1644:S 7.10957e-05
14 *413:10 *477:8 4.88478e-05
15 *2027:C *2027:D 0.000155497
16 *2028:A1 *2027:D 8.08153e-06
17 *2028:B1 *2027:D 5.39718e-05
18 *411:6 *2027:D 4.82863e-05
*RES
1 *2026:X *413:10 17.17 
2 *413:10 *2027:D 9.755 
3 *413:10 *2028:B2 1.6 
*END

*D_NET *414 7.39804e-05
*CONN
*I *2029:A_N I *D sky130_fd_sc_hd__and2b_1
*I *2027:X O *D sky130_fd_sc_hd__and4_1
*CAP
1 *2029:A_N 2.97957e-05
2 *2027:X 2.97957e-05
3 *2029:A_N *1926:B 1.4389e-05
*RES
1 *2027:X *2029:A_N 3.65 
*END

*D_NET *415 0.000832223
*CONN
*I *2029:B I *D sky130_fd_sc_hd__and2b_1
*I *2028:X O *D sky130_fd_sc_hd__a22o_1
*CAP
1 *2029:B 0.00027658
2 *2028:X 0.00027658
3 *2029:B *519:25 0.000164679
4 *1907:C *2029:B 6.4422e-05
5 *2030:A *2029:B 4.99619e-05
*RES
1 *2028:X *2029:B 11.61 
*END

*D_NET *416 0.000433964
*CONN
*I *2030:B I *D sky130_fd_sc_hd__xnor2_1
*I *2029:X O *D sky130_fd_sc_hd__and2b_1
*CAP
1 *2030:B 9.17774e-05
2 *2029:X 9.17774e-05
3 *2030:B *1932:A3 1.71013e-05
4 *2030:B *519:25 0.000139252
5 *2030:B *521:57 4.73816e-05
6 *2030:A *2030:B 4.66742e-05
*RES
1 *2029:X *2030:B 9.63 
*END

*D_NET *417 0.00257318
*CONN
*I *2037:A I *D sky130_fd_sc_hd__xnor2_1
*I *2030:Y O *D sky130_fd_sc_hd__xnor2_1
*CAP
1 *2037:A 0.00107074
2 *2030:Y 0.00107074
3 *2037:A *1909:B 9.54399e-05
4 *2037:A *1932:A2 0
5 *2037:A *1932:A3 0
6 *2037:A *1932:B1 6.44134e-05
7 *2037:A *2022:B 9.66021e-05
8 *2037:A *490:27 0
9 *2037:A *519:25 0
10 *2037:A *546:35 0
11 *2037:A *546:44 0
12 *2030:A *2037:A 3.31103e-05
13 *312:12 *2037:A 8.78813e-05
14 *313:24 *2037:A 5.42473e-05
*RES
1 *2030:Y *2037:A 25.635 
*END

*D_NET *418 0.000885295
*CONN
*I *2036:A I *D sky130_fd_sc_hd__xnor2_1
*I *2031:Y O *D sky130_fd_sc_hd__o21bai_1
*CAP
1 *2036:A 0.000184939
2 *2031:Y 0.000184939
3 *2036:A *1989:B2 0.000278117
4 *2036:A *2036:B 2.30292e-05
5 *2036:A *490:10 0
6 *2036:A *490:25 0
7 *2036:A *546:35 0.000214272
8 *2036:A *552:56 0
9 *2036:A *554:23 0
*RES
1 *2031:Y *2036:A 12.045 
*END

*D_NET *419 0.000326892
*CONN
*I *2035:A I *D sky130_fd_sc_hd__xnor2_1
*I *2032:Y O *D sky130_fd_sc_hd__nand2_1
*CAP
1 *2035:A 4.56041e-05
2 *2032:Y 4.56041e-05
3 *2035:A *2032:A 5.74801e-05
4 *2035:A *546:35 0.000164874
5 *2035:A *552:56 1.33293e-05
*RES
1 *2032:Y *2035:A 5.045 
*END

*D_NET *420 0.000258156
*CONN
*I *2034:B I *D sky130_fd_sc_hd__xor2_1
*I *2033:Y O *D sky130_fd_sc_hd__nand2_1
*CAP
1 *2034:B 0.000114059
2 *2033:Y 0.000114059
3 *2034:B *2033:A 3.00381e-05
*RES
1 *2033:Y *2034:B 5.03 
*END

*D_NET *421 0.000196679
*CONN
*I *2035:B I *D sky130_fd_sc_hd__xnor2_1
*I *2034:X O *D sky130_fd_sc_hd__xor2_1
*CAP
1 *2035:B 9.83396e-05
2 *2034:X 9.83396e-05
3 *2035:B *490:25 0
4 *2035:B *546:27 0
*RES
1 *2034:X *2035:B 8.58 
*END

*D_NET *422 0.00175495
*CONN
*I *2036:B I *D sky130_fd_sc_hd__xnor2_1
*I *2035:Y O *D sky130_fd_sc_hd__xnor2_1
*CAP
1 *2036:B 0.000187071
2 *2035:Y 0.000187071
3 *2036:B *1989:B2 0.000427094
4 *2036:B *2032:A 0.000313852
5 *2036:B *552:56 0.000616833
6 *2036:A *2036:B 2.30292e-05
*RES
1 *2035:Y *2036:B 10.565 
*END

*D_NET *423 0.00362424
*CONN
*I *1618:B I *D sky130_fd_sc_hd__nor2_1
*I *1637:B1 I *D sky130_fd_sc_hd__a21o_1
*I *1619:B I *D sky130_fd_sc_hd__or2_1
*I *1604:Y O *D sky130_fd_sc_hd__o21bai_1
*CAP
1 *1618:B 0.000424116
2 *1637:B1 7.147e-05
3 *1619:B 5.73358e-05
4 *1604:Y 0
5 *423:10 0.000379103
6 *423:4 0.000674413
7 *1618:B *2078:A 0.000119756
8 *1618:B *441:10 0
9 *1618:B *474:14 0
10 *1618:B *516:79 8.02809e-05
11 *1619:B *1619:A 6.02123e-05
12 *1619:B *519:88 4.11194e-05
13 *1637:B1 *1637:A2 4.82919e-05
14 *1637:B1 *443:16 5.64059e-05
15 *1637:B1 *515:10 0.000245108
16 *1637:B1 *515:88 1.31519e-05
17 *423:10 *1619:A 0.00033406
18 *423:10 *518:54 4.82919e-05
19 *423:10 *519:88 4.24292e-06
20 *423:10 *543:42 0
21 *1604:A1 *1618:B 0.000176511
22 *1604:A1 *423:10 2.30292e-05
23 *1608:A1 *1618:B 0.000139238
24 *1608:B1 *1618:B 0.000139238
25 *1896:A2 *1637:B1 3.64998e-06
26 *2054:A *423:10 0.000485215
*RES
1 *1604:Y *423:4 1.6 
2 *423:4 *423:10 8.765 
3 *423:10 *1619:B 4.98 
4 *423:10 *1637:B1 6.135 
5 *423:4 *1618:B 12.92 
*END

*D_NET *424 0.00108754
*CONN
*I *2037:B I *D sky130_fd_sc_hd__xnor2_1
*I *2036:Y O *D sky130_fd_sc_hd__xnor2_1
*CAP
1 *2037:B 0.000523375
2 *2036:Y 0.000523375
3 *2037:B *490:27 0
4 *2037:B *546:35 4.07937e-05
*RES
1 *2036:Y *2037:B 13.515 
*END

*D_NET *425 0.00170981
*CONN
*I *2041:A I *D sky130_fd_sc_hd__xnor2_1
*I *2037:Y O *D sky130_fd_sc_hd__xnor2_1
*CAP
1 *2041:A 0.000854904
2 *2037:Y 0.000854904
3 *2041:A *2040:A 0
*RES
1 *2037:Y *2041:A 16.965 
*END

*D_NET *426 0.00186637
*CONN
*I *2040:A I *D sky130_fd_sc_hd__xnor2_1
*I *2038:X O *D sky130_fd_sc_hd__a31o_1
*CAP
1 *2040:A 0.000680951
2 *2038:X 0.000680951
3 *2040:A *2040:B 0.000120186
4 *2040:A *2059:A 0
5 *1985:A *2040:A 0
6 *1985:B *2040:A 6.55406e-05
7 *1996:B *2040:A 0
8 *2039:A1 *2040:A 4.70343e-05
9 *2041:A *2040:A 0
10 *368:12 *2040:A 0.000271707
*RES
1 *2038:X *2040:A 21.075 
*END

*D_NET *427 0.000232567
*CONN
*I *2040:B I *D sky130_fd_sc_hd__xnor2_1
*I *2039:Y O *D sky130_fd_sc_hd__a21oi_1
*CAP
1 *2040:B 5.61903e-05
2 *2039:Y 5.61903e-05
3 *2040:A *2040:B 0.000120186
*RES
1 *2039:Y *2040:B 8.58 
*END

*D_NET *428 0.00030525
*CONN
*I *2041:B I *D sky130_fd_sc_hd__xnor2_1
*I *2040:Y O *D sky130_fd_sc_hd__xnor2_1
*CAP
1 *2041:B 0.000152625
2 *2040:Y 0.000152625
*RES
1 *2040:Y *2041:B 5.39 
*END

*D_NET *429 0.00104553
*CONN
*I *2042:B I *D sky130_fd_sc_hd__xnor2_2
*I *2041:Y O *D sky130_fd_sc_hd__xnor2_1
*CAP
1 *2042:B 0.000489298
2 *2041:Y 0.000489298
3 *1996:B *2042:B 0
4 *381:14 *2042:B 6.69341e-05
*RES
1 *2041:Y *2042:B 15.21 
*END

*D_NET *430 0.00153508
*CONN
*I *2043:A I *D sky130_fd_sc_hd__xnor2_1
*I *2042:Y O *D sky130_fd_sc_hd__xnor2_2
*CAP
1 *2043:A 0.000432401
2 *2042:Y 0.000432401
3 *2043:A *2062:A 3.26822e-05
4 *2043:A *544:18 0
5 *1999:A2 *2043:A 7.25036e-05
6 *2000:A *2043:A 0
7 *2003:B *2043:A 0.00020613
8 *2021:A_N *2043:A 0
9 *2021:B *2043:A 5.2089e-05
10 *2043:B *2043:A 7.35813e-05
11 *363:10 *2043:A 0
12 *385:23 *2043:A 0.000233292
*RES
1 *2042:Y *2043:A 16.95 
*END

*D_NET *431 0.00626352
*CONN
*I *2044:B I *D sky130_fd_sc_hd__or2_1
*I *2045:B I *D sky130_fd_sc_hd__nand2_1
*I *2043:Y O *D sky130_fd_sc_hd__xnor2_1
*CAP
1 *2044:B 1.15248e-05
2 *2045:B 0.00020642
3 *2043:Y 0.00164031
4 *431:12 0.00185825
5 *2044:B *2050:A2 1.47347e-05
6 *2045:B *2050:A2 8.8266e-05
7 *2045:B *2050:A3 4.99619e-05
8 *431:12 *544:18 0.000394432
9 *1946:A *431:12 0.00011852
10 *1951:B *431:12 5.72004e-05
11 *2003:B *431:12 0.000279681
12 *2012:A1 *2045:B 5.3995e-05
13 *2012:A3 *2045:B 4.82863e-05
14 *2012:A3 *431:12 9.47454e-05
15 *2019:A1 *431:12 0.00011852
16 *2019:B1 *431:12 0
17 *2043:B *431:12 4.99619e-05
18 *2044:A *2044:B 4.82919e-05
19 *2044:A *2045:B 1.23482e-05
20 *2045:A *2045:B 3.9258e-05
21 *196:93 *2045:B 0.000135463
22 *328:12 *431:12 0.000815129
23 *329:8 *431:12 0
24 *329:23 *431:12 0
25 *360:8 *431:12 0
26 *388:10 *431:12 0
27 *405:12 *431:12 0.000128225
*RES
1 *2043:Y *431:12 41.855 
2 *431:12 *2045:B 6.505 
3 *431:12 *2044:B 2.05 
*END

*D_NET *432 0.000738546
*CONN
*I *2050:A2 I *D sky130_fd_sc_hd__a311o_1
*I *2044:X O *D sky130_fd_sc_hd__or2_1
*CAP
1 *2050:A2 0.000205879
2 *2044:X 0.000205879
3 *2050:A2 *2050:B1 8.78813e-05
4 *2050:A2 *2119:A 0.000109247
5 *2044:A *2050:A2 2.66586e-05
6 *2044:B *2050:A2 1.47347e-05
7 *2045:B *2050:A2 8.8266e-05
*RES
1 *2044:X *2050:A2 11.61 
*END

*D_NET *433 0.000874011
*CONN
*I *2050:A3 I *D sky130_fd_sc_hd__a311o_1
*I *2045:Y O *D sky130_fd_sc_hd__nand2_1
*CAP
1 *2050:A3 0.000281192
2 *2045:Y 0.000281192
3 *2050:A3 *2050:B1 4.66108e-05
4 *2050:A3 *2120:A 1.85674e-05
5 *1963:B *2050:A3 0
6 *2012:B1 *2050:A3 2.13396e-05
7 *2045:B *2050:A3 4.99619e-05
8 *2050:A1 *2050:A3 0.00014423
9 *2050:C1 *2050:A3 3.09164e-05
*RES
1 *2045:Y *2050:A3 12.075 
*END

*D_NET *434 0.00652422
*CONN
*I *1968:A2 I *D sky130_fd_sc_hd__a31o_1
*I *1623:B2 I *D sky130_fd_sc_hd__a22o_1
*I *1637:A1 I *D sky130_fd_sc_hd__a21o_1
*I *1606:A I *D sky130_fd_sc_hd__inv_2
*I *1605:Y O *D sky130_fd_sc_hd__a211oi_2
*CAP
1 *1968:A2 0.000378441
2 *1623:B2 1.65033e-05
3 *1637:A1 5.67724e-05
4 *1606:A 0.000254203
5 *1605:Y 0.00015971
6 *434:29 0.000763127
7 *434:10 0.00117029
8 *434:8 0.000764392
9 *1606:A *1616:B 0
10 *1606:A *1617:A 4.18603e-06
11 *1606:A *1622:A2 0
12 *1606:A *449:23 0
13 *1606:A *454:10 0
14 *1606:A *554:58 9.49116e-05
15 *1606:A *554:75 5.28815e-05
16 *1623:B2 *523:39 4.66108e-05
17 *1623:B2 *552:25 2.49909e-05
18 *1637:A1 *518:54 0.000205428
19 *1637:A1 *519:88 0.00020279
20 *1968:A2 *2011:A2 3.82741e-05
21 *1968:A2 *524:107 0.000135622
22 *1968:A2 *540:18 0
23 *1968:A2 *547:45 0.000446931
24 *1968:A2 *547:65 0.000265637
25 *1968:A2 *554:75 0.000129942
26 *434:8 *550:32 0.000235568
27 *434:10 *1968:A3 0
28 *434:10 *554:75 0.000155883
29 *434:29 *454:18 0.000788026
30 *434:29 *518:54 1.15399e-05
31 *434:29 *519:88 1.79536e-05
32 *1599:A3 *1968:A2 6.10685e-05
33 *1607:B1 *1968:A2 1.79536e-05
34 *326:86 *1968:A2 1.88656e-05
35 *348:10 *1968:A2 5.71093e-06
*RES
1 *1605:Y *434:8 5.775 
2 *434:8 *434:10 4.5675 
3 *434:10 *1606:A 8.3625 
4 *434:10 *434:29 2.90197 
5 *434:29 *1637:A1 6 
6 *434:29 *1623:B2 4.05 
7 *434:8 *1968:A2 13.14 
*END

*D_NET *435 0.000621663
*CONN
*I *2047:B2 I *D sky130_fd_sc_hd__o22a_1
*I *2046:Y O *D sky130_fd_sc_hd__a21oi_1
*CAP
1 *2047:B2 0.000108582
2 *2046:Y 0.000108582
3 *188:71 *2047:B2 4.80285e-05
4 *199:89 *2047:B2 0.000201393
5 *205:26 *2047:B2 4.82919e-05
6 *326:68 *2047:B2 0.000106784
*RES
1 *2046:Y *2047:B2 10.395 
*END

*D_NET *436 0.00047702
*CONN
*I *2049:B1 I *D sky130_fd_sc_hd__a211o_1
*I *2047:X O *D sky130_fd_sc_hd__o22a_1
*CAP
1 *2049:B1 0.000144481
2 *2047:X 0.000144481
3 *2049:B1 *2049:A1 6.81184e-05
4 *2049:B1 *2050:B1 4.66108e-05
5 *2049:B1 *497:52 2.67184e-05
6 *2047:B1 *2049:B1 4.66108e-05
*RES
1 *2047:X *2049:B1 5.735 
*END

*D_NET *437 0.00037875
*CONN
*I *2049:C1 I *D sky130_fd_sc_hd__a211o_1
*I *2048:X O *D sky130_fd_sc_hd__a32o_1
*CAP
1 *2049:C1 8.25751e-05
2 *2048:X 8.25751e-05
3 *2049:C1 *497:52 2.49909e-05
4 *188:22 *2049:C1 5.21435e-05
5 *190:14 *2049:C1 0.000136466
*RES
1 *2048:X *2049:C1 9.285 
*END

*D_NET *438 0.00478861
*CONN
*I *2050:B1 I *D sky130_fd_sc_hd__a311o_1
*I *2049:X O *D sky130_fd_sc_hd__a211o_1
*CAP
1 *2050:B1 0.00180406
2 *2049:X 0.00180406
3 *2050:B1 *1964:A1 0.000377625
4 *2050:B1 *1964:A2 1.61831e-05
5 *2050:B1 *2049:A1 0.000138705
6 *2050:B1 *490:48 8.1871e-05
7 *2012:A2 *2050:B1 0.000114492
8 *2012:B1 *2050:B1 0.000183043
9 *2047:B1 *2050:B1 4.08514e-05
10 *2049:B1 *2050:B1 4.66108e-05
11 *2050:A1 *2050:B1 4.66108e-05
12 *2050:A2 *2050:B1 8.78813e-05
13 *2050:A3 *2050:B1 4.66108e-05
*RES
1 *2049:X *2050:B1 30.51 
*END

*D_NET *439 0.00469153
*CONN
*I *1638:C1 I *D sky130_fd_sc_hd__a211o_2
*I *1624:C1 I *D sky130_fd_sc_hd__a211o_1
*I *1629:A1 I *D sky130_fd_sc_hd__o21ai_1
*I *1630:A I *D sky130_fd_sc_hd__or4_4
*I *1606:Y O *D sky130_fd_sc_hd__inv_2
*CAP
1 *1638:C1 0
2 *1624:C1 0
3 *1629:A1 5.17226e-05
4 *1630:A 0
5 *1606:Y 0.000259383
6 *439:20 0.000578411
7 *439:14 0.000652503
8 *439:10 0.000385198
9 *1629:A1 *1629:A2 4.20978e-05
10 *1629:A1 *1629:B1 9.72742e-06
11 *1629:A1 *1630:B 0.000162311
12 *1629:A1 *453:14 0.000160641
13 *439:10 *1617:C 0.000198046
14 *439:10 *1622:B1 0
15 *439:10 *444:30 3.09088e-05
16 *439:10 *449:38 2.0514e-05
17 *439:10 *450:10 0.000271308
18 *439:10 *453:8 7.81221e-05
19 *439:14 *1617:A 0
20 *439:14 *453:8 0.00015212
21 *439:20 *1635:A 0.00019662
22 *439:20 *1660:C1 1.34361e-05
23 *439:20 *453:8 9.50342e-06
24 *439:20 *453:14 0.00118209
25 *439:20 *466:10 0.000178321
26 *38:19 *439:10 5.85479e-05
*RES
1 *1606:Y *439:10 9.735 
2 *439:10 *439:14 2.34 
3 *439:14 *439:20 15.74 
4 *439:20 *1630:A 1.6 
5 *439:20 *1629:A1 3.79 
6 *439:14 *1624:C1 3.6 
7 *439:10 *1638:C1 3.6 
*END

*D_NET *440 0.0068
*CONN
*I *2011:A2 I *D sky130_fd_sc_hd__a211o_1
*I *1607:Y O *D sky130_fd_sc_hd__a21oi_1
*CAP
1 *2011:A2 0.0029226
2 *1607:Y 0.0029226
3 *2011:A2 *1832:B1 4.82863e-05
4 *2011:A2 *2072:A 0.000157111
5 *1599:A3 *2011:A2 2.1163e-05
6 *1607:B1 *2011:A2 2.38557e-05
7 *1896:C1 *2011:A2 0.000259683
8 *1968:A2 *2011:A2 3.82741e-05
9 *190:14 *2011:A2 0.000118407
10 *197:22 *2011:A2 0.000144683
11 *205:26 *2011:A2 0.000143333
*RES
1 *1607:Y *2011:A2 16.8375 
*END

*D_NET *441 0.0020717
*CONN
*I *1609:C I *D sky130_fd_sc_hd__and3_1
*I *1611:A1 I *D sky130_fd_sc_hd__a21o_1
*I *2129:A I *D sky130_fd_sc_hd__buf_1
*I *1623:A2 I *D sky130_fd_sc_hd__a22o_1
*I *1608:X O *D sky130_fd_sc_hd__a211o_1
*CAP
1 *1609:C 1.17116e-05
2 *1611:A1 0
3 *2129:A 0.000116018
4 *1623:A2 3.98784e-05
5 *1608:X 5.73919e-05
6 *441:25 0.000179191
7 *441:14 0.000183401
8 *441:10 0.000149453
9 *1609:C *523:39 2.81446e-06
10 *1623:A2 *1609:A 1.91597e-05
11 *1623:A2 *523:39 0.00015896
12 *1623:A2 *552:34 7.10578e-05
13 *2129:A *1610:C 4.41506e-05
14 *2129:A *474:14 0.000159964
15 *2129:A *552:38 9.50342e-06
16 *2129:A *552:46 8.34348e-05
17 *441:10 *474:14 2.3051e-05
18 *441:14 *1609:A 6.33957e-05
19 *441:14 *523:39 0.000149759
20 *441:25 *474:14 0.000200422
21 *441:25 *552:38 0.000190918
22 *1618:B *441:10 0
23 *38:19 *2129:A 0.000158066
*RES
1 *1608:X *441:10 6.47 
2 *441:10 *441:14 2.1 
3 *441:14 *1623:A2 3.085 
4 *441:14 *441:25 4.4 
5 *441:25 *2129:A 6.975 
6 *441:25 *1611:A1 3.6 
7 *441:10 *1609:C 1.765 
*END

*D_NET *442 0.000826096
*CONN
*I *1621:C1 I *D sky130_fd_sc_hd__a211o_1
*I *1620:C1 I *D sky130_fd_sc_hd__a211oi_2
*I *1609:X O *D sky130_fd_sc_hd__and3_1
*CAP
1 *1621:C1 0
2 *1620:C1 6.91942e-05
3 *1609:X 7.92425e-05
4 *442:10 0.000148437
5 *1620:C1 *1620:B1 8.97642e-05
6 *1620:C1 *443:16 0.000162332
7 *442:10 *1609:B 3.23391e-05
8 *442:10 *1620:B1 5.53249e-06
9 *442:10 *443:16 6.75724e-05
10 *442:10 *451:10 7.34286e-05
11 *442:10 *516:66 4.82919e-05
12 *38:19 *1620:C1 4.99619e-05
*RES
1 *1609:X *442:10 5.685 
2 *442:10 *1620:C1 5.94 
3 *442:10 *1621:C1 3.6 
*END

*D_NET *443 0.00371487
*CONN
*I *1638:A1 I *D sky130_fd_sc_hd__a211o_2
*I *1617:A I *D sky130_fd_sc_hd__nand3_1
*I *1622:A1 I *D sky130_fd_sc_hd__a21o_1
*I *1610:Y O *D sky130_fd_sc_hd__nand3_1
*CAP
1 *1638:A1 0
2 *1617:A 0.000170456
3 *1622:A1 0
4 *1610:Y 0.000779133
5 *443:20 0.000300397
6 *443:16 0.000909074
7 *1617:A *1622:A2 0.000200699
8 *1617:A *519:58 0
9 *1617:A *544:30 3.45588e-05
10 *1617:A *554:58 0
11 *443:16 *1609:B 0.000125692
12 *443:16 *1621:B1 0
13 *443:16 *1622:B1 0
14 *443:16 *1624:A1 9.50342e-06
15 *443:16 *1637:A2 1.56428e-05
16 *443:16 *444:8 2.65814e-06
17 *443:16 *450:10 0.000134509
18 *443:16 *453:8 0.000156901
19 *443:16 *456:16 0.000103282
20 *443:16 *515:10 4.40325e-06
21 *443:16 *515:110 2.30506e-05
22 *443:20 *1622:B1 4.99619e-05
23 *443:20 *1624:A2 0.000159741
24 *443:20 *1638:B1 5.20897e-05
25 *443:20 *544:30 7.4542e-05
26 *1606:A *1617:A 4.18603e-06
27 *1620:C1 *443:16 0.000162332
28 *1637:B1 *443:16 5.64059e-05
29 *1896:A2 *443:16 0.000118081
30 *439:14 *1617:A 0
31 *442:10 *443:16 6.75724e-05
*RES
1 *1610:Y *443:16 17.765 
2 *443:16 *443:20 3.225 
3 *443:20 *1622:A1 1.6 
4 *443:20 *1617:A 9.05 
5 *443:16 *1638:A1 1.6 
*END

*D_NET *444 0.00191817
*CONN
*I *1617:B I *D sky130_fd_sc_hd__nand3_1
*I *1622:A2 I *D sky130_fd_sc_hd__a21o_1
*I *1620:A1 I *D sky130_fd_sc_hd__a211oi_2
*I *1621:A2 I *D sky130_fd_sc_hd__a211o_1
*I *1611:X O *D sky130_fd_sc_hd__a21o_1
*CAP
1 *1617:B 1.91257e-05
2 *1622:A2 9.78436e-05
3 *1620:A1 0
4 *1621:A2 0
5 *1611:X 0.000148778
6 *444:30 0.000166106
7 *444:21 0.000190977
8 *444:8 0.000290618
9 *1617:B *1617:C 4.08514e-05
10 *1622:A2 *1622:B1 0.000106784
11 *1622:A2 *449:23 1.52184e-05
12 *444:8 *1611:B1 0
13 *444:8 *1621:A1 6.36964e-05
14 *444:21 *1616:A 7.58604e-05
15 *444:21 *1620:B1 0
16 *444:21 *1621:A1 4.66742e-05
17 *444:21 *1622:B1 5.53249e-06
18 *444:21 *449:23 7.89034e-05
19 *444:30 *1617:C 2.4511e-05
20 *444:30 *449:38 4.82919e-05
21 *1606:A *1622:A2 0
22 *1617:A *1622:A2 0.000200699
23 *38:19 *1617:B 8.65961e-05
24 *38:19 *444:30 0.000177533
25 *439:10 *444:30 3.09088e-05
26 *443:16 *444:8 2.65814e-06
*RES
1 *1611:X *444:8 3.79 
2 *444:8 *1621:A2 1.6 
3 *444:8 *444:21 6.685 
4 *444:21 *1620:A1 1.6 
5 *444:21 *444:30 1.845 
6 *444:30 *1622:A2 8.255 
7 *444:30 *1617:B 2.395 
*END

*D_NET *445 0.000457229
*CONN
*I *1655:A I *D sky130_fd_sc_hd__nand2_1
*I *1654:A I *D sky130_fd_sc_hd__and2_1
*I *1612:X O *D sky130_fd_sc_hd__or2_1
*CAP
1 *1655:A 0
2 *1654:A 6.72493e-06
3 *1612:X 4.0443e-05
4 *445:8 4.71679e-05
5 *1654:A *1654:B 2.30292e-05
6 *1654:A *1657:C1 4.99619e-05
7 *445:8 *1654:B 0.000178607
8 *445:8 *1655:B 8.8266e-05
9 *445:8 *1657:C1 2.30292e-05
*RES
1 *1612:X *445:8 3.445 
2 *445:8 *1654:A 2.05 
3 *445:8 *1655:A 1.6 
*END

*D_NET *446 0.00667975
*CONN
*I *1634:B1 I *D sky130_fd_sc_hd__a31o_1
*I *1648:A I *D sky130_fd_sc_hd__xnor2_1
*I *1649:A I *D sky130_fd_sc_hd__xor2_1
*I *1613:Y O *D sky130_fd_sc_hd__nor2_1
*CAP
1 *1634:B1 0.000736994
2 *1648:A 0
3 *1649:A 0.000131601
4 *1613:Y 0.000783914
5 *446:16 0.000322215
6 *446:10 0.00171152
7 *1634:B1 *1634:A2 3.17194e-05
8 *1634:B1 *1651:A0 4.56057e-05
9 *1634:B1 *1651:A1 0.000163204
10 *1634:B1 *1651:S 9.27255e-06
11 *1634:B1 *464:14 0.000296723
12 *1649:A *1648:B 0.000138175
13 *1649:A *480:12 4.99619e-05
14 *446:10 *1613:A 2.75229e-05
15 *446:10 *1613:B 0.000348519
16 *446:10 *1650:S 0
17 *446:10 *1651:A1 1.1561e-05
18 *446:10 *1664:A 0
19 *446:10 *475:12 0
20 *446:10 *493:23 0.0013426
21 *446:10 *517:14 0.000143244
22 *446:10 *517:25 3.98696e-05
23 *446:10 *551:25 8.09021e-06
24 *446:16 *1647:B 0
25 *446:16 *1650:A1 6.74079e-05
26 *446:16 *1650:S 0
27 *446:16 *1651:A1 0.000138196
28 *446:16 *480:12 0
29 *1660:A1 *446:10 1.26548e-05
30 *1896:A2 *446:10 1.33293e-05
31 *2026:B *446:10 0.000105849
*RES
1 *1613:Y *446:10 24.9 
2 *446:10 *446:16 6.125 
3 *446:16 *1649:A 4.465 
4 *446:16 *1648:A 1.6 
5 *446:10 *1634:B1 13.635 
*END

*D_NET *447 0.000566442
*CONN
*I *1630:B I *D sky130_fd_sc_hd__or4_4
*I *1614:Y O *D sky130_fd_sc_hd__nor2_1
*CAP
1 *1630:B 0.00013522
2 *1614:Y 0.00013522
3 *1630:B *1629:A2 1.61831e-05
4 *1630:B *1629:B1 3.00381e-05
5 *1630:B *1630:C 6.48692e-05
6 *1630:B *551:74 2.26018e-05
7 *1629:A1 *1630:B 0.000162311
*RES
1 *1614:Y *1630:B 6.065 
*END

*D_NET *448 0.00315858
*CONN
*I *1630:C I *D sky130_fd_sc_hd__or4_4
*I *1934:C I *D sky130_fd_sc_hd__and3_1
*I *1935:B1 I *D sky130_fd_sc_hd__a21oi_1
*I *1988:C I *D sky130_fd_sc_hd__and3_1
*I *1615:X O *D sky130_fd_sc_hd__and2_1
*CAP
1 *1630:C 9.56466e-05
2 *1934:C 5.954e-05
3 *1935:B1 0
4 *1988:C 0.000240553
5 *1615:X 0.000142092
6 *448:33 0.000185787
7 *448:14 0.000516049
8 *448:8 0.000386988
9 *1630:C *1986:A 7.06865e-05
10 *1630:C *462:10 3.18219e-05
11 *1630:C *551:41 0
12 *1934:C *1934:A 3.66286e-05
13 *1988:C *1988:A 8.53113e-06
14 *1988:C *1989:B1 3.47668e-05
15 *1988:C *549:92 0.000119495
16 *1988:C *549:107 8.08153e-06
17 *1988:C *554:23 0
18 *1988:C *554:36 0
19 *448:8 *462:10 1.7396e-05
20 *448:8 *551:41 0
21 *448:8 *554:36 0
22 *448:14 *1986:A 0.000426206
23 *448:14 *462:14 1.33293e-05
24 *448:14 *464:14 8.65961e-05
25 *448:33 *1934:A 8.25254e-05
26 *448:33 *1935:A2 0.000160641
27 *448:33 *1986:A 0.0002056
28 *1630:B *1630:C 6.48692e-05
29 *1990:A *1988:C 1.70906e-05
30 *313:8 *1934:C 1.37328e-05
31 *314:8 *1934:C 0.000112737
32 *314:8 *448:33 2.11921e-05
*RES
1 *1615:X *448:8 5.49 
2 *448:8 *448:14 6.26 
3 *448:14 *1988:C 10.46 
4 *448:14 *448:33 4.02 
5 *448:33 *1935:B1 1.6 
6 *448:33 *1934:C 3.265 
7 *448:8 *1630:C 5.3475 
*END

*D_NET *449 0.00219953
*CONN
*I *1620:A2 I *D sky130_fd_sc_hd__a211oi_2
*I *1617:C I *D sky130_fd_sc_hd__nand3_1
*I *1622:B1 I *D sky130_fd_sc_hd__a21o_1
*I *1621:A1 I *D sky130_fd_sc_hd__a211o_1
*I *1616:X O *D sky130_fd_sc_hd__or2_1
*CAP
1 *1620:A2 0
2 *1617:C 7.51551e-05
3 *1622:B1 0.000133798
4 *1621:A1 0.000145232
5 *1616:X 5.67807e-05
6 *449:38 8.59363e-05
7 *449:23 0.000253012
8 *449:6 0.000310445
9 *1621:A1 *1611:B1 0
10 *1621:A1 *1616:A 2.8185e-05
11 *1621:A1 *454:10 8.8266e-05
12 *1622:B1 *544:30 2.75145e-05
13 *449:6 *1616:A 4.7101e-05
14 *449:6 *1616:B 0.000163204
15 *449:6 *454:10 1.16578e-05
16 *449:23 *1616:A 9.3062e-06
17 *449:23 *1616:B 3.25831e-05
18 *1606:A *449:23 0
19 *1617:B *1617:C 4.08514e-05
20 *1622:A2 *1622:B1 0.000106784
21 *1622:A2 *449:23 1.52184e-05
22 *38:19 *1617:C 3.23663e-05
23 *439:10 *1617:C 0.000198046
24 *439:10 *1622:B1 0
25 *439:10 *449:38 2.0514e-05
26 *443:16 *1622:B1 0
27 *443:20 *1622:B1 4.99619e-05
28 *444:8 *1621:A1 6.36964e-05
29 *444:21 *1621:A1 4.66742e-05
30 *444:21 *1622:B1 5.53249e-06
31 *444:21 *449:23 7.89034e-05
32 *444:30 *1617:C 2.4511e-05
33 *444:30 *449:38 4.82919e-05
*RES
1 *1616:X *449:6 3.43 
2 *449:6 *1621:A1 4.84 
3 *449:6 *449:23 4.505 
4 *449:23 *1622:B1 6.45 
5 *449:23 *449:38 2.45 
6 *449:38 *1617:C 4.15 
7 *449:38 *1620:A2 1.6 
*END

*D_NET *450 0.00160196
*CONN
*I *1638:A2 I *D sky130_fd_sc_hd__a211o_2
*I *1624:A1 I *D sky130_fd_sc_hd__a211o_1
*I *1617:Y O *D sky130_fd_sc_hd__nand3_1
*CAP
1 *1638:A2 0
2 *1624:A1 4.7629e-05
3 *1617:Y 0.000357353
4 *450:10 0.000404982
5 *1624:A1 *1624:A2 0.000118513
6 *1624:A1 *453:8 8.05587e-05
7 *1624:A1 *453:14 5.53249e-06
8 *1624:A1 *456:16 2.4997e-05
9 *450:10 *456:16 6.65612e-05
10 *38:19 *450:10 8.05167e-05
11 *439:10 *450:10 0.000271308
12 *443:16 *1624:A1 9.50342e-06
13 *443:16 *450:10 0.000134509
*RES
1 *1617:Y *450:10 9.135 
2 *450:10 *1624:A1 5.49 
3 *450:10 *1638:A2 3.6 
*END

*D_NET *451 0.000813887
*CONN
*I *1620:B1 I *D sky130_fd_sc_hd__a211oi_2
*I *1621:B1 I *D sky130_fd_sc_hd__a211o_1
*I *1618:Y O *D sky130_fd_sc_hd__nor2_1
*CAP
1 *1620:B1 0.000106985
2 *1621:B1 2.82787e-05
3 *1618:Y 0.000107013
4 *451:10 0.000242277
5 *1620:B1 *1616:A 1.0183e-05
6 *451:10 *1616:A 5.21714e-05
7 *451:10 *516:66 4.82919e-05
8 *1620:C1 *1620:B1 8.97642e-05
9 *38:19 *1620:B1 4.99619e-05
10 *442:10 *1620:B1 5.53249e-06
11 *442:10 *451:10 7.34286e-05
12 *443:16 *1621:B1 0
13 *444:21 *1620:B1 0
*RES
1 *1618:Y *451:10 5.685 
2 *451:10 *1621:B1 4.05 
3 *451:10 *1620:B1 5.94 
*END

*D_NET *452 0.00109924
*CONN
*I *1638:B1 I *D sky130_fd_sc_hd__a211o_2
*I *1619:X O *D sky130_fd_sc_hd__or2_1
*CAP
1 *1638:B1 0.00017056
2 *1619:X 0.00017056
3 *1638:B1 *1624:A2 2.54522e-05
4 *1638:B1 *471:6 0.000160635
5 *1638:B1 *474:14 6.02202e-05
6 *1638:B1 *544:30 0.000341896
7 *1638:B1 *552:46 0.000117825
8 *443:20 *1638:B1 5.20897e-05
*RES
1 *1619:X *1638:B1 12.15 
*END

*D_NET *453 0.00411802
*CONN
*I *1624:B1 I *D sky130_fd_sc_hd__a211o_1
*I *1629:A2 I *D sky130_fd_sc_hd__o21ai_1
*I *1630:D I *D sky130_fd_sc_hd__or4_4
*I *1620:Y O *D sky130_fd_sc_hd__a211oi_2
*CAP
1 *1624:B1 0
2 *1629:A2 3.52418e-05
3 *1630:D 0
4 *1620:Y 0.000114539
5 *453:14 0.000515481
6 *453:8 0.000594778
7 *1629:A2 *1614:A 0
8 *1629:A2 *1629:B1 5.4155e-06
9 *1629:A2 *551:74 8.8266e-05
10 *453:14 *1627:A2 1.94805e-05
11 *453:14 *1636:B1 0.00035825
12 *453:14 *1643:A 0
13 *453:14 *1643:B 6.65804e-05
14 *453:14 *1657:C1 7.21296e-06
15 *453:14 *1660:C1 0.00011379
16 *453:14 *1986:A 0.000268739
17 *453:14 *456:16 0
18 *453:14 *457:25 3.18219e-05
19 *453:14 *460:14 0
20 *453:14 *551:74 1.46828e-05
21 *1624:A1 *453:8 8.05587e-05
22 *1624:A1 *453:14 5.53249e-06
23 *1629:A1 *1629:A2 4.20978e-05
24 *1629:A1 *453:14 0.000160641
25 *1630:B *1629:A2 1.61831e-05
26 *439:10 *453:8 7.81221e-05
27 *439:14 *453:8 0.00015212
28 *439:20 *453:8 9.50342e-06
29 *439:20 *453:14 0.00118209
30 *443:16 *453:8 0.000156901
*RES
1 *1620:Y *453:8 7.275 
2 *453:8 *453:14 17.21 
3 *453:14 *1630:D 1.6 
4 *453:14 *1629:A2 3.115 
5 *453:8 *1624:B1 3.6 
*END

*D_NET *454 0.00594573
*CONN
*I *1968:A3 I *D sky130_fd_sc_hd__a31o_1
*I *1623:B1 I *D sky130_fd_sc_hd__a22o_1
*I *1637:A2 I *D sky130_fd_sc_hd__a21o_1
*I *1621:X O *D sky130_fd_sc_hd__a211o_1
*CAP
1 *1968:A3 0.000594077
2 *1623:B1 1.65033e-05
3 *1637:A2 8.60878e-05
4 *1621:X 0.000180801
5 *454:18 0.00047712
6 *454:10 0.00114941
7 *1623:B1 *523:39 2.49909e-05
8 *1623:B1 *552:25 4.66108e-05
9 *1637:A2 *519:88 0.000221702
10 *1968:A3 *1597:B 7.17543e-05
11 *1968:A3 *1618:A 6.56525e-05
12 *1968:A3 *2078:A 0
13 *1968:A3 *538:28 0.000192125
14 *1968:A3 *540:18 0.000315917
15 *1968:A3 *540:22 0.00011379
16 *1968:A3 *543:76 9.68865e-05
17 *454:10 *1616:A 3.68682e-05
18 *454:10 *1616:B 8.53113e-06
19 *454:10 *1618:A 3.00448e-05
20 *454:10 *516:79 1.38025e-05
21 *454:18 *519:88 3.12148e-05
22 *1605:B1 *1968:A3 0.000203762
23 *1606:A *454:10 0
24 *1621:A1 *454:10 8.8266e-05
25 *1637:B1 *1637:A2 4.82919e-05
26 *1924:C1 *1968:A3 0.000105508
27 *2054:A *1637:A2 0.000222233
28 *2054:A *454:18 3.69766e-05
29 *337:16 *1968:A3 0.000492865
30 *337:18 *1968:A3 0.000158619
31 *434:10 *1968:A3 0
32 *434:29 *454:18 0.000788026
33 *443:16 *1637:A2 1.56428e-05
34 *449:6 *454:10 1.16578e-05
*RES
1 *1621:X *454:10 6.6675 
2 *454:10 *454:18 2.69083 
3 *454:18 *1637:A2 6.705 
4 *454:18 *1623:B1 4.05 
5 *454:10 *1968:A3 18.9225 
*END

*D_NET *455 0.000826541
*CONN
*I *1624:A2 I *D sky130_fd_sc_hd__a211o_1
*I *1622:X O *D sky130_fd_sc_hd__a21o_1
*CAP
1 *1624:A2 0.000201324
2 *1622:X 0.000201324
3 *1624:A2 *456:16 0.000120186
4 *1624:A1 *1624:A2 0.000118513
5 *1638:B1 *1624:A2 2.54522e-05
6 *443:20 *1624:A2 0.000159741
*RES
1 *1622:X *1624:A2 10.755 
*END

*D_NET *456 0.00300619
*CONN
*I *1627:A1 I *D sky130_fd_sc_hd__a21oi_1
*I *1625:A I *D sky130_fd_sc_hd__nand2_1
*I *1626:A I *D sky130_fd_sc_hd__and3_1
*I *1623:X O *D sky130_fd_sc_hd__a22o_1
*CAP
1 *1627:A1 0
2 *1625:A 7.64648e-05
3 *1626:A 0.000142351
4 *1623:X 0.000473185
5 *456:18 0.000222606
6 *456:16 0.000476976
7 *1625:A *1625:B 5.4155e-06
8 *1625:A *1644:A0 4.73549e-05
9 *1626:A *1644:A0 2.67275e-05
10 *456:16 *1609:B 0.000183731
11 *456:16 *1627:A2 5.33085e-05
12 *456:16 *457:25 8.35683e-05
13 *456:16 *460:14 7.47145e-05
14 *456:16 *474:14 0.000505028
15 *456:16 *516:66 0.000155491
16 *456:16 *519:58 9.37731e-05
17 *1624:A1 *456:16 2.4997e-05
18 *1624:A2 *456:16 0.000120186
19 *1627:B1 *1626:A 7.04675e-05
20 *443:16 *456:16 0.000103282
21 *450:10 *456:16 6.65612e-05
22 *453:14 *456:16 0
*RES
1 *1623:X *456:16 17.69 
2 *456:16 *456:18 0.36 
3 *456:18 *1626:A 3.895 
4 *456:18 *1625:A 3.145 
5 *456:16 *1627:A1 1.6 
*END

*D_NET *457 0.00195319
*CONN
*I *1625:B I *D sky130_fd_sc_hd__nand2_1
*I *1627:A2 I *D sky130_fd_sc_hd__a21oi_1
*I *1626:C I *D sky130_fd_sc_hd__and3_1
*I *1624:X O *D sky130_fd_sc_hd__a211o_1
*CAP
1 *1625:B 6.44338e-05
2 *1627:A2 2.23683e-05
3 *1626:C 0.000463319
4 *1624:X 0
5 *457:25 0.000203391
6 *457:4 0.000579908
7 *1625:B *1644:A0 8.65961e-05
8 *1625:B *1926:B 0.000123225
9 *1626:C *1640:A2 0
10 *1626:C *565:58 1.19928e-05
11 *1625:A *1625:B 5.4155e-06
12 *1627:B1 *1626:C 0.000108226
13 *294:47 *1626:C 6.52111e-05
14 *294:55 *1626:C 3.09233e-05
15 *453:14 *1627:A2 1.94805e-05
16 *453:14 *457:25 3.18219e-05
17 *456:16 *1627:A2 5.33085e-05
18 *456:16 *457:25 8.35683e-05
*RES
1 *1624:X *457:4 1.6 
2 *457:4 *1626:C 11.72 
3 *457:4 *457:25 3.92 
4 *457:25 *1627:A2 4.215 
5 *457:25 *1625:B 5.355 
*END

*D_NET *458 0.00136953
*CONN
*I *1644:A0 I *D sky130_fd_sc_hd__mux2_4
*I *1625:Y O *D sky130_fd_sc_hd__nand2_1
*CAP
1 *1644:A0 0.000183137
2 *1625:Y 0.000183137
3 *1644:A0 *1644:A1 8.49205e-05
4 *1644:A0 *1926:B 7.01918e-05
5 *1644:A0 *459:16 7.23602e-05
6 *1644:A0 *460:14 4.66108e-05
7 *1644:A0 *552:46 0.000199734
8 *1644:A0 *565:58 8.40269e-05
9 *1625:A *1644:A0 4.73549e-05
10 *1625:B *1644:A0 8.65961e-05
11 *1626:A *1644:A0 2.67275e-05
12 *1627:B1 *1644:A0 0.00015896
13 *294:47 *1644:A0 1.71013e-05
14 *294:55 *1644:A0 5.81253e-05
15 *413:10 *1644:A0 5.05521e-05
*RES
1 *1625:Y *1644:A0 13.605 
*END

*D_NET *459 0.00262454
*CONN
*I *1628:A I *D sky130_fd_sc_hd__nor2_1
*I *1640:B1_N I *D sky130_fd_sc_hd__o21ba_4
*I *1636:C1 I *D sky130_fd_sc_hd__a211o_4
*I *1626:X O *D sky130_fd_sc_hd__and3_1
*CAP
1 *1628:A 1.65021e-05
2 *1640:B1_N 2.01995e-05
3 *1636:C1 0.000186295
4 *1626:X 0.000197465
5 *459:29 3.67016e-05
6 *459:16 0.000383761
7 *1628:A *1640:A1 8.49205e-05
8 *1628:A *517:33 7.40446e-05
9 *1636:C1 *1635:B 6.95335e-05
10 *1636:C1 *1636:A2 0.0001249
11 *1636:C1 *1636:B1 0
12 *1636:C1 *1657:C1 4.82919e-05
13 *1636:C1 *1660:C1 0.000176985
14 *1636:C1 *467:10 1.22762e-05
15 *1636:C1 *469:6 3.64998e-06
16 *1636:C1 *474:14 7.44453e-05
17 *1636:C1 *552:46 0.00035825
18 *1640:B1_N *1640:A1 8.40213e-05
19 *1640:B1_N *517:33 8.40213e-05
20 *459:16 *1644:A1 6.58339e-05
21 *459:16 *474:14 0.000136321
22 *459:16 *552:46 0.00023973
23 *1644:A0 *459:16 7.23602e-05
24 *294:55 *459:16 7.4027e-05
*RES
1 *1626:X *459:16 12.52 
2 *459:16 *1636:C1 9.96 
3 *459:16 *459:29 2 
4 *459:29 *1640:B1_N 2.395 
5 *459:29 *1628:A 2.395 
*END

*D_NET *460 0.00226232
*CONN
*I *1636:B1 I *D sky130_fd_sc_hd__a211o_4
*I *1628:B I *D sky130_fd_sc_hd__nor2_1
*I *1627:Y O *D sky130_fd_sc_hd__a21oi_1
*CAP
1 *1636:B1 0.000188779
2 *1628:B 0
3 *1627:Y 0.000195698
4 *460:14 0.000384477
5 *1636:B1 *1635:B 0
6 *1636:B1 *1640:A1 0.000122331
7 *1636:B1 *1643:B 6.28765e-05
8 *1636:B1 *474:14 0
9 *1636:B1 *517:33 0.000110673
10 *460:14 *1640:A1 4.82919e-05
11 *460:14 *1643:A 0.000139238
12 *460:14 *1643:B 3.57846e-05
13 *460:14 *1926:B 4.66108e-05
14 *460:14 *474:14 0.00039802
15 *460:14 *517:33 4.99619e-05
16 *1636:C1 *1636:B1 0
17 *1644:A0 *460:14 4.66108e-05
18 *453:14 *1636:B1 0.00035825
19 *453:14 *460:14 0
20 *456:16 *460:14 7.47145e-05
*RES
1 *1627:Y *460:14 11.195 
2 *460:14 *1628:B 1.6 
3 *460:14 *1636:B1 10.925 
*END

*D_NET *461 0.000538093
*CONN
*I *1643:A I *D sky130_fd_sc_hd__xnor2_1
*I *1628:Y O *D sky130_fd_sc_hd__nor2_1
*CAP
1 *1643:A 0.000102281
2 *1628:Y 0.000102281
3 *1643:A *1643:B 0.000166117
4 *413:10 *1643:A 2.81759e-05
5 *453:14 *1643:A 0
6 *460:14 *1643:A 0.000139238
*RES
1 *1628:Y *1643:A 9.975 
*END

*D_NET *462 0.00138778
*CONN
*I *1631:A I *D sky130_fd_sc_hd__nand2_1
*I *1633:A1 I *D sky130_fd_sc_hd__a21o_1
*I *1634:A2 I *D sky130_fd_sc_hd__a31o_1
*I *1629:Y O *D sky130_fd_sc_hd__o21ai_1
*CAP
1 *1631:A 0
2 *1633:A1 0
3 *1634:A2 0.000232049
4 *1629:Y 7.50791e-05
5 *462:14 0.000366584
6 *462:10 0.000209614
7 *1634:A2 *1633:B1 8.11459e-05
8 *1634:A2 *1634:A1 1.34594e-05
9 *1634:A2 *463:27 0.000162311
10 *462:10 *554:36 5.33787e-05
11 *462:14 *1631:B 2.16917e-05
12 *462:14 *463:27 6.20192e-05
13 *462:14 *464:14 1.61831e-05
14 *1630:C *462:10 3.18219e-05
15 *1634:B1 *1634:A2 3.17194e-05
16 *448:8 *462:10 1.7396e-05
17 *448:14 *462:14 1.33293e-05
*RES
1 *1629:Y *462:10 7.235 
2 *462:10 *462:14 2.1 
3 *462:14 *1634:A2 5.08 
4 *462:14 *1633:A1 1.6 
5 *462:10 *1631:A 1.6 
*END

*D_NET *463 0.00132049
*CONN
*I *1631:B I *D sky130_fd_sc_hd__nand2_1
*I *1633:A2 I *D sky130_fd_sc_hd__a21o_1
*I *1634:A1 I *D sky130_fd_sc_hd__a31o_1
*I *1630:X O *D sky130_fd_sc_hd__or4_4
*CAP
1 *1631:B 1.0276e-05
2 *1633:A2 0
3 *1634:A1 3.44637e-05
4 *1630:X 4.91936e-05
5 *463:27 0.000146951
6 *463:8 0.000220333
7 *1631:B *464:14 4.82919e-05
8 *1634:A1 *1633:B1 4.77259e-05
9 *1634:A1 *464:14 0.000122331
10 *463:8 *1660:C1 6.02202e-05
11 *463:8 *466:10 7.23602e-05
12 *463:8 *551:41 1.14559e-05
13 *463:27 *1633:B1 9.95366e-05
14 *463:27 *1660:C1 0
15 *463:27 *464:14 5.59768e-05
16 *463:27 *466:10 3.02513e-05
17 *463:27 *549:23 0
18 *463:27 *551:41 5.16418e-05
19 *1634:A2 *1634:A1 1.34594e-05
20 *1634:A2 *463:27 0.000162311
21 *462:14 *1631:B 2.16917e-05
22 *462:14 *463:27 6.20192e-05
*RES
1 *1630:X *463:8 4.98 
2 *463:8 *1634:A1 4.74 
3 *463:8 *463:27 5.6 
4 *463:27 *1633:A2 1.6 
5 *463:27 *1631:B 2.05 
*END

*D_NET *464 0.00417067
*CONN
*I *1632:A I *D sky130_fd_sc_hd__inv_2
*I *1647:B I *D sky130_fd_sc_hd__xnor2_1
*I *1651:A0 I *D sky130_fd_sc_hd__mux2_4
*I *1631:Y O *D sky130_fd_sc_hd__nand2_1
*CAP
1 *1632:A 0
2 *1647:B 0.000377808
3 *1651:A0 4.38645e-05
4 *1631:Y 0.000485425
5 *464:25 0.000436009
6 *464:14 0.000587491
7 *1647:B *1647:A 0.000599949
8 *1647:B *1650:A1 0
9 *1647:B *1650:S 1.52184e-05
10 *1647:B *494:14 0.000217716
11 *1651:A0 *1651:S 8.58007e-05
12 *464:14 *1633:B1 0.000111387
13 *464:14 *1986:A 2.16833e-05
14 *464:14 *467:10 0.00024411
15 *464:25 *1647:A 0.000100536
16 *464:25 *1650:S 0.000171968
17 *1631:B *464:14 4.82919e-05
18 *1634:A1 *464:14 0.000122331
19 *1634:B1 *1651:A0 4.56057e-05
20 *1634:B1 *464:14 0.000296723
21 *446:16 *1647:B 0
22 *448:14 *464:14 8.65961e-05
23 *462:14 *464:14 1.61831e-05
24 *463:27 *464:14 5.59768e-05
*RES
1 *1631:Y *464:14 13.675 
2 *464:14 *1651:A0 2.74 
3 *464:14 *464:25 4.145 
4 *464:25 *1647:B 12.63 
5 *464:25 *1632:A 3.6 
*END

*D_NET *465 0.000467951
*CONN
*I *1650:A0 I *D sky130_fd_sc_hd__mux2_1
*I *1632:Y O *D sky130_fd_sc_hd__inv_2
*CAP
1 *1650:A0 7.14787e-05
2 *1632:Y 7.14787e-05
3 *1650:A0 *1650:S 8.65905e-05
4 *1650:A0 *546:27 0.000238403
*RES
1 *1632:Y *1650:A0 5.375 
*END

*D_NET *466 0.00148312
*CONN
*I *1635:A I *D sky130_fd_sc_hd__nand2_1
*I *1636:A1 I *D sky130_fd_sc_hd__a211o_4
*I *1633:X O *D sky130_fd_sc_hd__a21o_1
*CAP
1 *1635:A 0.000199059
2 *1636:A1 0
3 *1633:X 0.000150754
4 *466:10 0.000349813
5 *1635:A *1656:C1 0.000193795
6 *466:10 *1660:C1 1.61461e-05
7 *466:10 *551:41 9.59969e-05
8 *439:20 *1635:A 0.00019662
9 *439:20 *466:10 0.000178321
10 *463:8 *466:10 7.23602e-05
11 *463:27 *466:10 3.02513e-05
*RES
1 *1633:X *466:10 7.47 
2 *466:10 *1636:A1 3.6 
3 *466:10 *1635:A 7.83 
*END

*D_NET *467 0.00196754
*CONN
*I *1635:B I *D sky130_fd_sc_hd__nand2_1
*I *1636:A2 I *D sky130_fd_sc_hd__a211o_4
*I *1634:X O *D sky130_fd_sc_hd__a31o_1
*CAP
1 *1635:B 0.000102816
2 *1636:A2 0.000150139
3 *1634:X 0.000353728
4 *467:10 0.000606683
5 *1636:A2 *1657:C1 0.000103546
6 *467:10 *1657:C1 7.17811e-05
7 *467:10 *1660:C1 0
8 *467:10 *552:46 0.000128032
9 *1636:B1 *1635:B 0
10 *1636:C1 *1635:B 6.95335e-05
11 *1636:C1 *1636:A2 0.0001249
12 *1636:C1 *467:10 1.22762e-05
13 *464:14 *467:10 0.00024411
*RES
1 *1634:X *467:10 9.795 
2 *467:10 *1636:A2 6.465 
3 *467:10 *1635:B 5.745 
*END

*D_NET *468 0.000653264
*CONN
*I *1643:B I *D sky130_fd_sc_hd__xnor2_1
*I *1635:Y O *D sky130_fd_sc_hd__nand2_1
*CAP
1 *1643:B 0.000126635
2 *1635:Y 0.000126635
3 *1643:B *474:14 4.11112e-05
4 *1636:B1 *1643:B 6.28765e-05
5 *1643:A *1643:B 0.000166117
6 *413:10 *1643:B 2.75229e-05
7 *453:14 *1643:B 6.65804e-05
8 *460:14 *1643:B 3.57846e-05
*RES
1 *1635:Y *1643:B 11.07 
*END

*D_NET *469 0.00184011
*CONN
*I *1656:A1 I *D sky130_fd_sc_hd__a211o_1
*I *1657:A1 I *D sky130_fd_sc_hd__a211o_1
*I *1642:A2 I *D sky130_fd_sc_hd__a21oi_4
*I *1636:X O *D sky130_fd_sc_hd__a211o_4
*CAP
1 *1656:A1 3.66508e-05
2 *1657:A1 9.31475e-05
3 *1642:A2 0.000143093
4 *1636:X 0.000170068
5 *469:17 0.000129798
6 *469:6 0.000313161
7 *1642:A2 *1642:A1 8.65905e-05
8 *1642:A2 *1660:C1 8.43862e-05
9 *1656:A1 *473:10 9.50342e-06
10 *1656:A1 *473:12 0.000131401
11 *1657:A1 *1657:A2 0.000157595
12 *1657:A1 *473:12 7.47215e-05
13 *469:6 *1660:C1 4.26197e-05
14 *1636:C1 *469:6 3.64998e-06
15 *294:55 *1656:A1 0.000139238
16 *294:55 *1657:A1 0.000224487
*RES
1 *1636:X *469:6 3.43 
2 *469:6 *1642:A2 4.39 
3 *469:6 *469:17 2 
4 *469:17 *1657:A1 6.255 
5 *469:17 *1656:A1 5.235 
*END

*D_NET *470 0.00123101
*CONN
*I *1639:A I *D sky130_fd_sc_hd__and2_1
*I *1668:A I *D sky130_fd_sc_hd__or2_1
*I *1637:X O *D sky130_fd_sc_hd__a21o_1
*CAP
1 *1639:A 0
2 *1668:A 9.18076e-05
3 *1637:X 0.000137228
4 *470:12 0.000229035
5 *1668:A *1587:A 0
6 *1668:A *1668:B 2.75145e-05
7 *1668:A *471:10 7.09871e-05
8 *1668:A *544:30 0.000132415
9 *470:12 *1587:A 0.000181376
10 *470:12 *1610:C 2.67022e-05
11 *470:12 *1924:A2 0
12 *470:12 *515:12 4.66108e-05
13 *470:12 *515:88 0.000287337
*RES
1 *1637:X *470:12 9.47 
2 *470:12 *1668:A 4.135 
3 *470:12 *1639:A 1.6 
*END

*D_NET *471 0.0174801
*CONN
*I *1639:B I *D sky130_fd_sc_hd__and2_1
*I *1669:A1 I *D sky130_fd_sc_hd__a21oi_1
*I *1672:B I *D sky130_fd_sc_hd__and3_1
*I *1694:A1 I *D sky130_fd_sc_hd__a21o_1
*I *1738:B1 I *D sky130_fd_sc_hd__o21ai_1
*I *1762:A1 I *D sky130_fd_sc_hd__a21oi_1
*I *1763:B I *D sky130_fd_sc_hd__and3_1
*I *1693:B I *D sky130_fd_sc_hd__and3_1
*I *1638:X O *D sky130_fd_sc_hd__a211o_2
*CAP
1 *1639:B 0
2 *1669:A1 0
3 *1672:B 0
4 *1694:A1 5.29292e-05
5 *1738:B1 0
6 *1762:A1 0.000120623
7 *1763:B 0.000133973
8 *1693:B 3.38648e-05
9 *1638:X 0.000263828
10 *471:71 0.00321918
11 *471:49 0.00322798
12 *471:41 0.000514195
13 *471:26 0.000582853
14 *471:20 0.000784469
15 *471:10 0.0012305
16 *471:6 0.00106099
17 *1762:A1 *1762:B1 1.73877e-05
18 *1763:B *1763:A 1.33205e-05
19 *1763:B *531:6 1.1392e-05
20 *471:6 *544:30 0.000166919
21 *471:10 *1587:A 4.86371e-06
22 *471:10 *1668:B 4.82863e-05
23 *471:10 *544:30 1.3676e-05
24 *471:20 *1692:A1 8.53113e-06
25 *471:20 *539:104 0.000102005
26 *471:20 *546:121 0.000179015
27 *471:20 *556:10 7.30547e-05
28 *471:20 *556:21 0.000114492
29 *471:26 *1673:B 0.000103002
30 *471:26 *1673:C 4.35432e-05
31 *471:26 *531:74 2.67022e-05
32 *471:41 *531:74 2.04147e-05
33 *471:41 *539:68 5.83373e-05
34 *471:49 *1591:A 2.0514e-05
35 *471:49 *1645:A 1.91597e-05
36 *471:49 *1738:A2 4.82919e-05
37 *471:49 *536:20 0.000541221
38 *471:49 *536:22 2.15594e-05
39 *471:49 *565:58 0.000241677
40 *471:71 *1762:B1 9.55514e-05
41 *471:71 *2051:A 0
42 *471:71 *497:29 1.7635e-05
43 *471:71 *512:12 2.91921e-05
44 *471:71 *512:25 1.0145e-05
45 *471:71 *531:25 0.00100623
46 *1638:B1 *471:6 0.000160635
47 *1668:A *471:10 7.09871e-05
48 *1674:D *471:26 6.55328e-05
49 *1677:B1 *471:20 6.33103e-05
50 *1689:A1 *471:10 4.82863e-05
51 *1689:A2 *471:10 8.05251e-05
52 *1694:A2 *1694:A1 8.49205e-05
53 *1694:A2 *471:41 0.00015896
54 *1716:A1 *471:26 4.75576e-05
55 *1716:A1 *471:41 6.02202e-05
56 *1762:A2 *1762:A1 0.00013642
57 *1763:C *1762:A1 6.80732e-06
58 *1763:C *1763:B 8.62445e-06
59 *1789:B *471:71 0
60 *1799:B2 *471:71 0.000448201
61 *2112:A *471:20 0.000124007
62 *2112:A *471:26 7.57202e-05
63 *43:6 *471:10 0.000177455
64 *43:6 *471:20 1.19928e-05
65 *43:12 *471:20 1.19928e-05
66 *48:6 *471:26 0.000122331
67 *64:24 *1693:B 4.82919e-05
68 *113:6 *471:49 5.83121e-06
69 *136:18 *471:71 0
70 *140:12 *1762:A1 9.08126e-05
71 *140:12 *471:71 0.000225853
72 *161:8 *471:71 0
73 *283:8 *471:49 0.000201503
74 *283:12 *471:26 5.43215e-05
75 *283:12 *471:41 2.25075e-05
76 *283:12 *471:49 0.000585026
77 *304:12 *471:71 0
*RES
1 *1638:X *471:6 6.88 
2 *471:6 *471:10 10.035 
3 *471:10 *471:20 10.84 
4 *471:20 *471:26 8.705 
5 *471:26 *1693:B 4.05 
6 *471:26 *471:41 5.63 
7 *471:41 *471:49 14.635 
8 *471:49 *471:71 22.8377 
9 *471:71 *1763:B 3.085 
10 *471:71 *1762:A1 8.03 
11 *471:49 *1738:B1 1.6 
12 *471:41 *1694:A1 2.395 
13 *471:20 *1672:B 1.6 
14 *471:10 *1669:A1 1.6 
15 *471:6 *1639:B 1.6 
*END

*D_NET *472 0.00135917
*CONN
*I *1640:A2 I *D sky130_fd_sc_hd__o21ba_4
*I *1639:X O *D sky130_fd_sc_hd__and2_1
*CAP
1 *1640:A2 0.000332425
2 *1639:X 0.000332425
3 *1640:A2 *518:54 0.00069432
4 *1640:A2 *552:46 0
5 *1626:C *1640:A2 0
6 *294:55 *1640:A2 0
*RES
1 *1639:X *1640:A2 15.21 
*END

*D_NET *473 0.00126062
*CONN
*I *1656:A2 I *D sky130_fd_sc_hd__a211o_1
*I *1642:A1 I *D sky130_fd_sc_hd__a21oi_4
*I *1657:A2 I *D sky130_fd_sc_hd__a211o_1
*I *1640:X O *D sky130_fd_sc_hd__o21ba_4
*CAP
1 *1656:A2 0
2 *1642:A1 1.41866e-05
3 *1657:A2 9.10238e-05
4 *1640:X 9.67237e-05
5 *473:12 0.000206244
6 *473:10 0.000197757
7 *1642:A1 *1660:C1 8.65905e-05
8 *1657:A2 *518:10 0
9 *473:10 *517:33 4.82919e-05
10 *473:10 *518:10 0
11 *473:10 *518:54 0
12 *473:12 *518:10 0
13 *1642:A2 *1642:A1 8.65905e-05
14 *1656:A1 *473:10 9.50342e-06
15 *1656:A1 *473:12 0.000131401
16 *1657:A1 *1657:A2 0.000157595
17 *1657:A1 *473:12 7.47215e-05
18 *294:55 *473:10 5.99925e-05
*RES
1 *1640:X *473:10 5.43 
2 *473:10 *473:12 2.4 
3 *473:12 *1657:A2 5.49 
4 *473:12 *1642:A1 4.395 
5 *473:10 *1656:A2 3.6 
*END

*D_NET *474 0.00496762
*CONN
*I *1656:B1 I *D sky130_fd_sc_hd__a211o_1
*I *1642:B1 I *D sky130_fd_sc_hd__a21oi_4
*I *1657:B1 I *D sky130_fd_sc_hd__a211o_1
*I *1641:X O *D sky130_fd_sc_hd__a21o_1
*CAP
1 *1656:B1 0
2 *1642:B1 0
3 *1657:B1 5.80785e-05
4 *1641:X 0.000952517
5 *474:18 0.000113477
6 *474:14 0.00100792
7 *1657:B1 *551:37 0.000115464
8 *1657:B1 *552:46 0
9 *474:14 *1619:A 0
10 *474:14 *1656:C1 0.000100929
11 *474:14 *2078:A 0
12 *474:14 *516:79 0
13 *474:14 *519:58 9.54399e-05
14 *474:14 *543:42 0.000159771
15 *474:14 *551:37 8.73389e-06
16 *474:14 *552:38 1.97442e-05
17 *474:14 *552:46 0.000200658
18 *474:18 *551:37 0.000139231
19 *474:18 *552:46 3.95347e-05
20 *1608:A2 *474:14 0
21 *1618:B *474:14 0
22 *1636:B1 *474:14 0
23 *1636:C1 *474:14 7.44453e-05
24 *1638:B1 *474:14 6.02202e-05
25 *1643:B *474:14 4.11112e-05
26 *2129:A *474:14 0.000159964
27 *294:55 *1657:B1 0.000159269
28 *294:55 *474:18 0.000198279
29 *441:10 *474:14 2.3051e-05
30 *441:25 *474:14 0.000200422
31 *456:16 *474:14 0.000505028
32 *459:16 *474:14 0.000136321
33 *460:14 *474:14 0.00039802
*RES
1 *1641:X *474:14 29.315 
2 *474:14 *474:18 4.4 
3 *474:18 *1657:B1 5.49 
4 *474:18 *1642:B1 3.6 
5 *474:14 *1656:B1 1.6 
*END

*D_NET *475 0.010667
*CONN
*I *1644:S I *D sky130_fd_sc_hd__mux2_4
*I *1924:A2 I *D sky130_fd_sc_hd__a211oi_1
*I *1668:B I *D sky130_fd_sc_hd__or2_1
*I *1658:A2 I *D sky130_fd_sc_hd__o21ai_1
*I *1660:A2 I *D sky130_fd_sc_hd__o211ai_2
*I *1659:A2 I *D sky130_fd_sc_hd__o211a_1
*I *1651:S I *D sky130_fd_sc_hd__mux2_4
*I *1650:S I *D sky130_fd_sc_hd__mux2_1
*I *1642:Y O *D sky130_fd_sc_hd__a21oi_4
*CAP
1 *1644:S 0.000182055
2 *1924:A2 0.000932496
3 *1668:B 1.17533e-05
4 *1658:A2 0.000132995
5 *1660:A2 0.000139042
6 *1659:A2 4.14166e-05
7 *1651:S 0.000132256
8 *1650:S 0.000204771
9 *1642:Y 0.000321178
10 *475:83 0.00112228
11 *475:81 0.000528447
12 *475:68 0.000402936
13 *475:51 0.000266974
14 *475:12 0.000447947
15 *475:10 0.000193507
16 *475:8 0.000388702
17 *1644:S *477:8 0.000123313
18 *1650:S *1647:A 7.21296e-06
19 *1650:S *1650:A1 0
20 *1651:S *1651:A1 4.27071e-05
21 *1658:A2 *1658:A1 4.82863e-05
22 *1659:A2 *1986:A 0
23 *1659:A2 *517:8 4.31472e-05
24 *1660:A2 *1660:C1 2.49909e-05
25 *1924:A2 *1587:A 7.9745e-05
26 *1924:A2 *1590:A 2.42236e-05
27 *1924:A2 *1596:C 0.00015896
28 *1924:A2 *1610:C 9.71067e-05
29 *1924:A2 *1613:B 0.000206905
30 *1924:A2 *1869:A1 0.000808425
31 *1924:A2 *2084:A 7.58495e-05
32 *1924:A2 *493:23 0
33 *1924:A2 *515:20 0.000139936
34 *1924:A2 *515:88 0
35 *1924:A2 *552:10 0
36 *1924:A2 *552:12 0
37 *475:8 *1660:C1 0.000453546
38 *475:10 *515:88 3.18219e-05
39 *475:12 *1647:A 6.14689e-05
40 *475:12 *515:88 8.08153e-06
41 *475:51 *515:88 2.75707e-05
42 *475:68 *2057:A 3.99395e-05
43 *475:68 *515:88 5.79394e-05
44 *475:81 *515:88 0
45 *475:83 *1613:B 0.000199204
46 *475:83 *2084:A 0.000112211
47 *475:83 *515:88 0
48 *1634:B1 *1651:S 9.27255e-06
49 *1647:B *1650:S 1.52184e-05
50 *1650:A0 *1650:S 8.65905e-05
51 *1651:A0 *1651:S 8.58007e-05
52 *1658:B1 *1658:A2 8.43862e-05
53 *1659:B1 *475:10 8.45475e-05
54 *1659:B1 *475:12 3.09164e-05
55 *1659:B1 *475:51 6.52181e-05
56 *1659:B1 *475:68 0.000149179
57 *1660:B1 *1659:A2 8.40213e-05
58 *1668:A *1668:B 2.75145e-05
59 *1781:C1 *1924:A2 9.54399e-05
60 *1867:B1 *1924:A2 3.24385e-05
61 *1868:B1 *1924:A2 0.000271327
62 *31:6 *1658:A2 5.83121e-06
63 *241:16 *1644:S 1.16578e-05
64 *241:16 *1924:A2 8.53113e-06
65 *241:16 *475:83 0.000450562
66 *241:28 *1660:A2 9.52646e-05
67 *241:28 *475:68 3.32246e-05
68 *241:28 *475:81 0.000327333
69 *413:10 *1644:S 7.10957e-05
70 *446:10 *1650:S 0
71 *446:10 *475:12 0
72 *446:16 *1650:S 0
73 *464:25 *1650:S 0.000171968
74 *470:12 *1924:A2 0
75 *471:10 *1668:B 4.82863e-05
*RES
1 *1642:Y *475:8 7.845 
2 *475:8 *475:10 1.125 
3 *475:10 *475:12 2.145 
4 *475:12 *1650:S 7.605 
5 *475:12 *1651:S 6.045 
6 *475:10 *1659:A2 4.755 
7 *475:8 *475:51 0.87 
8 *475:51 *1660:A2 6.135 
9 *475:51 *475:68 2.955 
10 *475:68 *1658:A2 5.79 
11 *475:68 *475:81 3.93 
12 *475:81 *475:83 5.715 
13 *475:83 *1668:B 4.05 
14 *475:83 *1924:A2 26.145 
15 *475:81 *1644:S 6.915 
*END

*D_NET *476 0.000585729
*CONN
*I *1644:A1 I *D sky130_fd_sc_hd__mux2_4
*I *1643:Y O *D sky130_fd_sc_hd__xnor2_1
*CAP
1 *1644:A1 0.000177314
2 *1643:Y 0.000177314
3 *1644:A0 *1644:A1 8.49205e-05
4 *413:10 *1644:A1 8.03466e-05
5 *459:16 *1644:A1 6.58339e-05
*RES
1 *1643:Y *1644:A1 6.68 
*END

*D_NET *477 0.00272411
*CONN
*I *1646:B I *D sky130_fd_sc_hd__xnor2_2
*I *1645:B I *D sky130_fd_sc_hd__nor2_1
*I *1688:B1 I *D sky130_fd_sc_hd__a21oi_1
*I *1644:X O *D sky130_fd_sc_hd__mux2_4
*CAP
1 *1646:B 0
2 *1645:B 0
3 *1688:B1 0.000152405
4 *1644:X 0.000309733
5 *477:10 0.000213125
6 *477:8 0.000370454
7 *1688:B1 *479:10 4.99619e-05
8 *1688:B1 *539:104 8.23457e-05
9 *477:10 *479:10 3.83041e-05
10 *1644:S *477:8 0.000123313
11 *1689:A2 *1688:B1 0.000358951
12 *1689:B1 *1688:B1 9.64869e-05
13 *2026:C *477:8 0.000259544
14 *45:56 *1688:B1 0.000121688
15 *241:16 *477:8 1.46828e-05
16 *241:28 *477:8 4.66108e-05
17 *283:67 *1688:B1 4.82919e-05
18 *283:67 *477:8 0.000188753
19 *283:67 *477:10 0.000200615
20 *413:10 *477:8 4.88478e-05
*RES
1 *1644:X *477:8 8.275 
2 *477:8 *477:10 1.83 
3 *477:10 *1688:B1 11.03 
4 *477:10 *1645:B 1.6 
5 *477:8 *1646:B 1.6 
*END

*D_NET *478 0.00129866
*CONN
*I *1671:C1 I *D sky130_fd_sc_hd__a311o_1
*I *1670:C1 I *D sky130_fd_sc_hd__a311oi_2
*I *1645:Y O *D sky130_fd_sc_hd__nor2_1
*CAP
1 *1671:C1 0
2 *1670:C1 0.000108036
3 *1645:Y 0.000131325
4 *478:10 0.000239361
5 *478:10 *479:10 6.97118e-05
6 *1670:B1 *1670:C1 0.000188506
7 *1689:A2 *1670:C1 5.4003e-05
8 *1689:A2 *478:10 0.000136877
9 *1706:B1 *1670:C1 0.000163204
10 *44:10 *1670:C1 9.50342e-06
11 *44:10 *478:10 0.000129047
12 *45:12 *1670:C1 6.90876e-05
*RES
1 *1645:Y *478:10 6.375 
2 *478:10 *1670:C1 7.08 
3 *478:10 *1671:C1 3.6 
*END

*D_NET *479 0.00236521
*CONN
*I *1687:A I *D sky130_fd_sc_hd__xnor2_1
*I *1671:A1 I *D sky130_fd_sc_hd__a311o_1
*I *1670:A1 I *D sky130_fd_sc_hd__a311oi_2
*I *1646:Y O *D sky130_fd_sc_hd__xnor2_2
*CAP
1 *1687:A 0.00028863
2 *1671:A1 0
3 *1670:A1 6.2822e-05
4 *1646:Y 0.000136218
5 *479:12 8.57387e-05
6 *479:10 0.000447765
7 *1670:A1 *546:73 0.000157602
8 *1687:A *556:10 0.000120655
9 *479:10 *1645:A 0.00015639
10 *479:10 *546:73 6.21553e-05
11 *479:10 *546:121 5.4003e-05
12 *479:12 *546:73 6.28498e-05
13 *1687:B *1687:A 7.61024e-05
14 *1688:B1 *479:10 4.99619e-05
15 *1698:A2 *1687:A 1.37328e-05
16 *1706:B1 *1670:A1 2.49909e-05
17 *2121:A *1687:A 2.30292e-05
18 *45:12 *1670:A1 4.82863e-05
19 *46:6 *1687:A 0
20 *46:10 *1687:A 2.24098e-05
21 *241:39 *1670:A1 0.000159964
22 *241:39 *479:10 0.000116853
23 *241:39 *479:12 7.23533e-05
24 *283:67 *479:10 1.46828e-05
25 *477:10 *479:10 3.83041e-05
26 *478:10 *479:10 6.97118e-05
*RES
1 *1646:Y *479:10 7.5 
2 *479:10 *479:12 0.87 
3 *479:12 *1670:A1 5.94 
4 *479:12 *1671:A1 3.6 
5 *479:10 *1687:A 7.89 
*END

*D_NET *480 0.000817553
*CONN
*I *1648:B I *D sky130_fd_sc_hd__xnor2_1
*I *1649:B I *D sky130_fd_sc_hd__xor2_1
*I *1647:Y O *D sky130_fd_sc_hd__xnor2_1
*CAP
1 *1648:B 0.000101395
2 *1649:B 0
3 *1647:Y 0.000120385
4 *480:12 0.00022178
5 *1648:B *1651:A1 0.00012657
6 *480:12 *493:10 5.92849e-05
7 *1649:A *1648:B 0.000138175
8 *1649:A *480:12 4.99619e-05
9 *446:16 *480:12 0
*RES
1 *1647:Y *480:12 8.03 
2 *480:12 *1649:B 1.6 
3 *480:12 *1648:B 4.495 
*END

*D_NET *481 0.000189331
*CONN
*I *1650:A1 I *D sky130_fd_sc_hd__mux2_1
*I *1648:Y O *D sky130_fd_sc_hd__xnor2_1
*CAP
1 *1650:A1 6.09617e-05
2 *1648:Y 6.09617e-05
3 *1647:B *1650:A1 0
4 *1650:S *1650:A1 0
5 *446:16 *1650:A1 6.74079e-05
*RES
1 *1648:Y *1650:A1 8.58 
*END

*D_NET *482 0.00121743
*CONN
*I *1651:A1 I *D sky130_fd_sc_hd__mux2_4
*I *1649:X O *D sky130_fd_sc_hd__xor2_1
*CAP
1 *1651:A1 0.000367596
2 *1649:X 0.000367596
3 *1634:B1 *1651:A1 0.000163204
4 *1648:B *1651:A1 0.00012657
5 *1651:S *1651:A1 4.27071e-05
6 *446:10 *1651:A1 1.1561e-05
7 *446:16 *1651:A1 0.000138196
*RES
1 *1649:X *1651:A1 14.04 
*END

*D_NET *483 0.00159781
*CONN
*I *1652:B I *D sky130_fd_sc_hd__nand2_1
*I *1696:B I *D sky130_fd_sc_hd__xnor2_1
*I *1650:X O *D sky130_fd_sc_hd__mux2_1
*CAP
1 *1652:B 0
2 *1696:B 0.000115985
3 *1650:X 0.000270707
4 *483:8 0.000386692
5 *1696:B *1652:A 5.0128e-05
6 *1696:B *485:12 2.7441e-05
7 *483:8 *1652:A 8.65961e-05
8 *483:8 *546:27 0.000571998
9 *1696:A *1696:B 8.8266e-05
*RES
1 *1650:X *483:8 8.185 
2 *483:8 *1696:B 4.135 
3 *483:8 *1652:B 1.6 
*END

*D_NET *484 0.00412673
*CONN
*I *1698:B1 I *D sky130_fd_sc_hd__a21o_1
*I *1666:A1 I *D sky130_fd_sc_hd__a221o_1
*I *1651:X O *D sky130_fd_sc_hd__mux2_4
*CAP
1 *1698:B1 0.000485566
2 *1666:A1 4.84494e-05
3 *1651:X 0.00055283
4 *484:10 0.00108685
5 *1698:B1 *1709:B1 0
6 *1698:B1 *485:12 8.58105e-05
7 *1698:B1 *546:73 3.19991e-05
8 *484:10 *546:73 9.82856e-06
9 *1666:A2 *1666:A1 1.2818e-05
10 *1666:A2 *1698:B1 1.07797e-05
11 *1666:A2 *484:10 2.59981e-05
12 *1671:A2 *1698:B1 2.07184e-05
13 *1687:B *1698:B1 0.000162318
14 *1696:A *484:10 6.5525e-05
15 *1699:A *1698:B1 0.000170617
16 *1699:C *1698:B1 4.99619e-05
17 *1705:B *1666:A1 9.72742e-06
18 *1706:B1 *1698:B1 0.000419392
19 *1707:C *1698:B1 0
20 *34:8 *1666:A1 0.000120655
21 *35:10 *1698:B1 1.82476e-05
22 *39:10 *1666:A1 6.57312e-05
23 *41:8 *1698:B1 0.00011852
24 *41:19 *1698:B1 0.000193564
25 *45:12 *1698:B1 0.00019637
26 *283:26 *1698:B1 0.000164457
*RES
1 *1651:X *484:10 12.15 
2 *484:10 *1666:A1 5.1 
3 *484:10 *1698:B1 20.455 
*END

*D_NET *485 0.00272358
*CONN
*I *1671:A3 I *D sky130_fd_sc_hd__a311o_1
*I *1670:A2 I *D sky130_fd_sc_hd__a311oi_2
*I *1667:A I *D sky130_fd_sc_hd__nand2_1
*I *1652:Y O *D sky130_fd_sc_hd__nand2_1
*CAP
1 *1671:A3 4.9595e-05
2 *1670:A2 1.65033e-05
3 *1667:A 0
4 *1652:Y 0.000242414
5 *485:25 0.000200111
6 *485:12 0.000376426
7 *1671:A3 *546:73 0.000157602
8 *485:12 *1652:A 1.16578e-05
9 *485:25 *546:73 0.000181376
10 *1665:A1 *485:12 9.84957e-05
11 *1666:A2 *485:12 6.45236e-05
12 *1667:B *485:25 4.66108e-05
13 *1671:A2 *1671:A3 0.000127366
14 *1671:A2 *485:25 9.50342e-06
15 *1687:B *1671:A3 9.3062e-06
16 *1696:A *485:12 0.000279797
17 *1696:B *485:12 2.7441e-05
18 *1698:B1 *485:12 8.58105e-05
19 *1706:B1 *1670:A2 2.49909e-05
20 *35:10 *485:12 0.000163992
21 *35:10 *485:25 0.00015806
22 *35:12 *485:12 0.000162332
23 *41:19 *485:25 0.00018305
24 *45:12 *1670:A2 4.66108e-05
*RES
1 *1652:Y *485:12 12.2 
2 *485:12 *1667:A 1.6 
3 *485:12 *485:25 5.99 
4 *485:25 *1670:A2 4.05 
5 *485:25 *1671:A3 5.49 
*END

*D_NET *486 0.00164138
*CONN
*I *1908:A1 I *D sky130_fd_sc_hd__a21oi_2
*I *1654:B I *D sky130_fd_sc_hd__and2_1
*I *1655:B I *D sky130_fd_sc_hd__nand2_1
*I *1653:Y O *D sky130_fd_sc_hd__nand2_1
*CAP
1 *1908:A1 0.000123204
2 *1654:B 0.000193139
3 *1655:B 5.26007e-05
4 *1653:Y 0
5 *486:8 0.000304432
6 *486:4 0.000181896
7 *1654:B *1657:C1 3.23663e-05
8 *1655:B *1653:A 9.53428e-06
9 *1655:B *549:107 4.80285e-05
10 *1908:A1 *1907:B 6.14433e-05
11 *1908:A1 *517:58 8.97486e-05
12 *486:8 *1653:A 0.000124007
13 *486:8 *1653:B 2.30292e-05
14 *486:8 *549:107 8.34281e-06
15 *1654:A *1654:B 2.30292e-05
16 *1908:A2 *486:8 9.52646e-05
17 *1908:B1 *1908:A1 4.43871e-06
18 *445:8 *1654:B 0.000178607
19 *445:8 *1655:B 8.8266e-05
*RES
1 *1653:Y *486:4 1.6 
2 *486:4 *486:8 2.19 
3 *486:8 *1655:B 3.1 
4 *486:8 *1654:B 5.44 
5 *486:4 *1908:A1 8.285 
*END

*D_NET *487 0.001622
*CONN
*I *1656:C1 I *D sky130_fd_sc_hd__a211o_1
*I *1654:X O *D sky130_fd_sc_hd__and2_1
*CAP
1 *1656:C1 0.000601461
2 *1654:X 0.000601461
3 *1656:C1 *551:37 5.83121e-06
4 *1656:C1 *554:58 0.00011852
5 *1635:A *1656:C1 0.000193795
6 *474:14 *1656:C1 0.000100929
*RES
1 *1654:X *1656:C1 17.325 
*END

*D_NET *488 0.00214453
*CONN
*I *1657:C1 I *D sky130_fd_sc_hd__a211o_1
*I *1655:Y O *D sky130_fd_sc_hd__nand2_1
*CAP
1 *1657:C1 0.00069605
2 *1655:Y 0.00069605
3 *1657:C1 *1660:C1 0.000143258
4 *1657:C1 *1986:A 0.000272984
5 *1636:A2 *1657:C1 0.000103546
6 *1636:C1 *1657:C1 4.82919e-05
7 *1654:A *1657:C1 4.99619e-05
8 *1654:B *1657:C1 3.23663e-05
9 *445:8 *1657:C1 2.30292e-05
10 *453:14 *1657:C1 7.21296e-06
11 *467:10 *1657:C1 7.17811e-05
*RES
1 *1655:Y *1657:C1 19.395 
*END

*D_NET *489 0.00524612
*CONN
*I *1814:A I *D sky130_fd_sc_hd__nand2_2
*I *1822:D I *D sky130_fd_sc_hd__and4b_2
*I *1813:A_N I *D sky130_fd_sc_hd__and4b_2
*I *1824:D I *D sky130_fd_sc_hd__and4bb_2
*I *1816:A I *D sky130_fd_sc_hd__or4b_4
*I *1831:A_N I *D sky130_fd_sc_hd__and4bb_2
*I *1594:A I *D sky130_fd_sc_hd__nor2_1
*I *2091:X O *D sky130_fd_sc_hd__dlymetal6s2s_1
*CAP
1 *1814:A 4.08517e-05
2 *1822:D 0
3 *1813:A_N 0
4 *1824:D 0
5 *1816:A 0.000152111
6 *1831:A_N 5.60047e-05
7 *1594:A 8.82769e-05
8 *2091:X 0
9 *489:45 0.00029302
10 *489:41 0.0004776
11 *489:35 0.000758512
12 *489:23 0.000469719
13 *489:21 0.000281147
14 *489:4 0.000224669
15 *1594:A *1594:B 4.82919e-05
16 *1594:A *511:51 0.000279787
17 *1814:A *1816:D_N 0
18 *1816:A *1824:C 3.23391e-05
19 *1816:A *2114:A 8.76863e-05
20 *1816:A *500:10 0
21 *1816:A *511:70 1.89226e-05
22 *1831:A_N *500:25 0.000158965
23 *489:21 *1594:B 0
24 *489:21 *1595:A_N 0
25 *489:21 *511:51 1.12578e-05
26 *489:21 *530:17 4.14369e-05
27 *489:23 *530:17 0.000140234
28 *489:35 *1813:B 4.99619e-05
29 *489:35 *1815:C_N 3.66286e-05
30 *489:35 *530:17 9.50342e-06
31 *489:35 *530:19 0.000239917
32 *489:35 *530:23 4.99619e-05
33 *489:41 *1586:A 8.40269e-05
34 *489:41 *1824:C 5.05521e-05
35 *489:41 *2089:A 6.3124e-06
36 *489:45 *1824:B_N 2.05571e-05
37 *489:45 *1824:C 9.86611e-05
38 *1815:A *489:35 3.20406e-05
39 *1817:D_N *1814:A 5.56459e-05
40 *1818:B2 *489:23 0
41 *1818:B2 *489:35 1.37895e-05
42 *1820:C *489:35 2.30292e-05
43 *1820:C *489:41 8.8266e-05
44 *1826:A3 *489:35 0
45 *1827:C *1816:A 4.82919e-05
46 *1827:C *489:45 8.72665e-06
47 *2091:A *1594:A 6.77417e-05
48 *2105:A *489:21 2.75145e-05
49 *189:10 *1814:A 2.16833e-05
50 *191:8 *1816:A 6.28178e-05
51 *191:8 *489:45 2.86623e-05
52 *191:14 *489:45 9.68709e-05
53 *191:72 *1831:A_N 4.80285e-05
54 *192:24 *489:41 8.22234e-06
55 *199:18 *489:45 8.53113e-06
56 *230:6 *489:41 2.30292e-05
57 *230:13 *489:41 6.20787e-05
58 *315:8 *489:21 0
59 *315:23 *1814:A 8.40213e-05
60 *326:18 *1594:A 4.36241e-05
61 *326:18 *489:21 8.65905e-05
62 *326:56 *489:23 0
*RES
1 *2091:X *489:4 1.6 
2 *489:4 *1594:A 5.095 
3 *489:4 *489:21 4.685 
4 *489:21 *489:23 1.89 
5 *489:23 *489:35 8.255 
6 *489:35 *489:41 5.745 
7 *489:41 *489:45 4.655 
8 *489:45 *1831:A_N 5.085 
9 *489:45 *1816:A 6.45 
10 *489:41 *1824:D 1.6 
11 *489:35 *1813:A_N 1.6 
12 *489:23 *1822:D 3.6 
13 *489:21 *1814:A 4.755 
*END

*D_NET *490 0.0177334
*CONN
*I *1964:A1 I *D sky130_fd_sc_hd__a21oi_1
*I *2009:B2 I *D sky130_fd_sc_hd__a32o_1
*I *1965:A1 I *D sky130_fd_sc_hd__o22a_1
*I *1966:A1 I *D sky130_fd_sc_hd__a32o_1
*I *2090:A I *D sky130_fd_sc_hd__buf_6
*I *2092:X O *D sky130_fd_sc_hd__clkbuf_2
*CAP
1 *1964:A1 9.45261e-05
2 *2009:B2 0.000244946
3 *1965:A1 1.66971e-05
4 *1966:A1 8.50218e-05
5 *2090:A 0
6 *2092:X 0.001489
7 *490:61 0.000358041
8 *490:48 0.000390364
9 *490:29 0.000440119
10 *490:27 0.00214944
11 *490:25 0.00374376
12 *490:10 0.00308332
13 *1964:A1 *1964:A2 8.69182e-05
14 *1964:A1 *537:46 6.1357e-05
15 *1964:A1 *537:52 6.07575e-06
16 *1965:A1 *497:52 2.79064e-05
17 *1966:A1 *1966:A2 4.66108e-05
18 *1966:A1 *2048:B1 0
19 *2009:B2 *1956:A1 0.000312083
20 *2009:B2 *2049:A1 0.000441124
21 *2009:B2 *2118:A 0.000108262
22 *2009:B2 *537:42 0
23 *490:27 *1878:B 6.36578e-05
24 *490:27 *1909:B 0.00024259
25 *490:27 *1979:A2 0
26 *490:27 *1983:A 0
27 *490:27 *2078:A 0.000160658
28 *490:27 *525:92 0
29 *490:27 *527:34 1.94805e-05
30 *490:27 *527:45 0.000179392
31 *490:27 *527:109 2.24905e-05
32 *490:27 *545:33 0
33 *490:27 *563:14 0.000318494
34 *490:27 *563:69 0.000297566
35 *490:48 *1919:A2 7.82985e-05
36 *490:48 *1966:A2 0.000266164
37 *490:48 *2049:A1 0.000120655
38 *490:48 *2118:A 6.03399e-05
39 *490:48 *497:52 1.60203e-05
40 *490:48 *535:22 8.39218e-05
41 *490:48 *537:52 5.12017e-06
42 *490:48 *537:69 1.0183e-05
43 *1861:B *490:27 0.000136877
44 *1863:B *490:27 0.000319098
45 *1866:B2 *490:27 3.69766e-05
46 *1906:A1 *490:27 0.000139238
47 *1909:A *490:27 0.000137422
48 *1939:A *490:27 0
49 *1956:B1 *2009:B2 0.000154891
50 *1965:B1 *1964:A1 4.66108e-05
51 *1966:B1 *1966:A1 2.16833e-05
52 *1969:C *490:27 0.000181376
53 *1985:A *490:27 0
54 *2035:B *490:25 0
55 *2036:A *490:10 0
56 *2036:A *490:25 0
57 *2037:A *490:27 0
58 *2037:B *490:27 0
59 *2050:B1 *1964:A1 0.000377625
60 *2050:B1 *490:48 8.1871e-05
61 *2096:A *490:10 2.75229e-05
62 *2110:A *490:10 2.75229e-05
63 *190:27 *490:27 0
64 *196:12 *490:27 0
65 *196:14 *490:27 0.000222537
66 *196:46 *490:27 6.08134e-05
67 *199:95 *490:27 0.000114492
68 *257:12 *490:27 0.000208491
69 *311:10 *490:27 0
70 *313:24 *490:27 0.00013994
71 *317:12 *490:27 7.16263e-05
72 *317:34 *490:27 9.62274e-05
73 *366:12 *490:27 0
*RES
1 *2092:X *490:10 25.605 
2 *490:10 *2090:A 3.6 
3 *490:10 *490:25 3.91443 
4 *490:25 *490:27 48.1725 
5 *490:27 *490:29 2 
6 *490:29 *1966:A1 2.755 
7 *490:29 *490:48 10.915 
8 *490:48 *1965:A1 2.275 
9 *490:48 *490:61 0.36 
10 *490:61 *2009:B2 13.355 
11 *490:61 *1964:A1 5.155 
*END

*D_NET *491 0.00918986
*CONN
*I *2089:A I *D sky130_fd_sc_hd__clkbuf_2
*I *2088:A I *D sky130_fd_sc_hd__buf_2
*I *2093:X O *D sky130_fd_sc_hd__buf_1
*CAP
1 *2089:A 0.000979303
2 *2088:A 0.000400513
3 *2093:X 0.00148748
4 *491:26 0.0028673
5 *2088:A *1825:A1 5.02217e-05
6 *2088:A *524:64 0
7 *2088:A *524:78 0
8 *2088:A *529:63 5.154e-05
9 *2088:A *554:75 8.97642e-05
10 *2088:A *554:88 3.13459e-05
11 *2089:A *1586:A 1.19928e-05
12 *2089:A *1815:B 0.000237243
13 *2089:A *530:66 7.84507e-05
14 *491:26 *1586:A 2.74726e-05
15 *491:26 *2113:A 0
16 *491:26 *2114:A 8.40213e-05
17 *491:26 *2117:A 1.83847e-05
18 *491:26 *511:66 4.41506e-05
19 *491:26 *511:70 3.54646e-05
20 op_out[1] *491:26 0.000133268
21 op_out[3] *491:26 1.98869e-05
22 op_out[4] *491:26 1.7386e-05
23 *1811:A *2088:A 0.000139245
24 *1811:B *2088:A 0.000140912
25 *1812:A1 *2088:A 0.000440169
26 *1812:A1 *491:26 0.000111459
27 *1813:C *2089:A 4.66108e-05
28 *1815:A *2089:A 0.000346441
29 *1827:A *491:26 3.87581e-05
30 *1827:C *2088:A 0.000194331
31 *1827:C *491:26 8.78266e-05
32 *1845:A *2088:A 4.99619e-05
33 *183:12 *2088:A 0
34 *186:8 *2088:A 3.0313e-05
35 *189:14 *2089:A 6.57653e-06
36 *192:24 *2088:A 7.9642e-06
37 *192:24 *491:26 9.67081e-06
38 *199:18 *2088:A 0
39 *205:14 *491:26 2.23407e-05
40 *230:6 *2089:A 4.41506e-05
41 *230:13 *2089:A 0.000223887
42 *326:18 *491:26 0.000577741
43 *489:41 *2089:A 6.3124e-06
*RES
1 *2093:X *491:26 28.465 
2 *491:26 *2088:A 14.865 
3 *491:26 *2089:A 22.705 
*END

*D_NET *492 0.0170853
*CONN
*I *2014:A I *D sky130_fd_sc_hd__xnor2_1
*I *2010:A1 I *D sky130_fd_sc_hd__a211o_1
*I *2046:A1 I *D sky130_fd_sc_hd__a21oi_1
*I *2048:A1 I *D sky130_fd_sc_hd__a32o_1
*I *1599:B1 I *D sky130_fd_sc_hd__o41ai_4
*I *2033:B I *D sky130_fd_sc_hd__nand2_1
*I *1589:A I *D sky130_fd_sc_hd__inv_2
*I *1809:C I *D sky130_fd_sc_hd__or4_1
*I *2047:A1 I *D sky130_fd_sc_hd__o22a_1
*I *2094:X O *D sky130_fd_sc_hd__clkbuf_4
*CAP
1 *2014:A 0
2 *2010:A1 1.24312e-05
3 *2046:A1 0
4 *2048:A1 0
5 *1599:B1 5.15992e-05
6 *2033:B 0
7 *1589:A 1.65033e-05
8 *1809:C 0.000547161
9 *2047:A1 4.09715e-05
10 *2094:X 0.000173211
11 *492:87 0.00220079
12 *492:67 0.00262485
13 *492:56 0.000592758
14 *492:50 0.000332691
15 *492:35 0.000757915
16 *492:33 0.000277059
17 *492:20 0.000578673
18 *492:14 0.000684297
19 *492:12 0.000502575
20 *1589:A *550:67 4.66108e-05
21 *1599:B1 *547:82 0.000123225
22 *1809:C *1818:A1 1.8731e-05
23 *1809:C *1818:A2 6.8725e-06
24 *1809:C *518:82 4.82863e-05
25 *1809:C *518:105 0.00033961
26 *1809:C *529:51 1.16578e-05
27 *492:12 *2118:A 0
28 *492:12 *511:10 0.000111884
29 *492:12 *511:12 1.01911e-05
30 *492:12 *511:45 9.30787e-05
31 *492:14 *1815:B 0.000100544
32 *492:14 *2118:A 0
33 *492:14 *511:12 8.1783e-05
34 *492:14 *553:10 0
35 *492:20 *2009:A2 0
36 *492:20 *2072:A 6.63219e-06
37 *492:20 *535:22 0
38 *492:20 *535:65 0
39 *492:50 *532:16 0.000181376
40 *492:50 *532:18 0.000143578
41 *492:56 *532:18 8.7152e-06
42 *492:56 *532:24 0.000135533
43 *492:56 *550:67 7.14699e-05
44 *492:56 *550:95 0.00015639
45 *492:67 *528:22 0.00017922
46 *492:67 *528:34 5.02905e-05
47 *492:67 *538:28 0.000150921
48 *492:67 *550:54 7.34442e-05
49 *492:67 *550:65 0.00012362
50 *492:87 *1853:A1 8.77642e-05
51 *492:87 *1855:B 0
52 *492:87 *1986:A 0
53 *492:87 *1988:A 0
54 *492:87 *1989:A1 0.000422379
55 *492:87 *1989:B1 0.000183738
56 *492:87 *1989:B2 5.83121e-06
57 *492:87 *2023:A1 0
58 *492:87 *2025:A1 0
59 *492:87 *2033:A 1.84324e-05
60 *492:87 *517:58 9.0808e-05
61 *492:87 *517:62 9.70786e-05
62 *492:87 *521:89 0
63 *492:87 *538:28 1.7396e-05
64 *492:87 *540:33 0
65 *492:87 *549:92 0.000214006
66 *492:87 *549:107 0.000171308
67 *492:87 *550:43 6.10014e-05
68 *492:87 *550:54 1.07797e-05
69 *492:87 *551:89 9.30787e-05
70 *492:87 *552:56 0
71 *492:87 *554:23 2.50049e-05
72 *492:87 *554:58 0
73 *492:87 *554:75 0
74 *1818:B1 *1809:C 0.00010639
75 *1835:B1 *492:67 0.000127691
76 *1835:B2 *492:67 3.96153e-05
77 *1836:A2 *492:67 0.000198973
78 *1845:A *492:67 0.000134509
79 *1865:B1 *492:67 4.01607e-05
80 *1907:C *492:87 0
81 *1908:A2 *492:87 0.000120186
82 *1956:A2 *1589:A 2.49909e-05
83 *1956:A2 *2047:A1 6.28687e-05
84 *1956:A2 *492:20 0.000138188
85 *1956:A2 *492:56 0.000296292
86 *1990:B *492:87 9.37731e-05
87 *2008:B1 *2010:A1 2.75145e-05
88 *2009:A3 *2010:A1 4.82863e-05
89 *2027:D *492:87 0
90 *2028:A1 *492:87 0.000184703
91 *2028:A2 *492:87 0.000159964
92 *2031:A1 *492:87 2.59835e-05
93 *2031:B1_N *492:87 5.33085e-05
94 *2034:A *492:87 0
95 *190:54 *1809:C 0.000120655
96 *190:54 *492:33 8.23457e-05
97 *190:54 *492:35 0.000120655
98 *190:61 *492:33 0.000181249
99 *196:8 *492:14 0
100 *197:16 *2010:A1 1.16578e-05
101 *197:22 *492:20 0.000161373
102 *197:28 *2047:A1 0.000116151
103 *197:28 *492:20 0.000236687
104 *197:46 *492:67 0.000164631
105 *199:51 *492:67 1.15688e-05
106 *205:26 *492:50 0.000106655
107 *205:28 *492:50 0.000154569
108 *205:47 *492:50 3.08152e-05
109 *205:47 *492:56 7.19946e-05
110 *227:12 *492:87 6.74079e-05
111 *326:78 *492:56 0.000171625
112 *409:8 *492:87 9.47454e-05
113 *410:8 *492:87 0.000131401
*RES
1 *2094:X *492:12 6.81 
2 *492:12 *492:14 5.97 
3 *492:14 *492:20 7.545 
4 *492:20 *2047:A1 4.98 
5 *492:20 *492:33 4.52 
6 *492:33 *492:35 1.14 
7 *492:35 *1809:C 10.015 
8 *492:35 *492:50 5.93 
9 *492:50 *492:56 8.57 
10 *492:56 *1589:A 2.05 
11 *492:56 *492:67 12.56 
12 *492:67 *492:87 49.08 
13 *492:87 *2033:B 1.6 
14 *492:67 *1599:B1 4.74 
15 *492:50 *2048:A1 3.6 
16 *492:33 *2046:A1 1.6 
17 *492:14 *2010:A1 4.05 
18 *492:12 *2014:A 3.6 
*END

*D_NET *493 0.0159638
*CONN
*I *1825:A1 I *D sky130_fd_sc_hd__a32o_1
*I *1838:A I *D sky130_fd_sc_hd__nand2_1
*I *1846:A1 I *D sky130_fd_sc_hd__o21a_1
*I *2087:A I *D sky130_fd_sc_hd__buf_4
*I *2095:X O *D sky130_fd_sc_hd__clkbuf_2
*CAP
1 *1825:A1 0.00119182
2 *1838:A 8.89373e-05
3 *1846:A1 2.51931e-05
4 *2087:A 0
5 *2095:X 0.00117021
6 *493:34 0.00153411
7 *493:23 0.0014315
8 *493:10 0.00232316
9 *1825:A1 *1825:A2 4.99619e-05
10 *1825:A1 *526:94 0.000306948
11 *1825:A1 *529:63 0.000906029
12 *1825:A1 *544:34 3.90697e-05
13 *1838:A *1795:A2 0
14 *1838:A *526:98 6.71882e-05
15 *1846:A1 *1596:B 4.66108e-05
16 *493:10 *1664:A 5.51245e-05
17 *493:10 *2082:A 0
18 *493:10 *546:10 0
19 *493:10 *546:73 0
20 *493:10 *551:25 0
21 *493:23 *1590:A 0
22 *493:23 *1613:B 0
23 *493:23 *544:34 0.00039474
24 *493:23 *551:6 7.10578e-05
25 *493:23 *551:25 0.000163175
26 *493:23 *551:107 0.000524474
27 *493:23 *551:120 0.000736479
28 *493:34 *543:104 1.44259e-05
29 *493:34 *544:34 1.40616e-05
30 *1660:A1 *493:23 0.000287323
31 *1664:B *493:10 0
32 *1825:A3 *1825:A1 8.65961e-05
33 *1826:B1 *1825:A1 0.00012657
34 *1838:B *493:34 0.000162332
35 *1839:B *1838:A 1.08758e-05
36 *1846:B1 *493:34 0.00015829
37 *1868:B1 *493:34 0
38 *1924:A2 *493:23 0
39 *1925:A1 *1825:A1 0.000118081
40 *2088:A *1825:A1 5.02217e-05
41 *35:10 *493:23 0.000464493
42 *191:24 *493:34 0.000405104
43 *199:18 *1825:A1 0.00016063
44 *219:10 *493:23 9.54399e-05
45 *219:25 *493:23 0.000891027
46 *219:25 *493:34 0.000139933
47 *221:12 *1825:A1 4.34414e-05
48 *221:12 *493:34 0.000207311
49 *446:10 *493:23 0.0013426
50 *480:12 *493:10 5.92849e-05
*RES
1 *2095:X *493:10 25.34 
2 *493:10 *2087:A 1.6 
3 *493:10 *493:23 41.135 
4 *493:23 *1846:A1 4.05 
5 *493:23 *493:34 8.775 
6 *493:34 *1838:A 5.1 
7 *493:34 *1825:A1 30.445 
*END

*D_NET *494 0.0102241
*CONN
*I *2085:A I *D sky130_fd_sc_hd__buf_2
*I *2084:A I *D sky130_fd_sc_hd__buf_2
*I *2096:X O *D sky130_fd_sc_hd__buf_1
*CAP
1 *2085:A 0.000366771
2 *2084:A 0.00247267
3 *2096:X 0.000658995
4 *494:14 0.00349843
5 *2084:A *1647:A 0.000113983
6 *2084:A *2057:A 0.000915207
7 *2084:A *515:88 0.000421878
8 *2084:A *518:54 0.000160698
9 *2084:A *552:12 0.000194421
10 *2085:A *1647:A 0
11 *2085:A *1987:B 3.9352e-05
12 *494:14 *1647:A 0.000196997
13 *494:14 *2057:A 0.000387079
14 *1647:B *494:14 0.000217716
15 *1896:A2 *2084:A 0.000109539
16 *1924:A2 *2084:A 7.58495e-05
17 *241:16 *2084:A 0.000120586
18 *294:43 *2084:A 0.000161687
19 *475:83 *2084:A 0.000112211
*RES
1 *2096:X *494:14 16.6175 
2 *494:14 *2084:A 12.5595 
3 *494:14 *2085:A 6.3773 
*END

*D_NET *495 0.00331011
*CONN
*I *2082:A I *D sky130_fd_sc_hd__buf_2
*I *2097:X O *D sky130_fd_sc_hd__clkbuf_1
*CAP
1 *2082:A 0.00161557
2 *2097:X 0.00161557
3 *2082:A *546:10 5.21046e-05
4 *2082:A *546:73 2.68721e-05
5 *1696:A *2082:A 0
6 *493:10 *2082:A 0
*RES
1 *2097:X *2082:A 30.21 
*END

*D_NET *496 0.000381531
*CONN
*I *2079:A I *D sky130_fd_sc_hd__clkbuf_4
*I *2098:X O *D sky130_fd_sc_hd__clkbuf_1
*CAP
1 *2079:A 0.000162934
2 *2098:X 0.000162934
3 *2079:A *1748:A 5.56629e-05
4 *1749:C *2079:A 0
*RES
1 *2098:X *2079:A 9.63 
*END

*D_NET *497 0.021158
*CONN
*I *2075:A I *D sky130_fd_sc_hd__buf_6
*I *1956:A1 I *D sky130_fd_sc_hd__o21a_1
*I *1920:A2 I *D sky130_fd_sc_hd__o22a_1
*I *2052:A I *D sky130_fd_sc_hd__clkbuf_1
*I *1922:A2 I *D sky130_fd_sc_hd__a32o_1
*I *2076:A I *D sky130_fd_sc_hd__buf_2
*I *2099:X O *D sky130_fd_sc_hd__buf_6
*CAP
1 *2075:A 0.000177847
2 *1956:A1 0.000173928
3 *1920:A2 0.000245173
4 *2052:A 0.000715236
5 *1922:A2 0.000194189
6 *2076:A 0.000254679
7 *2099:X 0
8 *497:56 0.0010924
9 *497:52 0.00128983
10 *497:44 0.00135738
11 *497:29 0.00279908
12 *497:4 0.00266394
13 *1920:A2 *1921:A 0
14 *1920:A2 *534:153 8.25609e-05
15 *1922:A2 *518:54 8.7152e-06
16 *1922:A2 *518:67 0.000589665
17 *1922:A2 *519:105 0.000217497
18 *1956:A1 *2049:A1 2.23485e-05
19 *1956:A1 *2118:A 4.24292e-06
20 *1956:A1 *537:42 0
21 *2052:A *524:25 2.23485e-05
22 *2052:A *524:52 8.90551e-05
23 *2052:A *535:22 0.000214175
24 *2052:A *537:69 9.41342e-05
25 *2052:A *540:97 0.000317278
26 *2052:A *563:8 1.61831e-05
27 *2075:A *1872:A 0
28 *2075:A *1899:A 7.3664e-05
29 *2075:A *1955:A1 0.000203769
30 *2075:A *538:12 0
31 *2076:A *2073:A 1.1561e-05
32 *2076:A *534:27 7.01129e-06
33 *2076:A *539:12 4.82863e-05
34 *497:29 *1772:S 8.40213e-05
35 *497:29 *1787:A2 0.000169786
36 *497:29 *510:85 0.000350486
37 *497:29 *516:112 5.55384e-05
38 *497:29 *531:25 1.08856e-05
39 *497:29 *552:10 9.96647e-05
40 *497:44 *552:10 0.000105138
41 *497:52 *1872:A 0
42 *497:52 *1899:A 4.20983e-05
43 *497:52 *2047:A2 0.000378513
44 *497:52 *2049:A1 0.000714671
45 *497:52 *537:52 8.49205e-05
46 *497:52 *552:10 0.000499357
47 *497:52 *552:110 0.000308708
48 *497:56 *1895:A1 3.68769e-05
49 *497:56 *1921:A 0
50 *497:56 *2118:A 8.08153e-06
51 *497:56 *518:105 3.99339e-05
52 *497:56 *537:52 5.95508e-05
53 *497:56 *537:69 6.55406e-05
54 *1723:A *497:29 0.000118081
55 *1749:C *2076:A 0.000360604
56 *1767:A *2076:A 0.000156155
57 *1767:B *2076:A 0.000521475
58 *1771:A *497:29 0.000153482
59 *1771:B *497:29 4.66108e-05
60 *1787:A1 *497:29 4.89295e-05
61 *1787:B1 *497:29 0.000140912
62 *1845:A *497:52 0.000796407
63 *1861:B *2052:A 6.12936e-05
64 *1863:B *2052:A 4.66108e-05
65 *1864:B2 *2052:A 0.000239147
66 *1892:B1 *2052:A 7.7542e-05
67 *1919:B1 *1956:A1 0.000179015
68 *1919:B1 *497:56 0.000157595
69 *1920:B2 *1920:A2 4.82863e-05
70 *1921:B *1920:A2 0.000235568
71 *1923:A3 *1920:A2 8.69182e-05
72 *1923:B1 *1920:A2 9.14049e-05
73 *1955:B1 *2075:A 5.16418e-05
74 *1965:A1 *497:52 2.79064e-05
75 *1967:B1 *1920:A2 0.000234674
76 *1967:B1 *497:56 0
77 *1967:B2 *1920:A2 2.75145e-05
78 *1967:C1 *1920:A2 1.22676e-05
79 *2009:B2 *1956:A1 0.000312083
80 *2049:B1 *497:52 2.67184e-05
81 *2049:C1 *497:52 2.49909e-05
82 *2100:A *2076:A 0.000128991
83 *147:10 *497:29 4.99619e-05
84 *197:63 *1922:A2 3.85204e-05
85 *197:67 *1922:A2 2.98807e-05
86 *199:95 *1920:A2 7.49327e-05
87 *199:95 *2052:A 0.000198945
88 *234:12 *2052:A 5.16418e-05
89 *234:16 *2052:A 4.66108e-05
90 *283:93 *497:29 0.000121027
91 *471:71 *497:29 1.7635e-05
92 *490:48 *497:52 1.60203e-05
*RES
1 *2099:X *497:4 1.6 
2 *497:4 *2076:A 14.06 
3 *497:4 *497:29 39.835 
4 *497:29 *1922:A2 12.59 
5 *497:29 *497:44 5.21 
6 *497:44 *497:52 26.365 
7 *497:52 *497:56 5.42 
8 *497:56 *2052:A 22.22 
9 *497:56 *1920:A2 12.185 
10 *497:52 *1956:A1 8.04 
11 *497:44 *2075:A 7.53 
*END

*D_NET *498 0.0168742
*CONN
*I *2074:A I *D sky130_fd_sc_hd__buf_2
*I *2051:A I *D sky130_fd_sc_hd__clkbuf_1
*I *2073:A I *D sky130_fd_sc_hd__buf_6
*I *2100:X O *D sky130_fd_sc_hd__clkbuf_2
*CAP
1 *2074:A 0.00274366
2 *2051:A 0.000909736
3 *2073:A 0.000156634
4 *2100:X 0
5 *498:23 0.00487626
6 *498:4 0.0013795
7 *2051:A *2072:A 7.35406e-05
8 *2051:A *536:16 0
9 *2073:A *499:8 2.75145e-05
10 *2073:A *534:27 0.000250623
11 *2074:A *1824:B_N 0
12 *2074:A *2072:A 0.00465472
13 *2074:A *530:43 0
14 *2074:A *537:12 2.00134e-05
15 *498:23 *1773:A 7.57202e-05
16 *498:23 *536:16 0
17 *498:23 *539:12 0.00037595
18 *498:23 *565:73 0.000127921
19 *1787:A1 *2051:A 1.79483e-05
20 *1787:B1 *2051:A 0
21 *1789:A_N *2051:A 1.62622e-05
22 *1789:A_N *498:23 7.53964e-05
23 *1798:B1 *2051:A 0.000113373
24 *1805:C *498:23 7.06865e-05
25 *1805:D *498:23 0.000249921
26 *2076:A *2073:A 1.1561e-05
27 *2100:A *2073:A 3.25831e-05
28 *136:18 *2051:A 0.000381784
29 *136:18 *498:23 2.54523e-05
30 *161:8 *2051:A 0.000167816
31 *338:8 *2074:A 3.96153e-05
32 *471:71 *2051:A 0
*RES
1 *2100:X *498:4 1.6 
2 *498:4 *2073:A 8.96 
3 *498:4 *498:23 18.1625 
4 *498:23 *2051:A 15.6473 
5 *498:23 *2074:A 12.8167 
*END

*D_NET *499 0.0149689
*CONN
*I *2072:A I *D sky130_fd_sc_hd__clkbuf_2
*I *2071:A I *D sky130_fd_sc_hd__buf_4
*I *2101:X O *D sky130_fd_sc_hd__buf_1
*CAP
1 *2072:A 0.00391625
2 *2071:A 9.37437e-05
3 *2101:X 0.000459748
4 *499:8 0.00446974
5 *2072:A *535:22 1.92979e-05
6 *2072:A *536:16 0
7 *2072:A *539:16 0.000129728
8 *2072:A *539:18 0.000216595
9 *1765:C *2071:A 4.82863e-05
10 *1768:A0 *2072:A 0.000229904
11 *1769:B *2072:A 6.02202e-05
12 *1775:C *2072:A 0.000140912
13 *1800:A *2071:A 4.82863e-05
14 *2011:A2 *2072:A 0.000157111
15 *2051:A *2072:A 7.35406e-05
16 *2073:A *499:8 2.75145e-05
17 *2074:A *2072:A 0.00465472
18 *117:27 *2072:A 1.88904e-05
19 *135:18 *2071:A 3.18219e-05
20 *135:18 *2072:A 0
21 *144:12 *2072:A 0.000162332
22 *145:16 *499:8 3.64998e-06
23 *149:10 *2072:A 0
24 *492:20 *2072:A 6.63219e-06
*RES
1 *2101:X *499:8 8.535 
2 *499:8 *2071:A 5.43 
3 *499:8 *2072:A 21.4065 
*END

*D_NET *500 0.00535896
*CONN
*I *1831:D I *D sky130_fd_sc_hd__and4bb_2
*I *1813:B I *D sky130_fd_sc_hd__and4b_2
*I *1814:B I *D sky130_fd_sc_hd__nand2_2
*I *1816:D_N I *D sky130_fd_sc_hd__or4b_4
*I *1594:B I *D sky130_fd_sc_hd__nor2_1
*I *1822:A_N I *D sky130_fd_sc_hd__and4b_2
*I *1824:A_N I *D sky130_fd_sc_hd__and4bb_2
*I *2102:X O *D sky130_fd_sc_hd__dlymetal6s2s_1
*CAP
1 *1831:D 0
2 *1813:B 0.000119527
3 *1814:B 0
4 *1816:D_N 7.83566e-05
5 *1594:B 0.000124237
6 *1822:A_N 0
7 *1824:A_N 0.000136669
8 *2102:X 0.000271912
9 *500:48 0.000259701
10 *500:46 0.000133935
11 *500:35 0.000373654
12 *500:25 0.000277454
13 *500:10 0.000508734
14 *1594:B *1586:A 1.74476e-05
15 *1594:B *511:51 4.71168e-05
16 *1813:B *530:19 1.80792e-05
17 *1816:D_N *1816:C 6.52265e-05
18 *1816:D_N *2114:A 3.00381e-05
19 *1816:D_N *511:66 8.65905e-05
20 *1824:A_N *524:78 4.82863e-05
21 *500:10 *2113:A 0.00015829
22 *500:25 *2114:A 3.63661e-05
23 *500:35 *1831:B_N 0.000102971
24 *500:48 *1816:C 8.34281e-06
25 op_out[1] *1816:D_N 2.8185e-05
26 *1594:A *1594:B 4.82919e-05
27 *1812:A2 *500:35 4.66108e-05
28 *1812:B1 *1813:B 4.41506e-05
29 *1812:B1 *500:35 3.70746e-05
30 *1812:D1 *1594:B 5.06809e-05
31 *1812:D1 *500:35 5.30673e-05
32 *1812:D1 *500:46 2.0458e-05
33 *1814:A *1816:D_N 0
34 *1815:A *1813:B 4.82919e-05
35 *1816:A *500:10 0
36 *1831:A_N *500:25 0.000158965
37 *1845:A *1824:A_N 0.000112097
38 *1845:A *500:10 1.52184e-05
39 *1845:A *500:25 8.49205e-05
40 *2091:A *1594:B 6.53932e-05
41 *189:10 *500:46 8.10803e-05
42 *189:14 *1813:B 0.000178054
43 *189:14 *500:46 7.47284e-05
44 *191:8 *500:10 0
45 *191:72 *1813:B 3.96653e-05
46 *191:72 *500:25 3.65279e-05
47 *191:72 *500:35 0.000435544
48 *192:24 *500:46 0.000134528
49 *192:24 *500:48 2.49909e-05
50 *205:14 *500:25 0.0001947
51 *205:14 *500:35 1.46828e-05
52 *230:19 *1813:B 0.000158297
53 *315:8 *1594:B 8.5242e-05
54 *315:23 *500:48 4.80285e-05
55 *326:18 *500:10 8.65905e-05
56 *489:21 *1594:B 0
57 *489:35 *1813:B 4.99619e-05
*RES
1 *2102:X *500:10 8.325 
2 *500:10 *1824:A_N 6.45 
3 *500:10 *500:25 5.21 
4 *500:25 *500:35 5.43 
5 *500:35 *1822:A_N 1.6 
6 *500:35 *500:46 6.145 
7 *500:46 *500:48 1.14 
8 *500:48 *1594:B 8.45 
9 *500:48 *1816:D_N 3.79 
10 *500:46 *1814:B 1.6 
11 *500:35 *1813:B 9.245 
12 *500:25 *1831:D 1.6 
*END

*D_NET *501 0.010575
*CONN
*I *2069:A I *D sky130_fd_sc_hd__buf_6
*I *2070:A I *D sky130_fd_sc_hd__clkbuf_2
*I *2103:X O *D sky130_fd_sc_hd__buf_1
*CAP
1 *2069:A 0.00072514
2 *2070:A 0.00212676
3 *2103:X 0.000123494
4 *501:8 0.00297539
5 *2069:A *1841:A 0.000562829
6 *2070:A *1824:B_N 0
7 *2070:A *1841:A 4.10051e-05
8 *2070:A *2118:A 1.83182e-05
9 *2070:A *530:43 0
10 *2070:A *534:139 0.00341383
11 *501:8 *1841:A 1.93416e-05
12 *1806:A2 *2069:A 0.000100698
13 *1806:B1 *2069:A 7.68786e-05
14 *1827:B *2069:A 0.000198108
15 *1844:A1 *501:8 0
16 *1868:A2 *2070:A 1.89738e-05
17 *1868:A2 *501:8 1.39525e-05
18 *136:18 *2069:A 1.56428e-05
19 *192:24 *2070:A 7.71944e-05
20 *215:10 *2069:A 4.82919e-05
21 *326:18 *2069:A 1.91597e-05
*RES
1 *2103:X *501:8 5.49 
2 *501:8 *2070:A 10.857 
3 *501:8 *2069:A 17.55 
*END

*D_NET *502 0.00104431
*CONN
*I *2113:A I *D sky130_fd_sc_hd__buf_8
*I *1827:X O *D sky130_fd_sc_hd__or3_4
*CAP
1 *2113:A 0.000247263
2 *1827:X 0.000247263
3 *2113:A *511:70 0
4 op_out[0] *2113:A 0.000155817
5 op_out[1] *2113:A 0
6 *1827:A *2113:A 6.77417e-05
7 *1827:B *2113:A 9.91257e-05
8 *1827:C *2113:A 4.82919e-05
9 *2102:A *2113:A 0
10 *326:18 *2113:A 2.0514e-05
11 *491:26 *2113:A 0
12 *500:10 *2113:A 0.00015829
*RES
1 *1827:X *2113:A 13.005 
*END

*D_NET *503 0.00145096
*CONN
*I *2114:A I *D sky130_fd_sc_hd__buf_2
*I *1845:X O *D sky130_fd_sc_hd__or2_1
*CAP
1 *2114:A 0.000306082
2 *1845:X 0.000306082
3 *2114:A *1824:C 8.53113e-06
4 *2114:A *511:66 1.96189e-05
5 *2114:A *511:70 7.91552e-05
6 op_out[1] *2114:A 0.000122331
7 *1816:A *2114:A 8.76863e-05
8 *1816:D_N *2114:A 3.00381e-05
9 *1827:A *2114:A 0.000118081
10 *1827:C *2114:A 8.23457e-05
11 *1845:A *2114:A 4.82863e-05
12 *205:14 *2114:A 0.000122337
13 *491:26 *2114:A 8.40213e-05
14 *500:25 *2114:A 3.63661e-05
*RES
1 *1845:X *2114:A 13.38 
*END

*D_NET *504 0.000420566
*CONN
*I *2115:A I *D sky130_fd_sc_hd__buf_2
*I *1868:X O *D sky130_fd_sc_hd__a21o_1
*CAP
1 *2115:A 0.000139026
2 *1868:X 0.000139026
3 *2115:A *2117:A 5.42473e-05
4 *1827:B *2115:A 8.8266e-05
5 *2093:A *2115:A 0
*RES
1 *1868:X *2115:A 9.63 
*END

*D_NET *505 0.000620205
*CONN
*I *2116:A I *D sky130_fd_sc_hd__buf_2
*I *1897:Y O *D sky130_fd_sc_hd__nand2b_1
*CAP
1 *2116:A 0.000146066
2 *1897:Y 0.000146066
3 *2116:A *2117:A 0
4 *1827:B *2116:A 0.000163199
5 *2102:A *2116:A 0
6 *326:18 *2116:A 0.000164874
*RES
1 *1897:Y *2116:A 10.575 
*END

*D_NET *506 0.00214338
*CONN
*I *2117:A I *D sky130_fd_sc_hd__buf_4
*I *1925:Y O *D sky130_fd_sc_hd__o31ai_1
*CAP
1 *2117:A 0.000529578
2 *1925:Y 0.000529578
3 *1850:A *2117:A 5.14836e-05
4 *1874:B *2117:A 0.000114492
5 *1875:B1 *2117:A 7.00144e-05
6 *1897:A_N *2117:A 0.000663977
7 *1897:B *2117:A 0.00011163
8 *1925:A1 *2117:A 0
9 *2115:A *2117:A 5.42473e-05
10 *2116:A *2117:A 0
11 *248:12 *2117:A 0
12 *491:26 *2117:A 1.83847e-05
*RES
1 *1925:Y *2117:A 19.485 
*END

*D_NET *507 0.0031866
*CONN
*I *2118:A I *D sky130_fd_sc_hd__clkbuf_4
*I *1969:X O *D sky130_fd_sc_hd__or3_1
*CAP
1 *2118:A 0.000976548
2 *1969:X 0.000976548
3 *2118:A *1919:A2 1.7635e-05
4 *2118:A *2049:A1 0.000483262
5 *2118:A *535:22 0
6 *2118:A *537:52 7.23602e-05
7 *2118:A *553:10 0.000136877
8 *2118:A *553:16 0.000240095
9 *1956:A1 *2118:A 4.24292e-06
10 *1956:B1 *2118:A 0
11 *1969:B *2118:A 8.40269e-05
12 *1971:B *2118:A 0
13 *2009:B2 *2118:A 0.000108262
14 *2016:B *2118:A 0
15 *2070:A *2118:A 1.83182e-05
16 *191:76 *2118:A 0
17 *352:10 *2118:A 0
18 *490:48 *2118:A 6.03399e-05
19 *492:12 *2118:A 0
20 *492:14 *2118:A 0
21 *497:56 *2118:A 8.08153e-06
*RES
1 *1969:X *2118:A 25.95 
*END

*D_NET *508 0.000566072
*CONN
*I *2119:A I *D sky130_fd_sc_hd__clkbuf_4
*I *2012:X O *D sky130_fd_sc_hd__a31o_1
*CAP
1 *2119:A 0.000208936
2 *2012:X 0.000208936
3 op_out[6] *2119:A 0
4 op_out[7] *2119:A 3.89528e-05
5 *2012:B1 *2119:A 0
6 *2050:A2 *2119:A 0.000109247
*RES
1 *2012:X *2119:A 10.815 
*END

*D_NET *509 0.00014393
*CONN
*I *2120:A I *D sky130_fd_sc_hd__buf_2
*I *2050:X O *D sky130_fd_sc_hd__a311o_1
*CAP
1 *2120:A 6.26815e-05
2 *2050:X 6.26815e-05
3 *2050:A3 *2120:A 1.85674e-05
*RES
1 *2050:X *2120:A 4.265 
*END

*D_NET *510 0.0159007
*CONN
*I *1781:A2 I *D sky130_fd_sc_hd__o211a_1
*I *1787:A2 I *D sky130_fd_sc_hd__o211a_1
*I *1768:S I *D sky130_fd_sc_hd__mux2_1
*I *1844:A2 I *D sky130_fd_sc_hd__a22o_1
*I *1792:S I *D sky130_fd_sc_hd__mux2_2
*I *1772:S I *D sky130_fd_sc_hd__mux2_1
*I *1760:A1 I *D sky130_fd_sc_hd__a31o_1
*I *1756:B I *D sky130_fd_sc_hd__nor2_1
*I *1780:A2 I *D sky130_fd_sc_hd__o211a_1
*I *1761:C I *D sky130_fd_sc_hd__or3_1
*I *2053:X O *D sky130_fd_sc_hd__buf_6
*CAP
1 *1781:A2 0
2 *1787:A2 0.000196435
3 *1768:S 0.000237004
4 *1844:A2 0.000236586
5 *1792:S 0.000124491
6 *1772:S 2.01995e-05
7 *1760:A1 5.45731e-05
8 *1756:B 0.000149226
9 *1780:A2 0
10 *1761:C 0.000217085
11 *2053:X 0.000154268
12 *510:95 0.000948058
13 *510:89 0.0010298
14 *510:85 0.000483397
15 *510:76 0.000540194
16 *510:52 0.000322579
17 *510:50 0.00123999
18 *510:39 0.00083248
19 *510:20 0.000652493
20 *510:12 0.000439561
21 *1756:B *1737:A 3.00381e-05
22 *1756:B *534:27 0
23 *1761:C *512:36 4.01778e-05
24 *1761:C *531:72 0.000193345
25 *1761:C *542:63 0.000135312
26 *1768:S *1774:A 8.65961e-05
27 *1768:S *536:16 0.000421961
28 *1768:S *565:73 7.07801e-05
29 *1792:S *1793:B 9.66927e-05
30 *1792:S *526:111 3.09164e-05
31 *510:12 *2080:A 0
32 *510:39 *531:70 2.00134e-05
33 *510:39 *531:72 6.71803e-06
34 *510:76 *539:22 0.000722978
35 *510:76 *565:12 0
36 *510:76 *565:73 0
37 *510:89 *531:25 0
38 *510:89 *565:73 0.000214089
39 *1733:A *510:12 3.00381e-05
40 *1733:A *510:39 0
41 *1733:A *510:50 0
42 *1733:B *510:20 2.68831e-05
43 *1737:B *1756:B 4.82863e-05
44 *1751:A *510:52 0
45 *1751:B *510:52 0
46 *1751:B *510:76 0
47 *1760:B1 *1756:B 0.00016506
48 *1761:A *1761:C 8.49205e-05
49 *1771:A *1772:S 8.40213e-05
50 *1771:A *510:76 0
51 *1771:A *510:85 0.000227261
52 *1777:B *510:12 0.000172288
53 *1777:B *510:20 1.88656e-05
54 *1778:B2 *510:39 7.0263e-06
55 *1779:A1 *510:50 0
56 *1780:A1 *1761:C 0.000103977
57 *1780:A1 *510:39 0.000305632
58 *1780:B1 *510:39 3.26889e-05
59 *1780:B1 *510:50 1.19928e-05
60 *1788:B *510:39 3.23391e-05
61 *1796:B1 *1792:S 8.33595e-05
62 *1796:B1 *510:95 0.000656919
63 *1798:A1 *510:95 8.09157e-05
64 *1798:C1 *510:95 0.000193806
65 *1799:B2 *510:95 0.000123955
66 *1804:D1 *510:95 0.000315527
67 *1805:D *510:95 0.00043044
68 *1839:A *1844:A2 0
69 *1839:B *1844:A2 0
70 *1840:B *1844:A2 5.21627e-05
71 *1842:A *1844:A2 0.000239036
72 *1844:A1 *1844:A2 9.50342e-06
73 *1844:B2 *1844:A2 0
74 *2053:A *510:39 2.49909e-05
75 *105:10 *510:12 0
76 *117:10 *1756:B 0.000205376
77 *117:23 *1756:B 1.1561e-05
78 *117:23 *510:52 0.000125541
79 *117:23 *510:76 7.44375e-05
80 *118:8 *1760:A1 7.35729e-05
81 *118:12 *1756:B 0
82 *118:12 *510:52 0
83 *126:6 *510:50 0.0001049
84 *126:15 *510:50 0.000452848
85 *126:26 *510:50 0.000196669
86 *130:8 *510:39 6.33103e-05
87 *130:8 *510:50 2.19562e-06
88 *130:14 *510:39 5.23362e-05
89 *178:17 *1844:A2 0.000250609
90 *178:17 *510:95 7.49327e-05
91 *283:93 *1787:A2 9.81472e-05
92 *497:29 *1772:S 8.40213e-05
93 *497:29 *1787:A2 0.000169786
94 *497:29 *510:85 0.000350486
*RES
1 *2053:X *510:12 6.645 
2 *510:12 *510:20 1.73663 
3 *510:20 *1761:C 9.4875 
4 *510:20 *510:39 6.1175 
5 *510:39 *1780:A2 1.6 
6 *510:39 *510:50 11 
7 *510:50 *510:52 2.655 
8 *510:52 *1756:B 8.49 
9 *510:52 *1760:A1 4.74 
10 *510:50 *510:76 11.795 
11 *510:76 *1772:S 2.395 
12 *510:76 *510:85 3.21 
13 *510:85 *510:89 6.44 
14 *510:89 *510:95 18.595 
15 *510:95 *1792:S 6.255 
16 *510:95 *1844:A2 9.57 
17 *510:89 *1768:S 9.135 
18 *510:85 *1787:A2 5.545 
19 *510:12 *1781:A2 3.6 
*END

*D_NET *511 0.00814855
*CONN
*I *1595:C I *D sky130_fd_sc_hd__and3b_2
*I *1816:B I *D sky130_fd_sc_hd__or4b_4
*I *1831:C I *D sky130_fd_sc_hd__and4bb_2
*I *1824:C I *D sky130_fd_sc_hd__and4bb_2
*I *1586:A I *D sky130_fd_sc_hd__inv_2
*I *1817:A I *D sky130_fd_sc_hd__or4b_4
*I *1821:A I *D sky130_fd_sc_hd__nor3_4
*I *1815:B I *D sky130_fd_sc_hd__or3b_4
*I *2104:X O *D sky130_fd_sc_hd__buf_2
*CAP
1 *1595:C 0
2 *1816:B 0
3 *1831:C 0
4 *1824:C 0.000142078
5 *1586:A 0.000255624
6 *1817:A 0.000116789
7 *1821:A 0
8 *1815:B 0.00016354
9 *2104:X 0.000218369
10 *511:70 0.00021501
11 *511:66 0.000153504
12 *511:51 0.000954284
13 *511:45 0.000892662
14 *511:12 0.00027665
15 *511:10 0.000287698
16 *511:8 0.000550742
17 *1586:A *530:66 0.00019603
18 *1817:A *532:14 0.000273878
19 *511:8 *522:10 8.40269e-05
20 *511:10 *522:10 0
21 *511:12 *1821:B 0
22 *511:12 *522:10 0
23 *511:45 *522:10 0
24 *511:66 *1816:C 0.000235573
25 op_out[1] *1586:A 0
26 op_out[1] *511:51 0
27 op_out[5] *511:8 1.0124e-05
28 op_out[5] *511:45 4.43871e-06
29 *1594:A *511:51 0.000279787
30 *1594:B *1586:A 1.74476e-05
31 *1594:B *511:51 4.71168e-05
32 *1812:A2 *1586:A 0.000172943
33 *1812:D1 *1586:A 0
34 *1816:A *1824:C 3.23391e-05
35 *1816:A *511:70 1.89226e-05
36 *1816:D_N *511:66 8.65905e-05
37 *1827:C *1824:C 0.000246599
38 *1827:C *511:66 2.49909e-05
39 *1827:C *511:70 0.000108695
40 *2089:A *1586:A 1.19928e-05
41 *2089:A *1815:B 0.000237243
42 *2091:A *511:51 9.05352e-05
43 *2094:A *511:45 4.82919e-05
44 *2104:A *511:8 9.21168e-05
45 *2105:A *511:45 0.000149419
46 *2105:A *511:51 0.000377443
47 *2113:A *511:70 0
48 *2114:A *1824:C 8.53113e-06
49 *2114:A *511:66 1.96189e-05
50 *2114:A *511:70 7.91552e-05
51 *192:24 *1824:C 4.23612e-05
52 *196:8 *1815:B 7.16437e-05
53 *196:8 *511:12 2.03321e-05
54 *199:18 *1824:C 5.83121e-06
55 *205:14 *1586:A 2.15594e-05
56 *230:6 *1586:A 4.66108e-05
57 *326:18 *511:51 1.03423e-05
58 *489:21 *511:51 1.12578e-05
59 *489:41 *1586:A 8.40269e-05
60 *489:41 *1824:C 5.05521e-05
61 *489:45 *1824:C 9.86611e-05
62 *491:26 *1586:A 2.74726e-05
63 *491:26 *511:66 4.41506e-05
64 *491:26 *511:70 3.54646e-05
65 *492:12 *511:10 0.000111884
66 *492:12 *511:12 1.01911e-05
67 *492:12 *511:45 9.30787e-05
68 *492:14 *1815:B 0.000100544
69 *492:14 *511:12 8.1783e-05
*RES
1 *2104:X *511:8 6.465 
2 *511:8 *511:10 1.38 
3 *511:10 *511:12 2.145 
4 *511:12 *1815:B 7.92 
5 *511:12 *1821:A 3.6 
6 *511:10 *1817:A 6.12 
7 *511:8 *511:45 6.21125 
8 *511:45 *511:51 11.4388 
9 *511:51 *1586:A 9.09 
10 *511:51 *511:66 4.52 
11 *511:66 *511:70 3.89 
12 *511:70 *1824:C 7.65 
13 *511:70 *1831:C 3.6 
14 *511:66 *1816:B 1.6 
15 *511:45 *1595:C 1.6 
*END

*D_NET *512 0.00518639
*CONN
*I *1867:A2 I *D sky130_fd_sc_hd__a211o_1
*I *1728:S I *D sky130_fd_sc_hd__mux2_4
*I *1722:S I *D sky130_fd_sc_hd__mux2_1
*I *1761:B I *D sky130_fd_sc_hd__or3_1
*I *1738:A2 I *D sky130_fd_sc_hd__o21ai_1
*I *2111:X O *D sky130_fd_sc_hd__buf_6
*CAP
1 *1867:A2 0.00018898
2 *1728:S 0
3 *1722:S 2.08101e-05
4 *1761:B 0
5 *1738:A2 2.2266e-05
6 *2111:X 0.000270545
7 *512:51 0.000556673
8 *512:36 0.000905306
9 *512:25 0.000643272
10 *512:12 0.000419279
11 *1867:A2 *543:23 0.000416828
12 *1867:A2 *546:121 0
13 *1867:A2 *548:38 0.000162318
14 *512:25 *531:72 4.24292e-06
15 *512:25 *534:50 0
16 *512:51 *546:121 0
17 *512:51 *548:18 8.53113e-06
18 *512:51 *548:38 7.44647e-05
19 *1695:A_N *512:12 1.19928e-05
20 *1721:B *512:51 2.0514e-05
21 *1722:A1 *512:36 3.07153e-05
22 *1722:A1 *512:51 3.23955e-05
23 *1728:A1 *512:51 4.82863e-05
24 *1731:B *1867:A2 0
25 *1761:A *512:25 9.68787e-05
26 *1761:A *512:36 2.05056e-05
27 *1761:C *512:36 4.01778e-05
28 *1781:C1 *1867:A2 0.000490873
29 *1868:B1 *1867:A2 2.8185e-05
30 *2111:A *512:12 5.83121e-06
31 *60:8 *512:51 8.8266e-05
32 *67:32 *512:12 0.000173965
33 *67:32 *512:25 4.43871e-06
34 *97:10 *512:36 0.000236355
35 *136:18 *512:25 2.92496e-05
36 *136:18 *512:36 4.66108e-05
37 *471:49 *1738:A2 4.82919e-05
38 *471:71 *512:12 2.91921e-05
39 *471:71 *512:25 1.0145e-05
*RES
1 *2111:X *512:12 8.43 
2 *512:12 *1738:A2 4.05 
3 *512:12 *512:25 4.655 
4 *512:25 *1761:B 1.6 
5 *512:25 *512:36 7.815 
6 *512:36 *1722:S 1.96 
7 *512:36 *512:51 8.24 
8 *512:51 *1728:S 3.6 
9 *512:51 *1867:A2 10.08 
*END

*D_NET *513 0.00157387
*CONN
*I *1677:A2 I *D sky130_fd_sc_hd__a21o_1
*I *1692:A2 I *D sky130_fd_sc_hd__a21o_1
*I *1688:A2 I *D sky130_fd_sc_hd__a21oi_1
*I *2112:X O *D sky130_fd_sc_hd__buf_1
*CAP
1 *1677:A2 0
2 *1692:A2 0.000125571
3 *1688:A2 0.000114496
4 *2112:X 0
5 *513:23 0.000191259
6 *513:4 0.000180184
7 *1688:A2 *1688:A1 8.23457e-05
8 *1688:A2 *2123:A 4.82863e-05
9 *1688:A2 *539:85 1.31519e-05
10 *1688:A2 *539:104 0.00010861
11 *1692:A2 *1692:A1 0.000193576
12 *513:23 *1677:A1 5.83121e-06
13 *513:23 *1692:A1 2.42236e-05
14 *513:23 *539:85 6.28765e-05
15 *513:23 *556:21 3.86529e-05
16 *1692:B1 *1692:A2 0.00013184
17 *43:12 *1692:A2 0.000158072
18 *43:12 *513:23 4.82863e-05
19 *49:8 *1692:A2 4.66108e-05
*RES
1 *2112:X *513:4 1.6 
2 *513:4 *1688:A2 4.15 
3 *513:4 *513:23 5.83 
4 *513:23 *1692:A2 5.155 
5 *513:23 *1677:A2 1.6 
*END

*D_NET *514 0.00143844
*CONN
*I *2048:B1 I *D sky130_fd_sc_hd__a32o_1
*I *2131:X O *D sky130_fd_sc_hd__clkbuf_1
*CAP
1 *2048:B1 0.000543655
2 *2131:X 0.000543655
3 *2048:B1 *1966:B2 7.14698e-05
4 *1966:A1 *2048:B1 0
5 *197:46 *2048:B1 0.000279664
*RES
1 *2131:X *2048:B1 9.9725 
*END

*D_NET *515 0.0166228
*CONN
*I *1609:B I *D sky130_fd_sc_hd__and3_1
*I *1611:B1 I *D sky130_fd_sc_hd__a21o_1
*I *1659:C1 I *D sky130_fd_sc_hd__o211a_1
*I *1647:A I *D sky130_fd_sc_hd__xnor2_1
*I *1610:B I *D sky130_fd_sc_hd__nand3_1
*I *1796:A1 I *D sky130_fd_sc_hd__a21o_1
*I *1795:A2 I *D sky130_fd_sc_hd__o211a_1
*I *1794:A I *D sky130_fd_sc_hd__nor2_1
*I *1730:A I *D sky130_fd_sc_hd__and2_1
*I *1680:A I *D sky130_fd_sc_hd__and2_1
*I *2054:X O *D sky130_fd_sc_hd__buf_2
*CAP
1 *1609:B 0.00012388
2 *1611:B1 3.55506e-05
3 *1659:C1 2.19189e-05
4 *1647:A 0.0006566
5 *1610:B 0
6 *1796:A1 0.000326035
7 *1795:A2 0.000363731
8 *1794:A 6.74705e-05
9 *1730:A 0
10 *1680:A 8.76612e-05
11 *2054:X 0
12 *515:110 0.000364547
13 *515:88 0.00134649
14 *515:44 0.000431202
15 *515:42 0.000945097
16 *515:33 0.000859548
17 *515:20 0.00116939
18 *515:12 0.000879564
19 *515:10 0.000967436
20 *515:4 0.000466266
21 *1609:B *516:66 4.82919e-05
22 *1647:A *518:10 4.43871e-06
23 *1659:C1 *517:8 4.88478e-05
24 *1795:A2 *1792:A0 4.21973e-05
25 *1795:A2 *526:98 3.25635e-05
26 *1795:A2 *526:100 2.63406e-05
27 *1796:A1 *1793:B 4.19967e-05
28 *515:20 *1610:A 0.000251595
29 *515:20 *1610:C 5.53249e-06
30 *515:20 *552:12 8.59365e-05
31 *515:33 *1645:A 0.000231564
32 *515:33 *546:121 0.000139012
33 *515:42 *1732:B 0
34 *515:42 *1793:B 8.47455e-05
35 *515:42 *546:121 0.0001147
36 *515:88 *1587:A 1.38403e-05
37 *515:88 *1610:A 9.50342e-06
38 *515:88 *1610:C 0
39 *515:88 *2057:A 2.04763e-05
40 *515:88 *518:10 0.000208195
41 *515:88 *518:54 0.000298547
42 *1621:A1 *1611:B1 0
43 *1637:B1 *515:10 0.000245108
44 *1637:B1 *515:88 1.31519e-05
45 *1647:B *1647:A 0.000599949
46 *1650:S *1647:A 7.21296e-06
47 *1660:B1 *1659:C1 4.88478e-05
48 *1679:A *515:33 0.000208477
49 *1683:A *515:20 4.66108e-05
50 *1721:A *515:20 1.4399e-05
51 *1722:A0 *515:33 0
52 *1722:A1 *515:33 7.23533e-05
53 *1776:A *515:42 8.05319e-05
54 *1792:A1 *1795:A2 0.000193801
55 *1794:B *1794:A 4.92241e-05
56 *1794:B *1795:A2 1.37328e-05
57 *1796:A2 *1796:A1 0.000308708
58 *1796:B1 *1796:A1 1.61831e-05
59 *1804:A2 *1796:A1 3.57349e-05
60 *1838:A *1795:A2 0
61 *1839:B *1795:A2 1.16578e-05
62 *1896:A2 *515:10 2.17185e-05
63 *1896:A2 *515:12 3.08892e-05
64 *1924:A2 *515:20 0.000139936
65 *1924:A2 *515:88 0
66 *2084:A *1647:A 0.000113983
67 *2084:A *515:88 0.000421878
68 *2085:A *1647:A 0
69 *53:10 *515:33 3.09233e-05
70 *107:10 *515:42 0.000149242
71 *107:12 *515:42 2.24423e-05
72 *167:25 *1794:A 2.50318e-06
73 *167:25 *1796:A1 7.06865e-05
74 *241:16 *515:88 0.000183917
75 *273:27 *1796:A1 1.97849e-05
76 *273:27 *515:33 1.71013e-05
77 *273:27 *515:42 0.000780433
78 *294:43 *515:88 0.000643431
79 *294:55 *1647:A 0
80 *442:10 *1609:B 3.23391e-05
81 *443:16 *1609:B 0.000125692
82 *443:16 *515:10 4.40325e-06
83 *443:16 *515:110 2.30506e-05
84 *444:8 *1611:B1 0
85 *456:16 *1609:B 0.000183731
86 *464:25 *1647:A 0.000100536
87 *470:12 *515:12 4.66108e-05
88 *470:12 *515:88 0.000287337
89 *475:10 *515:88 3.18219e-05
90 *475:12 *1647:A 6.14689e-05
91 *475:12 *515:88 8.08153e-06
92 *475:51 *515:88 2.75707e-05
93 *475:68 *515:88 5.79394e-05
94 *475:81 *515:88 0
95 *475:83 *515:88 0
96 *494:14 *1647:A 0.000196997
*RES
1 *2054:X *515:4 1.6 
2 *515:4 *515:10 3.675 
3 *515:10 *515:12 0.795 
4 *515:12 *515:20 17.605 
5 *515:20 *1680:A 2.755 
6 *515:20 *515:33 8.48 
7 *515:33 *1730:A 3.6 
8 *515:33 *515:42 16.68 
9 *515:42 *515:44 2 
10 *515:44 *1794:A 2.74 
11 *515:44 *1795:A2 6.94 
12 *515:42 *1796:A1 8.535 
13 *515:12 *1610:B 1.6 
14 *515:10 *515:88 20.57 
15 *515:88 *1647:A 17.49 
16 *515:88 *1659:C1 4.395 
17 *515:4 *515:110 2.175 
18 *515:110 *1611:B1 2.215 
19 *515:110 *1609:B 8.645 
*END

*D_NET *516 0.0123952
*CONN
*I *1803:A I *D sky130_fd_sc_hd__nor2_1
*I *1790:A I *D sky130_fd_sc_hd__nand2_1
*I *1684:A I *D sky130_fd_sc_hd__nor2_1
*I *1599:A1 I *D sky130_fd_sc_hd__o41ai_4
*I *1608:C1 I *D sky130_fd_sc_hd__a211o_1
*I *1616:A I *D sky130_fd_sc_hd__or2_1
*I *1613:A I *D sky130_fd_sc_hd__nor2_1
*I *1663:A I *D sky130_fd_sc_hd__nor2_4
*I *1726:A I *D sky130_fd_sc_hd__nand2_1
*I *1685:A I *D sky130_fd_sc_hd__or2_1
*I *2055:X O *D sky130_fd_sc_hd__clkbuf_4
*CAP
1 *1803:A 0.000180616
2 *1790:A 0
3 *1684:A 0
4 *1599:A1 9.87913e-05
5 *1608:C1 0
6 *1616:A 0.000233439
7 *1613:A 0.000113364
8 *1663:A 8.26563e-05
9 *1726:A 2.83952e-05
10 *1685:A 4.56872e-05
11 *2055:X 9.09058e-05
12 *516:112 0.000885647
13 *516:79 0.00019025
14 *516:66 0.00100723
15 *516:42 0.000274392
16 *516:40 0.000788346
17 *516:38 0.000196877
18 *516:23 0.000284365
19 *516:17 0.000791764
20 *516:6 0.000136593
21 *1599:A1 *1597:B 0.000151432
22 *1599:A1 *1618:A 3.09164e-05
23 *1599:A1 *543:76 0.000175214
24 *1616:A *1616:B 0
25 *1663:A *1682:A 0
26 *1663:A *544:34 0.000162325
27 *1685:A *1685:B 5.83121e-06
28 *1685:A *548:10 4.66108e-05
29 *1803:A *526:111 9.66511e-05
30 *1803:A *529:80 0.000120655
31 *516:6 *1685:B 2.16917e-05
32 *516:6 *548:10 0.00027042
33 *516:23 *1685:B 0.000133075
34 *516:23 *523:52 8.53113e-06
35 *516:23 *544:34 1.52776e-05
36 *516:23 *548:18 3.11119e-05
37 *516:38 *523:52 0.000317507
38 *516:38 *544:34 0.000339893
39 *516:38 *548:18 0
40 *516:40 *1682:A 0
41 *516:40 *544:34 5.4003e-05
42 *516:40 *548:18 0
43 *516:42 *1682:A 0
44 *516:42 *544:34 0.000160665
45 *516:66 *523:39 0.00121265
46 *516:79 *1618:A 0.000158394
47 *516:112 *1732:B 0.000129291
48 *516:112 *526:111 5.53249e-06
49 *516:112 *543:125 7.44375e-05
50 *516:112 *544:34 0.000556185
51 *516:112 *548:18 5.12017e-06
52 *516:112 *548:38 0.000200879
53 *516:112 *548:53 0.000155224
54 *1608:B1 *1599:A1 0.00017354
55 *1608:B1 *516:79 9.50342e-06
56 *1609:B *516:66 4.82919e-05
57 *1618:B *516:79 8.02809e-05
58 *1620:B1 *1616:A 1.0183e-05
59 *1621:A1 *1616:A 2.8185e-05
60 *1689:A1 *1663:A 0
61 *1727:B *516:23 0.00011852
62 *1728:A1 *516:112 0.000136877
63 *1783:A *516:112 0
64 *1791:A *1803:A 4.18603e-06
65 *1791:A *516:112 4.6084e-05
66 *1792:A1 *1803:A 0.000162318
67 *1795:B1 *1803:A 0
68 *1796:B1 *1803:A 0.000260886
69 *1839:B *1803:A 3.83305e-05
70 *1847:B *516:112 0.000136877
71 *1896:A2 *1613:A 0.000131069
72 *2055:A *516:6 4.66742e-05
73 *45:56 *1663:A 0
74 *51:8 *1663:A 0
75 *60:8 *1685:A 0
76 *219:40 *516:112 0.000143605
77 *391:16 *1599:A1 0.000180682
78 *442:10 *516:66 4.82919e-05
79 *444:21 *1616:A 7.58604e-05
80 *446:10 *1613:A 2.75229e-05
81 *449:6 *1616:A 4.7101e-05
82 *449:23 *1616:A 9.3062e-06
83 *451:10 *1616:A 5.21714e-05
84 *451:10 *516:66 4.82919e-05
85 *454:10 *1616:A 3.68682e-05
86 *454:10 *516:79 1.38025e-05
87 *456:16 *516:66 0.000155491
88 *474:14 *516:79 0
89 *497:29 *516:112 5.55384e-05
*RES
1 *2055:X *516:6 4.12 
2 *516:6 *1685:A 2.41 
3 *516:6 *516:17 2 
4 *516:17 *516:23 4.595 
5 *516:23 *1726:A 2.05 
6 *516:23 *516:38 7.085 
7 *516:38 *516:40 0.615 
8 *516:40 *516:42 1.89 
9 *516:42 *1663:A 5.49 
10 *516:42 *1613:A 5.775 
11 *516:40 *516:66 17.215 
12 *516:66 *1616:A 7.92 
13 *516:66 *516:79 2.4 
14 *516:79 *1608:C1 3.6 
15 *516:79 *1599:A1 7.785 
16 *516:38 *1684:A 3.6 
17 *516:17 *516:112 22.105 
18 *516:112 *1790:A 3.6 
19 *516:112 *1803:A 8.925 
*END

*D_NET *517 0.00941668
*CONN
*I *1659:A1 I *D sky130_fd_sc_hd__o211a_1
*I *1613:B I *D sky130_fd_sc_hd__nor2_1
*I *1588:A I *D sky130_fd_sc_hd__inv_2
*I *1907:A I *D sky130_fd_sc_hd__and3_1
*I *1653:B I *D sky130_fd_sc_hd__nand2_1
*I *1612:B I *D sky130_fd_sc_hd__or2_1
*I *1935:A1 I *D sky130_fd_sc_hd__a21oi_1
*I *1934:A I *D sky130_fd_sc_hd__and3_1
*I *2025:A1 I *D sky130_fd_sc_hd__a22o_1
*I *1658:A1 I *D sky130_fd_sc_hd__o21ai_1
*I *2056:X O *D sky130_fd_sc_hd__buf_2
*CAP
1 *1659:A1 0
2 *1613:B 0.000406312
3 *1588:A 0
4 *1907:A 3.10118e-05
5 *1653:B 3.47608e-05
6 *1612:B 0
7 *1935:A1 0
8 *1934:A 7.8762e-05
9 *2025:A1 0.000236703
10 *1658:A1 9.73191e-06
11 *2056:X 8.64412e-05
12 *517:78 3.47608e-05
13 *517:62 0.00027508
14 *517:58 0.000371363
15 *517:54 0.000394935
16 *517:33 0.00136621
17 *517:29 0.000986927
18 *517:25 0.000511767
19 *517:14 0.000226636
20 *517:8 0.000244194
21 *1653:B *1653:A 4.82919e-05
22 *1653:B *1879:B 3.26889e-05
23 *1653:B *549:107 0.0001249
24 *2025:A1 *1640:A1 0.000219178
25 *2025:A1 *1926:B 1.4399e-05
26 *2025:A1 *554:58 0
27 *517:33 *1640:A1 0.000566613
28 *517:58 *1907:B 0
29 *517:62 *1934:B 0
30 *517:62 *1986:A 2.96553e-05
31 *517:62 *551:89 4.94404e-05
32 *1628:A *517:33 7.40446e-05
33 *1636:B1 *517:33 0.000110673
34 *1640:B1_N *517:33 8.40213e-05
35 *1658:A2 *1658:A1 4.82863e-05
36 *1658:B1 *1658:A1 4.82863e-05
37 *1659:A2 *517:8 4.31472e-05
38 *1659:B1 *517:14 4.07555e-05
39 *1659:C1 *517:8 4.88478e-05
40 *1660:B1 *517:8 1.63849e-05
41 *1660:B1 *517:14 0.000127195
42 *1907:C *517:58 2.97004e-06
43 *1908:A1 *517:58 8.97486e-05
44 *1908:A2 *1653:B 1.33293e-05
45 *1908:A2 *517:58 6.55328e-05
46 *1908:B1 *517:58 0
47 *1924:A2 *1613:B 0.000206905
48 *1934:C *1934:A 3.66286e-05
49 *2026:B *1613:B 0.000133763
50 *2026:B *517:25 5.4003e-05
51 *2027:D *2025:A1 0.000118527
52 *241:28 *1613:B 0.000114753
53 *241:28 *517:14 7.17811e-05
54 *241:28 *517:25 8.5225e-05
55 *251:6 *517:29 2.75229e-05
56 *294:55 *517:8 0.000234872
57 *294:55 *517:14 1.61831e-05
58 *446:10 *1613:B 0.000348519
59 *446:10 *517:14 0.000143244
60 *446:10 *517:25 3.98696e-05
61 *448:33 *1934:A 8.25254e-05
62 *460:14 *517:33 4.99619e-05
63 *473:10 *517:33 4.82919e-05
64 *475:83 *1613:B 0.000199204
65 *486:8 *1653:B 2.30292e-05
66 *492:87 *2025:A1 0
67 *492:87 *517:58 9.0808e-05
68 *492:87 *517:62 9.70786e-05
69 *493:23 *1613:B 0
*RES
1 *2056:X *517:8 4.39 
2 *517:8 *517:14 6.635 
3 *517:14 *1658:A1 4.05 
4 *517:14 *517:25 1.89 
5 *517:25 *517:29 2.795 
6 *517:29 *517:33 15.99 
7 *517:33 *2025:A1 10.895 
8 *517:33 *517:54 2.52 
9 *517:54 *517:58 6.185 
10 *517:58 *517:62 5.93 
11 *517:62 *1934:A 3.1 
12 *517:62 *1935:A1 1.6 
13 *517:58 *517:78 2 
14 *517:78 *1612:B 1.6 
15 *517:78 *1653:B 3.1 
16 *517:54 *1907:A 2.05 
17 *517:29 *1588:A 1.6 
18 *517:25 *1613:B 15.945 
19 *517:8 *1659:A1 1.6 
*END

*D_NET *518 0.0232587
*CONN
*I *1955:A1 I *D sky130_fd_sc_hd__a21o_1
*I *1919:A1 I *D sky130_fd_sc_hd__a21oi_1
*I *1920:A1 I *D sky130_fd_sc_hd__o22a_1
*I *1967:A1 I *D sky130_fd_sc_hd__a221o_1
*I *1895:A1 I *D sky130_fd_sc_hd__a221o_1
*I *1809:B I *D sky130_fd_sc_hd__or4_1
*I *1900:A I *D sky130_fd_sc_hd__xnor2_1
*I *1922:A1 I *D sky130_fd_sc_hd__a32o_1
*I *1986:A I *D sky130_fd_sc_hd__nand2_1
*I *2056:A I *D sky130_fd_sc_hd__buf_2
*I *2057:X O *D sky130_fd_sc_hd__clkbuf_4
*CAP
1 *1955:A1 9.84094e-05
2 *1919:A1 0
3 *1920:A1 8.16983e-05
4 *1967:A1 0
5 *1895:A1 0.000357968
6 *1809:B 3.55506e-05
7 *1900:A 0
8 *1922:A1 0
9 *1986:A 0.00143977
10 *2056:A 0
11 *2057:X 0
12 *518:124 0.000119864
13 *518:109 0.000501685
14 *518:105 0.00112821
15 *518:82 0.00140254
16 *518:74 0.000481429
17 *518:67 0.000350712
18 *518:54 0.00148998
19 *518:10 0.00166593
20 *518:6 0.00140411
21 *1895:A1 *1921:A 0
22 *1986:A *1934:B 4.43871e-06
23 *1986:A *546:44 0
24 *1986:A *551:37 0.000528278
25 *1986:A *551:41 6.14602e-05
26 *1986:A *551:74 0.000112349
27 *518:54 *1590:A 4.82919e-05
28 *518:54 *1596:D 0
29 *518:54 *1894:A2 4.61701e-06
30 *518:54 *519:58 1.94805e-05
31 *518:54 *519:88 0.000217605
32 *518:54 *520:18 7.12774e-05
33 *518:54 *520:29 0.000127308
34 *518:54 *543:42 2.67591e-05
35 *518:54 *547:12 0.000138196
36 *518:54 *550:32 1.96098e-05
37 *518:54 *552:46 0
38 *518:67 *1872:A 0.000349496
39 *518:67 *519:105 0
40 *518:67 *520:29 2.98807e-05
41 *518:74 *1810:C 8.37704e-05
42 *518:74 *1872:A 3.66286e-05
43 *518:82 *1810:C 0.000420316
44 *518:82 *1810:D 2.75229e-05
45 *518:82 *529:51 0.000130453
46 *518:105 *1899:A 0.000895662
47 *518:105 *1919:A2 0.000225143
48 *518:105 *526:92 0.000342981
49 *518:105 *537:52 3.79555e-05
50 *1604:A1 *518:54 4.82863e-05
51 *1604:A2 *518:54 0.000116158
52 *1630:C *1986:A 7.06865e-05
53 *1637:A1 *518:54 0.000205428
54 *1640:A2 *518:54 0.00069432
55 *1647:A *518:10 4.43871e-06
56 *1657:A2 *518:10 0
57 *1657:C1 *1986:A 0.000272984
58 *1659:A2 *1986:A 0
59 *1660:B1 *1986:A 8.65961e-05
60 *1809:C *518:82 4.82863e-05
61 *1809:C *518:105 0.00033961
62 *1811:A *518:82 2.75229e-05
63 *1837:B *518:105 0
64 *1845:A *518:105 0.000146956
65 *1891:B1 *1895:A1 0
66 *1894:B1 *518:54 1.95176e-05
67 *1895:A2 *1895:A1 0.000552501
68 *1895:B2 *1895:A1 4.18603e-06
69 *1896:A2 *518:54 0.000468926
70 *1896:B1 *518:54 0
71 *1896:C1 *518:54 6.16226e-06
72 *1899:B *518:82 9.2741e-05
73 *1900:B *1955:A1 2.46498e-05
74 *1900:B *518:74 4.99619e-05
75 *1920:B2 *1920:A1 0.000211778
76 *1920:B2 *518:124 1.93494e-05
77 *1922:A2 *518:54 8.7152e-06
78 *1922:A2 *518:67 0.000589665
79 *1923:A2 *1895:A1 0
80 *1923:A3 *1895:A1 0
81 *1925:B1 *518:67 0
82 *1955:A2 *1955:A1 0.000269952
83 *1955:B1 *1955:A1 6.18754e-05
84 *1967:A2 *1920:A1 2.3845e-05
85 *1967:A2 *518:109 9.52646e-05
86 *1967:A2 *518:124 1.85235e-05
87 *1967:B1 *1895:A1 2.87867e-05
88 *1967:B2 *1920:A1 7.51335e-05
89 *1990:B *1986:A 0
90 *1991:B *1986:A 6.36578e-05
91 *2054:A *518:54 1.52184e-05
92 *2075:A *1955:A1 0.000203769
93 *2084:A *518:54 0.000160698
94 *191:14 *518:82 2.34269e-05
95 *191:22 *518:67 3.45679e-05
96 *191:22 *518:74 6.19997e-05
97 *191:22 *518:82 4.00896e-05
98 *197:40 *518:105 0.000443355
99 *197:67 *518:54 6.60096e-05
100 *199:51 *518:105 0
101 *273:8 *518:54 8.49205e-05
102 *273:27 *518:54 0.000182096
103 *294:43 *518:54 0.000659654
104 *294:55 *1986:A 8.10355e-05
105 *294:55 *518:54 0
106 *314:8 *1986:A 2.75145e-05
107 *370:8 *1986:A 0.000162311
108 *375:12 *1986:A 0.000152972
109 *423:10 *518:54 4.82919e-05
110 *434:29 *518:54 1.15399e-05
111 *448:14 *1986:A 0.000426206
112 *448:33 *1986:A 0.0002056
113 *453:14 *1986:A 0.000268739
114 *464:14 *1986:A 2.16833e-05
115 *473:10 *518:10 0
116 *473:10 *518:54 0
117 *473:12 *518:10 0
118 *492:87 *1986:A 0
119 *497:56 *1895:A1 3.68769e-05
120 *497:56 *518:105 3.99339e-05
121 *515:88 *518:10 0.000208195
122 *515:88 *518:54 0.000298547
123 *517:62 *1986:A 2.96553e-05
*RES
1 *2057:X *518:6 3.6 
2 *518:6 *518:10 6.44 
3 *518:10 *2056:A 1.6 
4 *518:10 *1986:A 36.84 
5 *518:6 *518:54 36.775 
6 *518:54 *1922:A1 3.6 
7 *518:54 *518:67 11.315 
8 *518:67 *1900:A 1.6 
9 *518:67 *518:74 1.83 
10 *518:74 *518:82 8.43 
11 *518:82 *1809:B 2.215 
12 *518:82 *518:105 14.6575 
13 *518:105 *518:109 1.845 
14 *518:109 *1895:A1 13.715 
15 *518:109 *518:124 0.795 
16 *518:124 *1967:A1 1.6 
17 *518:124 *1920:A1 4.405 
18 *518:105 *1919:A1 1.6 
19 *518:74 *1955:A1 9.275 
*END

*D_NET *519 0.0202405
*CONN
*I *1933:A I *D sky130_fd_sc_hd__nand2_1
*I *1982:A1 I *D sky130_fd_sc_hd__a22oi_1
*I *1983:A I *D sky130_fd_sc_hd__and4_1
*I *1810:C I *D sky130_fd_sc_hd__or4_1
*I *1871:A I *D sky130_fd_sc_hd__or2_1
*I *1865:B2 I *D sky130_fd_sc_hd__a32o_1
*I *1587:A I *D sky130_fd_sc_hd__inv_2
*I *1662:B I *D sky130_fd_sc_hd__nor2_1
*I *2025:B2 I *D sky130_fd_sc_hd__a22o_1
*I *1879:A I *D sky130_fd_sc_hd__nand2_1
*I *2058:X O *D sky130_fd_sc_hd__buf_2
*CAP
1 *1933:A 3.55506e-05
2 *1982:A1 0.000354151
3 *1983:A 0.000143049
4 *1810:C 0.000638005
5 *1871:A 0.000176827
6 *1865:B2 9.71884e-06
7 *1587:A 8.32976e-05
8 *1662:B 0.000117516
9 *2025:B2 0.000183435
10 *1879:A 3.37585e-05
11 *2058:X 5.7901e-05
12 *519:125 0.000956515
13 *519:105 0.00116233
14 *519:88 0.000996198
15 *519:62 0.000277056
16 *519:58 0.0015284
17 *519:29 0.00157029
18 *519:25 0.00149754
19 *519:12 0.000678522
20 *519:6 0.000273674
21 *1662:B *1610:C 5.05437e-05
22 *1810:C *1810:D 4.99619e-05
23 *1810:C *1872:A 0.000273878
24 *1810:C *529:51 3.08151e-05
25 *1865:B2 *524:113 4.82919e-05
26 *1871:A *1872:A 1.08758e-05
27 *1933:A *2058:A 0
28 *1982:A1 *1982:B1 0.000306373
29 *1982:A1 *523:16 0.000347922
30 *1982:A1 *537:69 0.000163937
31 *1983:A *1979:A2 8.17718e-05
32 *1983:A *527:34 4.9968e-05
33 *1983:A *527:45 0.00013521
34 *1983:A *535:22 5.65627e-05
35 *2025:B2 *1926:B 1.56428e-05
36 *2025:B2 *554:58 0.000317494
37 *519:12 *1907:B 3.05373e-05
38 *519:12 *1932:A2 6.36578e-05
39 *519:12 *1934:B 3.86529e-05
40 *519:25 *1907:B 0.000236722
41 *519:25 *1932:A2 0.000105849
42 *519:25 *1932:A3 0.000134798
43 *519:25 *521:57 0
44 *519:25 *521:79 0
45 *519:25 *525:59 7.06865e-05
46 *519:25 *529:35 5.34608e-05
47 *519:25 *532:24 7.21296e-06
48 *519:29 *544:30 0.000237126
49 *519:58 *544:30 0.000717235
50 *519:58 *554:58 0.000119214
51 *519:62 *1610:C 0.000147697
52 *519:88 *1728:A0 1.74429e-05
53 *519:88 *1894:A2 9.82856e-06
54 *519:88 *552:46 0
55 *519:105 *1894:A2 4.43871e-06
56 *519:125 *523:16 0.000385327
57 *519:125 *544:30 7.65418e-05
58 *1617:A *519:58 0
59 *1619:B *519:88 4.11194e-05
60 *1637:A1 *519:88 0.00020279
61 *1637:A2 *519:88 0.000221702
62 *1668:A *1587:A 0
63 *1865:A3 *1865:B2 4.82919e-05
64 *1865:B1 *519:105 2.06083e-05
65 *1872:B *1871:A 3.04064e-05
66 *1896:A2 *519:88 0.000216832
67 *1896:B1 *519:88 0.000139443
68 *1896:C1 *519:88 6.17895e-06
69 *1897:A_N *519:88 0.000114492
70 *1897:A_N *519:105 0.000143604
71 *1907:C *519:25 0
72 *1922:A2 *519:105 0.000217497
73 *1924:A2 *1587:A 7.9745e-05
74 *1925:B1 *519:105 0.000665874
75 *2029:B *519:25 0.000164679
76 *2030:B *519:25 0.000139252
77 *2037:A *519:25 0
78 *2054:A *519:88 0.000153356
79 *38:19 *1662:B 0.000309618
80 *38:19 *519:58 0.000386221
81 *38:19 *519:62 0.000255288
82 *191:22 *1871:A 3.98698e-05
83 *197:63 *519:105 1.68169e-05
84 *197:67 *519:105 4.91574e-05
85 *273:27 *519:88 0.000180321
86 *312:12 *519:6 2.66586e-05
87 *312:12 *519:12 1.7386e-05
88 *423:10 *519:88 4.24292e-06
89 *434:29 *519:88 1.79536e-05
90 *454:18 *519:88 3.12148e-05
91 *456:16 *519:58 9.37731e-05
92 *470:12 *1587:A 0.000181376
93 *471:10 *1587:A 4.86371e-06
94 *474:14 *519:58 9.54399e-05
95 *490:27 *1983:A 0
96 *515:88 *1587:A 1.38403e-05
97 *518:54 *519:58 1.94805e-05
98 *518:54 *519:88 0.000217605
99 *518:67 *519:105 0
100 *518:74 *1810:C 8.37704e-05
101 *518:82 *1810:C 0.000420316
*RES
1 *2058:X *519:6 2.395 
2 *519:6 *519:12 4.865 
3 *519:12 *1879:A 4.05 
4 *519:12 *519:25 13.835 
5 *519:25 *519:29 9.005 
6 *519:29 *2025:B2 7.725 
7 *519:29 *519:58 21.335 
8 *519:58 *519:62 4.52 
9 *519:62 *1662:B 4.465 
10 *519:62 *1587:A 8.15 
11 *519:58 *519:88 16.725 
12 *519:88 *1865:B2 4.05 
13 *519:88 *519:105 12.35 
14 *519:105 *1871:A 3.79 
15 *519:105 *1810:C 10.6 
16 *519:25 *519:125 5.97 
17 *519:125 *1983:A 8.765 
18 *519:125 *1982:A1 12.485 
19 *519:6 *1933:A 2.215 
*END

*D_NET *520 0.00980392
*CONN
*I *1893:A1 I *D sky130_fd_sc_hd__o22a_1
*I *1892:A1 I *D sky130_fd_sc_hd__a21oi_1
*I *1872:A I *D sky130_fd_sc_hd__nand2_1
*I *1922:B2 I *D sky130_fd_sc_hd__a32o_1
*I *1894:A1 I *D sky130_fd_sc_hd__a32o_1
*I *2059:X O *D sky130_fd_sc_hd__dlymetal6s2s_1
*CAP
1 *1893:A1 0.000192312
2 *1892:A1 9.53681e-05
3 *1872:A 0.000471499
4 *1922:B2 0
5 *1894:A1 0
6 *2059:X 0.000294846
7 *520:53 0.000349253
8 *520:29 0.000611306
9 *520:18 0.00148008
10 *520:8 0.0016967
11 *1872:A *1899:A 0
12 *1872:A *538:12 0
13 *1872:A *542:120 0
14 *1892:A1 *537:69 0.000137777
15 *1893:A1 *526:62 6.61829e-05
16 *520:18 *1830:A1 1.83847e-05
17 *520:18 *1830:A2 0.00019637
18 *520:18 *524:107 0.000709305
19 *520:18 *524:113 0.00012553
20 *520:18 *526:77 4.47323e-05
21 *520:18 *545:29 0.000822764
22 *520:29 *1596:D 4.58211e-05
23 *520:53 *537:69 0.000126679
24 *1810:C *1872:A 0.000273878
25 *1830:B2 *520:18 0.00019637
26 *1871:A *1872:A 1.08758e-05
27 *1872:B *1872:A 1.37328e-05
28 *1890:B *1893:A1 0
29 *1892:B1 *1892:A1 4.82919e-05
30 *1893:B1 *1893:A1 0.000421961
31 *1894:B1 *520:18 3.6885e-05
32 *1894:B1 *520:29 5.53249e-06
33 *1895:A2 *1892:A1 1.02346e-05
34 *1895:A2 *1893:A1 1.2818e-05
35 *1895:A2 *520:53 4.92096e-05
36 *1895:B1 *1893:A1 0.000220071
37 *1895:B2 *1892:A1 0
38 *1895:B2 *1893:A1 1.12643e-05
39 *1895:C1 *1893:A1 4.82919e-05
40 *1896:C1 *1892:A1 4.18147e-05
41 *1922:B1 *1872:A 1.39456e-05
42 *1923:A2 *520:8 5.34747e-05
43 *2075:A *1872:A 0
44 *190:27 *520:18 0.000180329
45 *191:22 *1872:A 5.54412e-05
46 *497:52 *1872:A 0
47 *518:54 *520:18 7.12774e-05
48 *518:54 *520:29 0.000127308
49 *518:67 *1872:A 0.000349496
50 *518:67 *520:29 2.98807e-05
51 *518:74 *1872:A 3.66286e-05
*RES
1 *2059:X *520:8 6.205 
2 *520:8 *520:18 26.9 
3 *520:18 *1894:A1 3.6 
4 *520:18 *520:29 2.685 
5 *520:29 *1922:B2 3.6 
6 *520:29 *1872:A 14.49 
7 *520:8 *520:53 3.635 
8 *520:53 *1892:A1 5.685 
9 *520:53 *1893:A1 9.345 
*END

*D_NET *521 0.00990563
*CONN
*I *1928:A1 I *D sky130_fd_sc_hd__a22oi_1
*I *1982:B2 I *D sky130_fd_sc_hd__a22oi_1
*I *1983:B I *D sky130_fd_sc_hd__and4_1
*I *1862:A I *D sky130_fd_sc_hd__nand2_1
*I *1880:A I *D sky130_fd_sc_hd__and3_1
*I *1853:A2 I *D sky130_fd_sc_hd__a21o_1
*I *1855:B I *D sky130_fd_sc_hd__and3_1
*I *2022:A I *D sky130_fd_sc_hd__nand2_1
*I *1932:A3 I *D sky130_fd_sc_hd__a31oi_2
*I *1927:B I *D sky130_fd_sc_hd__and4_1
*I *2060:X O *D sky130_fd_sc_hd__clkbuf_2
*CAP
1 *1928:A1 0
2 *1982:B2 0
3 *1983:B 0
4 *1862:A 0.000125304
5 *1880:A 0
6 *1853:A2 2.18567e-05
7 *1855:B 0.000215829
8 *2022:A 0
9 *1932:A3 0.000217825
10 *1927:B 3.17725e-05
11 *2060:X 0.00036294
12 *521:89 0.000495281
13 *521:83 0.000398538
14 *521:79 0.000554588
15 *521:57 0.000345464
16 *521:51 0.000679134
17 *521:47 0.000576258
18 *521:39 0.000509347
19 *521:31 0.000454383
20 *521:10 0.000652852
21 *1853:A2 *523:39 4.80285e-05
22 *1855:B *1853:A1 0.000245893
23 *1855:B *2078:A 4.66108e-05
24 *1855:B *529:35 8.1858e-05
25 *1862:A *1862:B 4.99619e-05
26 *1862:A *1881:A2 5.506e-05
27 *1927:B *1927:C 4.82919e-05
28 *1927:B *2061:A 5.05716e-06
29 *1927:B *525:12 8.65961e-05
30 *1927:B *534:153 7.96104e-06
31 *1927:B *538:49 2.05056e-05
32 *1932:A3 *1909:B 0
33 *1932:A3 *1932:A2 4.82863e-05
34 *1932:A3 *1932:B1 8.08153e-06
35 *521:10 *2060:A 0.000226373
36 *521:10 *2061:A 1.04316e-05
37 *521:10 *523:16 0.000230435
38 *521:10 *534:153 4.87789e-05
39 *521:10 *538:45 7.06865e-05
40 *521:31 *1903:B 1.79536e-05
41 *521:31 *1983:D 9.82856e-06
42 *521:31 *525:28 6.21498e-05
43 *521:39 *1982:B1 0.000106103
44 *521:39 *1983:D 4.82919e-05
45 *521:39 *525:28 1.43975e-05
46 *521:39 *525:37 7.10578e-05
47 *521:39 *529:14 0.00023468
48 *521:39 *538:49 2.05056e-05
49 *521:47 *1926:B 2.86265e-06
50 *521:47 *1983:C 0.000178501
51 *521:47 *541:36 0.000104013
52 *521:51 *1926:B 0.000233853
53 *521:57 *1909:B 0
54 *521:79 *1909:B 0
55 *521:79 *523:16 7.45881e-05
56 *521:79 *532:24 0.000289698
57 *521:83 *1881:A2 8.23457e-05
58 *521:89 *529:35 0.000169542
59 *1853:B1 *1853:A2 8.49205e-05
60 *1881:B1 *1862:A 6.99752e-05
61 *1881:B1 *521:83 1.70616e-05
62 *1907:C *521:89 2.92496e-05
63 *1984:A *521:39 4.90031e-05
64 *2030:B *1932:A3 1.71013e-05
65 *2030:B *521:57 4.73816e-05
66 *2037:A *1932:A3 0
67 *2122:A *1932:A3 0.000139245
68 *38:19 *521:89 4.66108e-05
69 *38:34 *521:83 1.6408e-05
70 *38:34 *521:89 0.000149759
71 *229:10 *1855:B 7.06865e-05
72 *256:12 *1862:A 4.72561e-05
73 *257:12 *1862:A 0.000124895
74 *286:8 *1932:A3 0.000160635
75 *492:87 *1855:B 0
76 *492:87 *521:89 0
77 *519:25 *1932:A3 0.000134798
78 *519:25 *521:57 0
79 *519:25 *521:79 0
*RES
1 *2060:X *521:10 9.0975 
2 *521:10 *1927:B 4.6275 
3 *521:10 *521:31 3.67837 
4 *521:31 *521:39 8.83 
5 *521:39 *521:47 4.635 
6 *521:47 *521:51 7.28 
7 *521:51 *521:57 2.445 
8 *521:57 *1932:A3 9.27 
9 *521:57 *2022:A 3.6 
10 *521:51 *521:79 7.97 
11 *521:79 *521:83 2.355 
12 *521:83 *521:89 7.76 
13 *521:89 *1855:B 7.92 
14 *521:89 *1853:A2 4.395 
15 *521:83 *1880:A 1.6 
16 *521:79 *1862:A 4.945 
17 *521:47 *1983:B 1.6 
18 *521:39 *1982:B2 1.6 
19 *521:31 *1928:A1 1.6 
*END

*D_NET *522 0.00196864
*CONN
*I *2068:A I *D sky130_fd_sc_hd__clkbuf_2
*I *1821:B I *D sky130_fd_sc_hd__nor3_4
*I *2105:X O *D sky130_fd_sc_hd__buf_1
*CAP
1 *2068:A 7.50591e-05
2 *1821:B 7.7727e-05
3 *2105:X 0.000252106
4 *522:10 0.000404892
5 *2068:A *1817:B 7.67415e-06
6 *2068:A *532:14 0.000120655
7 *1817:C *2068:A 3.23663e-05
8 *1817:D_N *2068:A 8.8266e-05
9 *2104:A *522:10 0.000272984
10 *192:6 *2068:A 0.000309612
11 *192:24 *2068:A 8.65905e-05
12 *196:8 *1821:B 3.24046e-05
13 *315:23 *2068:A 3.23663e-05
14 *326:56 *1821:B 7.07702e-05
15 *326:56 *522:10 2.11419e-05
16 *511:8 *522:10 8.40269e-05
17 *511:10 *522:10 0
18 *511:12 *1821:B 0
19 *511:12 *522:10 0
20 *511:45 *522:10 0
*RES
1 *2105:X *522:10 8.265 
2 *522:10 *1821:B 5.235 
3 *522:10 *2068:A 7.155 
*END

*D_NET *523 0.0112183
*CONN
*I *2060:A I *D sky130_fd_sc_hd__clkbuf_2
*I *1685:B I *D sky130_fd_sc_hd__or2_1
*I *1726:B I *D sky130_fd_sc_hd__nand2_1
*I *1684:B I *D sky130_fd_sc_hd__nor2_1
*I *1881:A1 I *D sky130_fd_sc_hd__a21oi_1
*I *2061:X O *D sky130_fd_sc_hd__dlymetal6s2s_1
*CAP
1 *2060:A 5.77667e-05
2 *1685:B 6.55851e-05
3 *1726:B 0
4 *1684:B 4.55527e-05
5 *1881:A1 3.38751e-05
6 *2061:X 0.00010447
7 *523:52 0.00024007
8 *523:39 0.00189415
9 *523:16 0.0023934
10 *523:10 0.000847645
11 *1685:B *544:34 7.89689e-05
12 *2060:A *2062:A 0.000124007
13 *2060:A *544:18 8.96017e-05
14 *523:10 *2063:A 0.00013521
15 *523:10 *534:153 0
16 *523:16 *1862:B 1.7396e-05
17 *523:16 *1909:B 2.24423e-05
18 *523:16 *532:24 0
19 *523:16 *544:18 6.1357e-05
20 *523:16 *544:30 0.000878698
21 *523:39 *1618:A 4.82919e-05
22 *523:39 *1853:A1 1.33293e-05
23 *523:39 *1862:B 0.00010727
24 *523:39 *1878:A 0.000107415
25 *523:39 *532:24 0
26 *523:39 *547:88 4.60584e-05
27 *523:39 *547:96 8.40213e-05
28 *523:39 *552:25 8.4499e-05
29 *523:39 *552:34 8.34281e-06
30 *523:52 *544:34 1.26626e-05
31 *523:52 *548:18 0
32 *1609:C *523:39 2.81446e-06
33 *1623:A2 *523:39 0.00015896
34 *1623:B1 *523:39 2.49909e-05
35 *1623:B2 *523:39 4.66108e-05
36 *1685:A *1685:B 5.83121e-06
37 *1686:A2 *1684:B 3.00381e-05
38 *1853:A2 *523:39 4.80285e-05
39 *1853:B1 *523:39 2.45351e-05
40 *1909:A *523:16 0
41 *1982:A1 *523:16 0.000347922
42 *256:12 *1881:A1 4.82863e-05
43 *287:12 *523:16 0.000118294
44 *323:14 *523:10 0
45 *441:14 *523:39 0.000149759
46 *516:6 *1685:B 2.16917e-05
47 *516:23 *1685:B 0.000133075
48 *516:23 *523:52 8.53113e-06
49 *516:38 *523:52 0.000317507
50 *516:66 *523:39 0.00121265
51 *519:125 *523:16 0.000385327
52 *521:10 *2060:A 0.000226373
53 *521:10 *523:16 0.000230435
54 *521:79 *523:16 7.45881e-05
*RES
1 *2061:X *523:10 7.49 
2 *523:10 *523:16 19.415 
3 *523:16 *1881:A1 4.05 
4 *523:16 *523:39 33.02 
5 *523:39 *1684:B 2.41 
6 *523:39 *523:52 5.93 
7 *523:52 *1726:B 3.6 
8 *523:52 *1685:B 5.685 
9 *523:10 *2060:A 4.12 
*END

*D_NET *524 0.0202453
*CONN
*I *1835:A1 I *D sky130_fd_sc_hd__a22o_1
*I *1894:B2 I *D sky130_fd_sc_hd__a32o_1
*I *1865:A1 I *D sky130_fd_sc_hd__a32o_1
*I *1728:A0 I *D sky130_fd_sc_hd__mux2_4
*I *1810:D I *D sky130_fd_sc_hd__or4_1
*I *1848:A I *D sky130_fd_sc_hd__or2_1
*I *1849:A I *D sky130_fd_sc_hd__nand2_1
*I *1864:A1 I *D sky130_fd_sc_hd__o22a_1
*I *2061:A I *D sky130_fd_sc_hd__dlymetal6s2s_1
*I *2062:X O *D sky130_fd_sc_hd__buf_2
*CAP
1 *1835:A1 0
2 *1894:B2 0
3 *1865:A1 1.54572e-05
4 *1728:A0 0.000358073
5 *1810:D 9.78325e-06
6 *1848:A 0
7 *1849:A 3.35342e-05
8 *1864:A1 2.61242e-05
9 *2061:A 0.000111469
10 *2062:X 9.3994e-05
11 *524:113 0.000577016
12 *524:107 0.000549565
13 *524:78 0.0007798
14 *524:64 0.00136941
15 *524:56 0.00132333
16 *524:52 0.000992431
17 *524:25 0.00189104
18 *524:6 0.00144184
19 *1728:A0 *543:29 0.000119756
20 *1728:A0 *543:42 0.000222123
21 *1728:A0 *552:10 6.49655e-05
22 *2061:A *2063:A 0.000108644
23 *2061:A *538:45 8.44359e-05
24 *524:6 *544:18 0.000198945
25 *524:25 *535:22 0.000142011
26 *524:25 *537:69 0.000817262
27 *524:25 *540:97 0.00015771
28 *524:25 *544:30 0.000481592
29 *524:52 *537:69 0.000332536
30 *524:52 *540:97 0.000158389
31 *524:56 *538:28 0.000309612
32 *524:64 *538:12 0
33 *524:64 *538:28 0.000153816
34 *524:64 *540:10 8.53113e-06
35 *524:64 *554:75 0
36 *524:78 *529:63 1.64907e-05
37 *524:107 *1597:A 8.23457e-05
38 *524:107 *1597:B 4.82919e-05
39 *524:107 *1865:A2 4.38278e-05
40 *524:107 *554:75 7.1222e-05
41 *524:113 *1865:A2 2.91584e-05
42 *524:113 *1894:A2 0.000124895
43 *1807:C *524:64 1.15399e-05
44 *1808:A *524:64 2.50049e-05
45 *1810:C *1810:D 4.99619e-05
46 *1824:A_N *524:78 4.82863e-05
47 *1835:A2 *524:52 4.66108e-05
48 *1835:A2 *524:56 0.000122824
49 *1845:A *524:78 0.000703911
50 *1848:B *1849:A 4.82863e-05
51 *1848:B *524:78 0
52 *1865:A3 *524:113 7.59596e-05
53 *1865:B2 *524:113 4.82919e-05
54 *1874:A *524:78 4.80285e-05
55 *1874:C *524:78 2.04613e-05
56 *1883:B *524:25 6.20952e-05
57 *1893:B1 *1864:A1 4.66108e-05
58 *1894:B1 *524:113 1.59999e-05
59 *1896:A2 *1728:A0 0.000180689
60 *1896:B1 *524:113 4.82919e-05
61 *1897:A_N *1728:A0 4.65643e-05
62 *1897:A_N *1865:A1 5.16418e-05
63 *1898:A *524:64 0
64 *1898:A *524:78 1.71013e-05
65 *1927:B *2061:A 5.05716e-06
66 *1968:A2 *524:107 0.000135622
67 *1968:B1 *524:52 0.000674992
68 *1968:B1 *524:56 8.34281e-06
69 *2052:A *524:25 2.23485e-05
70 *2052:A *524:52 8.90551e-05
71 *2088:A *524:64 0
72 *2088:A *524:78 0
73 *2131:A *524:64 0.000115464
74 *191:14 *524:78 0.000659386
75 *192:24 *524:78 0.00042344
76 *192:28 *1849:A 3.38425e-05
77 *192:28 *524:78 0.000346135
78 *192:30 *1849:A 2.75145e-05
79 *196:46 *524:52 0.000381094
80 *199:18 *524:78 3.03684e-05
81 *223:10 *1849:A 6.16204e-05
82 *223:10 *524:78 2.05056e-05
83 *234:12 *524:25 4.19884e-05
84 *248:12 *524:78 1.47347e-05
85 *273:27 *1728:A0 0.000640627
86 *294:43 *1728:A0 7.06865e-05
87 *326:90 *1728:A0 0.000136301
88 *326:90 *1865:A1 2.42236e-05
89 *337:16 *524:64 4.98836e-05
90 *337:60 *524:64 7.89689e-05
91 *348:32 *524:64 0.000195248
92 *518:82 *1810:D 2.75229e-05
93 *519:88 *1728:A0 1.74429e-05
94 *520:18 *524:107 0.000709305
95 *520:18 *524:113 0.00012553
96 *521:10 *2061:A 1.04316e-05
*RES
1 *2062:X *524:6 3.43 
2 *524:6 *2061:A 8 
3 *524:6 *524:25 26.06 
4 *524:25 *1864:A1 4.05 
5 *524:25 *524:52 17.6 
6 *524:52 *524:56 4.95 
7 *524:56 *524:64 12.455 
8 *524:64 *524:78 22.25 
9 *524:78 *1849:A 2.74 
10 *524:78 *1848:A 1.6 
11 *524:64 *1810:D 4.05 
12 *524:56 *524:107 12.64 
13 *524:107 *524:113 6.26 
14 *524:113 *1728:A0 13.95 
15 *524:113 *1865:A1 4.215 
16 *524:107 *1894:B2 1.6 
17 *524:52 *1835:A1 1.6 
*END

*D_NET *525 0.0137803
*CONN
*I *1927:A I *D sky130_fd_sc_hd__and4_1
*I *1903:B I *D sky130_fd_sc_hd__and4_1
*I *2038:A1 I *D sky130_fd_sc_hd__a31o_1
*I *1981:A I *D sky130_fd_sc_hd__nand2_1
*I *1832:A2 I *D sky130_fd_sc_hd__a22o_1
*I *1878:A I *D sky130_fd_sc_hd__nand2_1
*I *1828:A I *D sky130_fd_sc_hd__and2_1
*I *2024:B I *D sky130_fd_sc_hd__nand4_1
*I *2023:B2 I *D sky130_fd_sc_hd__a22o_1
*I *1928:B2 I *D sky130_fd_sc_hd__a22oi_1
*I *2063:X O *D sky130_fd_sc_hd__buf_2
*CAP
1 *1927:A 0
2 *1903:B 0.000475613
3 *2038:A1 0
4 *1981:A 6.90021e-05
5 *1832:A2 0.000458488
6 *1878:A 0.000261374
7 *1828:A 0
8 *2024:B 0
9 *2023:B2 0.000291956
10 *1928:B2 0
11 *2063:X 0.000339665
12 *525:92 0.000271238
13 *525:61 0.000261374
14 *525:59 0.000830218
15 *525:41 0.000526215
16 *525:39 0.00119817
17 *525:37 0.00106988
18 *525:28 0.000474031
19 *525:16 0.000700808
20 *525:12 0.000366298
21 *1832:A2 *528:6 0.00015896
22 *1832:A2 *528:14 8.2123e-05
23 *1832:A2 *532:24 0.000219767
24 *1832:A2 *547:88 1.14559e-05
25 *1878:A *547:96 4.66108e-05
26 *1903:B *1982:B1 0
27 *1903:B *1983:D 7.23231e-06
28 *1903:B *2059:A 0.000719264
29 *1903:B *527:51 0.000101022
30 *1903:B *527:76 8.65905e-05
31 *1903:B *541:18 0.000197264
32 *1981:A *537:84 5.14739e-05
33 *2023:B2 *2023:A2 0.000162311
34 *2023:B2 *2023:B1 3.08677e-05
35 *2023:B2 *532:24 4.99619e-05
36 *525:12 *1927:C 3.63661e-05
37 *525:12 *1928:A2 5.83121e-06
38 *525:12 *2063:A 0.000311288
39 *525:12 *529:14 0.000346606
40 *525:12 *538:45 1.61831e-05
41 *525:16 *1928:A2 4.75416e-05
42 *525:16 *529:14 8.40213e-05
43 *525:16 *538:49 6.51782e-07
44 *525:28 *1982:B1 0
45 *525:28 *1983:D 9.23197e-05
46 *525:28 *2059:A 1.7635e-05
47 *525:37 *529:14 7.67057e-05
48 *525:37 *538:49 1.85674e-05
49 *525:39 *529:14 6.05513e-05
50 *525:39 *532:24 7.49327e-05
51 *525:39 *535:43 0.00034663
52 *525:41 *532:24 0.000337041
53 *525:59 *1880:B 5.33085e-05
54 *525:59 *529:35 0
55 *525:59 *532:24 0.000140787
56 *525:59 *547:88 2.97004e-06
57 *525:59 *547:96 0.000351101
58 *525:92 *1979:A2 0
59 *525:92 *1983:D 1.73021e-05
60 *525:92 *2038:A2 4.9968e-05
61 *525:92 *535:22 0
62 *525:92 *537:69 0.000360218
63 *1834:A *1832:A2 0.000159189
64 *1858:A *1832:A2 0.000140912
65 *1858:B *1832:A2 0.000162332
66 *1906:A1 *1878:A 1.56428e-05
67 *1927:B *525:12 8.65961e-05
68 *1984:B *1981:A 4.82863e-05
69 *1985:A *1981:A 5.83121e-06
70 *202:21 *1832:A2 0.00011468
71 *202:32 *1832:A2 4.75576e-05
72 *202:43 *1832:A2 0.000134246
73 *366:12 *525:92 0.00015356
74 *490:27 *525:92 0
75 *519:25 *525:59 7.06865e-05
76 *521:31 *1903:B 1.79536e-05
77 *521:31 *525:28 6.21498e-05
78 *521:39 *525:28 1.43975e-05
79 *521:39 *525:37 7.10578e-05
80 *523:39 *1878:A 0.000107415
*RES
1 *2063:X *525:12 9.34 
2 *525:12 *525:16 2.795 
3 *525:16 *525:28 4.24607 
4 *525:28 *1928:B2 1.6 
5 *525:28 *525:37 3.57 
6 *525:37 *525:39 7.695 
7 *525:39 *525:41 3.21 
8 *525:41 *2023:B2 5.425 
9 *525:41 *2024:B 1.6 
10 *525:39 *525:59 9.755 
11 *525:59 *525:61 2 
12 *525:61 *1828:A 1.6 
13 *525:61 *1878:A 5.845 
14 *525:59 *1832:A2 15.345 
15 *525:37 *525:92 8.95 
16 *525:92 *1981:A 3.1 
17 *525:92 *2038:A1 1.6 
18 *525:16 *1903:B 14.64 
19 *525:12 *1927:A 1.6 
*END

*D_NET *526 0.0181785
*CONN
*I *1825:B2 I *D sky130_fd_sc_hd__a32o_1
*I *1810:B I *D sky130_fd_sc_hd__or4_1
*I *1795:A1 I *D sky130_fd_sc_hd__o211a_1
*I *1790:B I *D sky130_fd_sc_hd__nand2_1
*I *1732:B I *D sky130_fd_sc_hd__or2_1
*I *1792:A0 I *D sky130_fd_sc_hd__mux2_2
*I *1830:A1 I *D sky130_fd_sc_hd__o22a_1
*I *1866:A1 I *D sky130_fd_sc_hd__a221o_1
*I *1904:A1 I *D sky130_fd_sc_hd__a22oi_1
*I *2063:A I *D sky130_fd_sc_hd__buf_2
*I *2064:X O *D sky130_fd_sc_hd__buf_2
*CAP
1 *1825:B2 1.65021e-05
2 *1810:B 4.14944e-05
3 *1795:A1 0
4 *1790:B 0
5 *1732:B 0.000225015
6 *1792:A0 7.30356e-05
7 *1830:A1 5.11224e-05
8 *1866:A1 3.62358e-05
9 *1904:A1 0.000304371
10 *2063:A 0.000182824
11 *2064:X 0
12 *526:111 0.000284551
13 *526:100 0.000202056
14 *526:98 0.000950767
15 *526:94 0.00114565
16 *526:92 0.000609009
17 *526:77 0.000838577
18 *526:62 0.00206691
19 *526:19 0.00220377
20 *526:6 0.000469374
21 *1732:B *1793:B 4.18603e-06
22 *1810:B *529:63 0.00011852
23 *1825:B2 *1825:A2 8.49205e-05
24 *1904:A1 *1904:A2 5.8864e-05
25 *1904:A1 *1904:B1 1.39383e-05
26 *1904:A1 *527:76 6.71823e-05
27 *1904:A1 *538:28 0
28 *1904:A1 *538:45 4.36849e-05
29 *1904:A1 *541:12 9.58495e-05
30 *2063:A *529:14 0.000187381
31 *2063:A *538:45 0
32 *526:19 *538:45 0
33 *526:62 *1864:A2 0.000381094
34 *526:62 *527:76 1.88602e-05
35 *526:62 *527:89 0
36 *526:62 *534:153 0
37 *526:62 *538:28 0
38 *526:92 *528:34 0.000818232
39 *526:92 *528:49 9.4988e-05
40 *526:92 *550:65 0.00029999
41 *526:94 *1825:A2 8.65905e-05
42 *526:94 *554:88 0.000153482
43 *526:111 *1793:B 7.1245e-05
44 *1783:A *1732:B 1.70935e-05
45 *1792:A1 *1792:A0 8.40213e-05
46 *1792:A1 *526:100 0.000118081
47 *1792:S *526:111 3.09164e-05
48 *1795:A2 *1792:A0 4.21973e-05
49 *1795:A2 *526:98 3.25635e-05
50 *1795:A2 *526:100 2.63406e-05
51 *1796:B1 *526:111 3.09164e-05
52 *1803:A *526:111 9.66511e-05
53 *1825:A1 *526:94 0.000306948
54 *1830:B1 *526:77 4.82863e-05
55 *1830:B2 *1830:A1 3.21081e-06
56 *1830:B2 *526:77 8.43862e-05
57 *1838:A *526:98 6.71882e-05
58 *1839:B *526:98 5.41685e-05
59 *1845:A *526:92 0.000103297
60 *1866:B2 *1866:A1 1.83114e-05
61 *1873:B *526:98 0.000194317
62 *1888:B *526:62 1.07797e-05
63 *1889:A *526:62 3.52139e-06
64 *1890:B *526:62 0.000122155
65 *1893:A1 *526:62 6.61829e-05
66 *1893:B1 *526:62 0.000509344
67 *1895:B1 *526:62 2.04748e-05
68 *1902:A1 *526:98 4.21973e-05
69 *1902:B1 *526:98 3.23663e-05
70 *1905:B *526:19 5.16418e-05
71 *1913:B *1904:A1 9.26606e-05
72 *1913:B *526:62 3.7923e-05
73 *1914:B1 *526:62 0
74 *1916:B *526:62 0
75 *1925:A2 *526:98 0.000179782
76 *1925:A3 *526:98 0.000286318
77 *1925:B1 *526:98 4.66108e-05
78 *1944:B *526:19 0
79 *1955:B1 *526:98 0.000232099
80 *2061:A *2063:A 0.000108644
81 *107:10 *1732:B 3.68682e-05
82 *183:12 *526:92 0
83 *190:27 *1866:A1 6.98639e-05
84 *190:27 *526:77 0.00043601
85 *191:14 *1810:B 4.49498e-05
86 *196:14 *1866:A1 1.45569e-05
87 *196:14 *526:77 8.34415e-05
88 *199:51 *1825:B2 7.40446e-05
89 *199:51 *526:92 0
90 *199:51 *526:94 0.000199833
91 *219:40 *1732:B 0
92 *247:25 *526:98 6.3889e-05
93 *261:18 *526:62 0.000160651
94 *263:21 *526:62 0.00011852
95 *265:17 *526:62 0.00022921
96 *266:12 *526:62 4.43871e-06
97 *280:22 *1904:A1 2.05571e-05
98 *280:22 *526:19 4.65565e-05
99 *280:22 *526:62 8.57816e-05
100 *323:14 *2063:A 0
101 *323:14 *526:19 0
102 *515:42 *1732:B 0
103 *516:112 *1732:B 0.000129291
104 *516:112 *526:111 5.53249e-06
105 *518:105 *526:92 0.000342981
106 *520:18 *1830:A1 1.83847e-05
107 *520:18 *526:77 4.47323e-05
108 *523:10 *2063:A 0.00013521
109 *525:12 *2063:A 0.000311288
*RES
1 *2064:X *526:6 3.6 
2 *526:6 *2063:A 9.12 
3 *526:6 *526:19 4.95 
4 *526:19 *1904:A1 18.425 
5 *526:19 *526:62 29.35 
6 *526:62 *1866:A1 4.47 
7 *526:62 *526:77 9.86 
8 *526:77 *1830:A1 2.41 
9 *526:77 *526:92 15.835 
10 *526:92 *526:94 6.315 
11 *526:94 *526:98 17.025 
12 *526:98 *526:100 1.485 
13 *526:100 *1792:A0 3.085 
14 *526:100 *526:111 4.4 
15 *526:111 *1732:B 8.04 
16 *526:111 *1790:B 3.6 
17 *526:98 *1795:A1 1.6 
18 *526:94 *1810:B 6.98 
19 *526:92 *1825:B2 2.395 
*END

*D_NET *527 0.0142239
*CONN
*I *1979:A1 I *D sky130_fd_sc_hd__a211oi_1
*I *1978:B1 I *D sky130_fd_sc_hd__o211a_1
*I *1926:A I *D sky130_fd_sc_hd__nand2_1
*I *1856:A1_N I *D sky130_fd_sc_hd__o2bb2a_1
*I *1857:C I *D sky130_fd_sc_hd__and4b_1
*I *1887:A1 I *D sky130_fd_sc_hd__a21oi_1
*I *1886:A I *D sky130_fd_sc_hd__and3_1
*I *1904:B2 I *D sky130_fd_sc_hd__a22oi_1
*I *1903:A I *D sky130_fd_sc_hd__and4_1
*I *2024:A I *D sky130_fd_sc_hd__nand4_1
*I *2065:X O *D sky130_fd_sc_hd__buf_2
*CAP
1 *1979:A1 0
2 *1978:B1 4.75403e-05
3 *1926:A 0
4 *1856:A1_N 6.50932e-05
5 *1857:C 0
6 *1887:A1 0
7 *1886:A 0.000106928
8 *1904:B2 0
9 *1903:A 0
10 *2024:A 0.000140885
11 *2065:X 0.000133213
12 *527:109 0.000236881
13 *527:89 0.000409028
14 *527:76 0.000720245
15 *527:51 0.000746379
16 *527:45 0.000751545
17 *527:34 0.000964927
18 *527:18 0.000918437
19 *527:8 0.000662001
20 *527:6 0.000401756
21 *1856:A1_N *1856:A2_N 1.98893e-05
22 *1886:A *1887:A2 0.000200615
23 *1886:A *540:116 3.23663e-05
24 *2024:A *2023:A1 0.000122325
25 *2024:A *529:14 0.000725836
26 *2024:A *535:43 0.000837286
27 *527:6 *2065:A 4.66742e-05
28 *527:8 *2065:A 7.00889e-06
29 *527:18 *1978:C1 0
30 *527:18 *534:153 0.000128874
31 *527:18 *541:36 9.27326e-05
32 *527:34 *1983:D 0.000124424
33 *527:34 *2059:A 6.08204e-05
34 *527:34 *529:14 0.000459815
35 *527:45 *2025:B1 9.54469e-05
36 *527:45 *535:22 0.000119561
37 *527:45 *563:14 2.14129e-05
38 *527:51 *1904:B1 0.000535974
39 *527:51 *563:35 0.000381094
40 *527:76 *1904:A2 4.36521e-05
41 *527:76 *1904:B1 0.000127929
42 *527:76 *541:18 2.16917e-05
43 *527:109 *1856:A2_N 4.82863e-05
44 *527:109 *1878:B 0.000313213
45 *527:109 *2078:A 0.000160635
46 *527:109 *545:46 0.000199833
47 *527:109 *563:14 0.000183738
48 *1857:D *1856:A1_N 0.000162073
49 *1877:A *1856:A1_N 0
50 *1877:A *527:109 2.30292e-05
51 *1877:B *527:109 2.96334e-05
52 *1883:A *527:51 0.000119762
53 *1887:B1 *1886:A 0.000106429
54 *1903:B *527:51 0.000101022
55 *1903:B *527:76 8.65905e-05
56 *1904:A1 *527:76 6.71823e-05
57 *1906:B1_N *527:45 4.38051e-05
58 *1913:A *527:76 6.04396e-05
59 *1913:A *527:89 0.000133075
60 *1913:B *527:89 8.08153e-06
61 *1929:A1 *527:18 3.96737e-05
62 *1930:B *1978:B1 0
63 *1931:A *527:18 4.82863e-05
64 *1945:A2 *527:76 3.97211e-05
65 *1978:A2 *527:18 0
66 *1979:B1 *527:8 1.47347e-05
67 *1979:C1 *527:8 0.000223016
68 *1983:A *527:34 4.9968e-05
69 *1983:A *527:45 0.00013521
70 *1984:A *527:34 0
71 *229:21 *1856:A1_N 0.000209199
72 *229:21 *527:109 8.82557e-05
73 *253:12 *527:109 7.68414e-06
74 *256:12 *527:45 9.54469e-05
75 *257:12 *527:45 0.000113988
76 *259:12 *527:51 5.27885e-05
77 *261:18 *1886:A 9.16333e-06
78 *280:22 *527:76 0.000101924
79 *291:8 *527:89 0.000131763
80 *307:10 *527:34 8.40213e-05
81 *309:16 *1978:B1 1.0183e-05
82 *309:16 *527:8 4.82919e-05
83 *309:16 *527:18 0.000123225
84 *323:14 *1978:B1 0
85 *388:10 *527:76 0
86 *388:10 *527:89 0
87 *490:27 *527:34 1.94805e-05
88 *490:27 *527:45 0.000179392
89 *490:27 *527:109 2.24905e-05
90 *526:62 *527:76 1.88602e-05
91 *526:62 *527:89 0
*RES
1 *2065:X *527:6 3.085 
2 *527:6 *527:8 3.555 
3 *527:8 *527:18 6.21 
4 *527:18 *527:34 15.285 
5 *527:34 *2024:A 11.295 
6 *527:34 *527:45 8.01 
7 *527:45 *527:51 11.09 
8 *527:51 *1903:A 1.6 
9 *527:51 *527:76 7.118 
10 *527:76 *1904:B2 3.6 
11 *527:76 *527:89 8.165 
12 *527:89 *1886:A 4.48 
13 *527:89 *1887:A1 1.6 
14 *527:45 *527:109 8.39 
15 *527:109 *1857:C 1.6 
16 *527:109 *1856:A1_N 3.91375 
17 *527:18 *1926:A 1.6 
18 *527:8 *1978:B1 6.215 
19 *527:6 *1979:A1 1.6 
*END

*D_NET *528 0.00569213
*CONN
*I *1833:B I *D sky130_fd_sc_hd__and3_1
*I *1832:B2 I *D sky130_fd_sc_hd__a22o_1
*I *1836:B2 I *D sky130_fd_sc_hd__a32o_1
*I *1819:A2 I *D sky130_fd_sc_hd__o22a_1
*I *1825:A2 I *D sky130_fd_sc_hd__a32o_1
*I *1818:A2 I *D sky130_fd_sc_hd__a22oi_1
*I *2066:X O *D sky130_fd_sc_hd__dlymetal6s2s_1
*CAP
1 *1833:B 0.000120165
2 *1832:B2 0
3 *1836:B2 0
4 *1819:A2 4.73636e-05
5 *1825:A2 4.34581e-05
6 *1818:A2 7.71183e-06
7 *2066:X 5.32003e-05
8 *528:49 0.000230378
9 *528:34 0.0006747
10 *528:22 0.000627662
11 *528:14 0.000204051
12 *528:6 0.000277187
13 *1833:B *1830:A2 7.23943e-06
14 *1833:B *529:35 5.64768e-05
15 *1833:B *547:82 2.11084e-05
16 *1833:B *550:54 4.61423e-05
17 *528:6 *529:35 4.82863e-05
18 *528:6 *529:51 1.46828e-05
19 *528:14 *1832:B1 4.66742e-05
20 *528:14 *529:51 0.000219877
21 *528:22 *538:28 9.7688e-05
22 *528:22 *545:29 8.23457e-05
23 *528:34 *545:29 0.000118081
24 *528:34 *550:65 0.000113558
25 *528:34 *550:95 0.000276452
26 *528:49 *1819:A1 0.000170477
27 *528:49 *550:95 3.09164e-05
28 *1809:C *1818:A2 6.8725e-06
29 *1818:B2 *528:49 7.21296e-06
30 *1825:A1 *1825:A2 4.99619e-05
31 *1825:A3 *1819:A2 8.65961e-05
32 *1825:A3 *1825:A2 4.72157e-05
33 *1825:A3 *528:49 0
34 *1825:B1 *1825:A2 2.24829e-05
35 *1825:B1 *528:49 4.43871e-06
36 *1825:B2 *1825:A2 8.49205e-05
37 *1832:A2 *528:6 0.00015896
38 *1832:A2 *528:14 8.2123e-05
39 *1836:A2 *528:22 5.83121e-06
40 *1836:B1 *528:34 1.7635e-05
41 *1837:B *528:34 8.27125e-05
42 *1867:C1 *528:22 2.39856e-05
43 *188:22 *528:34 7.87018e-05
44 *188:28 *528:34 4.05454e-05
45 *199:51 *1819:A2 2.67275e-05
46 *492:67 *528:22 0.00017922
47 *492:67 *528:34 5.02905e-05
48 *526:92 *528:34 0.000818232
49 *526:92 *528:49 9.4988e-05
50 *526:94 *1825:A2 8.65905e-05
*RES
1 *2066:X *528:6 3.085 
2 *528:6 *528:14 3 
3 *528:14 *528:22 6.94 
4 *528:22 *528:34 19.335 
5 *528:34 *1818:A2 3.72375 
6 *528:34 *528:49 5.105 
7 *528:49 *1825:A2 3.445 
8 *528:49 *1819:A2 3.01 
9 *528:22 *1836:B2 1.6 
10 *528:14 *1832:B2 1.6 
11 *528:6 *1833:B 7.685 
*END

*D_NET *529 0.0181391
*CONN
*I *2065:A I *D sky130_fd_sc_hd__buf_2
*I *2066:A I *D sky130_fd_sc_hd__dlymetal6s2s_1
*I *1810:A I *D sky130_fd_sc_hd__or4_1
*I *1803:B I *D sky130_fd_sc_hd__nor2_1
*I *1793:B I *D sky130_fd_sc_hd__and2_1
*I *1795:C1 I *D sky130_fd_sc_hd__o211a_1
*I *2023:A1 I *D sky130_fd_sc_hd__a22o_1
*I *2067:X O *D sky130_fd_sc_hd__clkbuf_2
*CAP
1 *2065:A 0.000123035
2 *2066:A 0
3 *1810:A 0
4 *1803:B 0
5 *1793:B 0.000164063
6 *1795:C1 6.11822e-05
7 *2023:A1 0.000242945
8 *2067:X 0
9 *529:80 0.000444579
10 *529:63 0.00126202
11 *529:51 0.00192881
12 *529:35 0.00169962
13 *529:14 0.00192913
14 *529:4 0.0011181
15 *1795:C1 *544:34 0.000138266
16 *2023:A1 *2023:B1 0.000161529
17 *2023:A1 *535:43 8.37704e-05
18 *2023:A1 *540:33 5.33085e-05
19 *2065:A *2062:A 9.05377e-05
20 *529:14 *535:43 9.8249e-05
21 *529:14 *538:49 9.27255e-06
22 *529:35 *1830:A2 0.00017462
23 *529:35 *1853:A1 0
24 *529:35 *547:88 0.000506349
25 *529:35 *550:43 0
26 *529:35 *550:54 0
27 *529:51 *1832:B1 0.000106377
28 *529:51 *1966:B2 2.54884e-05
29 *529:51 *538:28 0
30 *529:51 *545:29 4.76569e-05
31 *529:51 *554:75 0.00117333
32 *529:63 *544:34 4.83522e-05
33 *1732:B *1793:B 4.18603e-06
34 *1792:S *1793:B 9.66927e-05
35 *1795:B1 *1795:C1 5.53249e-06
36 *1796:A1 *1793:B 4.19967e-05
37 *1796:B1 *1793:B 1.32064e-05
38 *1796:B1 *529:80 6.06358e-05
39 *1803:A *529:80 0.000120655
40 *1807:C *529:51 1.81522e-05
41 *1809:C *529:51 1.16578e-05
42 *1810:B *529:63 0.00011852
43 *1810:C *529:51 3.08151e-05
44 *1811:B *529:63 7.81954e-05
45 *1825:A1 *529:63 0.000906029
46 *1833:B *529:35 5.64768e-05
47 *1836:A2 *529:51 0.00015896
48 *1839:B *1795:C1 3.32667e-05
49 *1839:B *529:63 1.38831e-05
50 *1855:B *529:35 8.1858e-05
51 *1907:C *529:35 0.000441811
52 *1980:B *2065:A 2.15738e-05
53 *2024:A *2023:A1 0.000122325
54 *2024:A *529:14 0.000725836
55 *2063:A *529:14 0.000187381
56 *2088:A *529:63 5.154e-05
57 *167:25 *1793:B 0
58 *183:12 *529:51 0.000242861
59 *191:14 *529:63 0
60 *199:18 *529:63 8.54444e-05
61 *199:51 *529:51 0
62 *229:10 *529:35 3.86607e-05
63 *307:10 *529:14 0.000172743
64 *323:14 *2065:A 0
65 *336:18 *529:63 0.000382752
66 *492:87 *2023:A1 0
67 *515:42 *1793:B 8.47455e-05
68 *518:82 *529:51 0.000130453
69 *519:25 *529:35 5.34608e-05
70 *521:39 *529:14 0.00023468
71 *521:89 *529:35 0.000169542
72 *524:78 *529:63 1.64907e-05
73 *525:12 *529:14 0.000346606
74 *525:16 *529:14 8.40213e-05
75 *525:37 *529:14 7.67057e-05
76 *525:39 *529:14 6.05513e-05
77 *525:59 *529:35 0
78 *526:111 *1793:B 7.1245e-05
79 *527:6 *2065:A 4.66742e-05
80 *527:8 *2065:A 7.00889e-06
81 *527:34 *529:14 0.000459815
82 *528:6 *529:35 4.82863e-05
83 *528:6 *529:51 1.46828e-05
84 *528:14 *529:51 0.000219877
*RES
1 *2067:X *529:4 1.6 
2 *529:4 *529:14 22.425 
3 *529:14 *2023:A1 10.115 
4 *529:14 *529:35 21.13 
5 *529:35 *529:51 26.32 
6 *529:51 *529:63 26.685 
7 *529:63 *1795:C1 5.235 
8 *529:63 *529:80 6.3425 
9 *529:80 *1793:B 9.9125 
10 *529:80 *1803:B 1.6 
11 *529:51 *1810:A 1.6 
12 *529:35 *2066:A 1.6 
13 *529:4 *2065:A 8.285 
*END

*D_NET *530 0.00670044
*CONN
*I *1817:B I *D sky130_fd_sc_hd__or4b_4
*I *1595:A_N I *D sky130_fd_sc_hd__and3b_2
*I *1822:C I *D sky130_fd_sc_hd__and4b_2
*I *1820:B I *D sky130_fd_sc_hd__nor3_1
*I *1812:C1 I *D sky130_fd_sc_hd__o2111a_1
*I *1831:B_N I *D sky130_fd_sc_hd__and4bb_2
*I *1824:B_N I *D sky130_fd_sc_hd__and4bb_2
*I *1815:C_N I *D sky130_fd_sc_hd__or3b_4
*I *1813:D I *D sky130_fd_sc_hd__and4b_2
*I *1816:C I *D sky130_fd_sc_hd__or4b_4
*I *2068:X O *D sky130_fd_sc_hd__clkbuf_2
*CAP
1 *1817:B 0.000118427
2 *1595:A_N 7.85146e-05
3 *1822:C 0
4 *1820:B 0
5 *1812:C1 0
6 *1831:B_N 6.82935e-05
7 *1824:B_N 0.000302416
8 *1815:C_N 6.45356e-05
9 *1813:D 0
10 *1816:C 0.000416423
11 *2068:X 0
12 *530:94 0.000298998
13 *530:66 0.000210686
14 *530:60 0.000157041
15 *530:43 0.000554628
16 *530:23 7.23003e-05
17 *530:19 0.000329237
18 *530:17 0.000224092
19 *530:6 0.000617214
20 *530:4 0.000162664
21 *1817:B *532:14 3.64998e-06
22 *1586:A *530:66 0.00019603
23 *1595:B *1595:A_N 7.23602e-05
24 *1812:A2 *1831:B_N 4.66108e-05
25 *1812:B1 *1831:B_N 4.66108e-05
26 *1812:D1 *530:17 0
27 *1812:D1 *530:66 2.97004e-06
28 *1813:B *530:19 1.80792e-05
29 *1815:A *1815:C_N 0.000171619
30 *1815:A *530:23 4.82919e-05
31 *1816:D_N *1816:C 6.52265e-05
32 *1817:C *1817:B 8.40269e-05
33 *1827:A *1831:B_N 3.63661e-05
34 *1827:C *1824:B_N 9.5799e-06
35 *2068:A *1817:B 7.67415e-06
36 *2070:A *1824:B_N 0
37 *2070:A *530:43 0
38 *2074:A *1824:B_N 0
39 *2074:A *530:43 0
40 *2089:A *530:66 7.84507e-05
41 *2104:A *1595:A_N 3.25831e-05
42 *188:10 *1815:C_N 0.000124007
43 *189:10 *530:17 2.60153e-05
44 *189:14 *530:17 7.21296e-06
45 *189:14 *530:19 1.73877e-05
46 *189:14 *530:66 0
47 *192:24 *1824:B_N 0.000187762
48 *192:24 *530:43 6.23438e-05
49 *192:24 *530:66 0
50 *205:14 *1831:B_N 0.000122331
51 *230:19 *530:19 0.000159964
52 *315:23 *1816:C 0.000238137
53 *315:23 *1817:B 3.66286e-05
54 *315:23 *530:6 7.3151e-05
55 *315:23 *530:94 0.000153217
56 *326:56 *1595:A_N 1.1561e-05
57 *489:21 *1595:A_N 0
58 *489:21 *530:17 4.14369e-05
59 *489:23 *530:17 0.000140234
60 *489:35 *1815:C_N 3.66286e-05
61 *489:35 *530:17 9.50342e-06
62 *489:35 *530:19 0.000239917
63 *489:35 *530:23 4.99619e-05
64 *489:45 *1824:B_N 2.05571e-05
65 *500:35 *1831:B_N 0.000102971
66 *500:48 *1816:C 8.34281e-06
67 *511:66 *1816:C 0.000235573
*RES
1 *2068:X *530:4 1.6 
2 *530:4 *530:6 0.795 
3 *530:6 *1816:C 7.225 
4 *530:6 *530:17 4.4 
5 *530:17 *530:19 2.91 
6 *530:19 *530:23 2.45 
7 *530:23 *1813:D 1.6 
8 *530:23 *1815:C_N 3.79 
9 *530:19 *530:43 0.945867 
10 *530:43 *1824:B_N 5.01143 
11 *530:43 *530:60 0.7325 
12 *530:60 *530:66 5.195 
13 *530:66 *1831:B_N 3.775 
14 *530:66 *1812:C1 1.6 
15 *530:60 *1820:B 3.6 
16 *530:17 *1822:C 3.6 
17 *530:4 *530:94 1.485 
18 *530:94 *1595:A_N 7.235 
19 *530:94 *1817:B 3.085 
*END

*D_NET *531 0.01782
*CONN
*I *1762:B1 I *D sky130_fd_sc_hd__a21oi_1
*I *1596:C I *D sky130_fd_sc_hd__or4_4
*I *1778:C1 I *D sky130_fd_sc_hd__a221o_1
*I *1717:C1 I *D sky130_fd_sc_hd__a311oi_4
*I *1674:B I *D sky130_fd_sc_hd__or4_4
*I *1673:B I *D sky130_fd_sc_hd__nor4_1
*I *1784:C1 I *D sky130_fd_sc_hd__a211o_1
*I *1779:C1 I *D sky130_fd_sc_hd__a211o_1
*I *1755:B1 I *D sky130_fd_sc_hd__a21oi_4
*I *1763:A I *D sky130_fd_sc_hd__and3_1
*I *2069:X O *D sky130_fd_sc_hd__buf_6
*CAP
1 *1762:B1 0.000149866
2 *1596:C 0.00194559
3 *1778:C1 0
4 *1717:C1 0
5 *1674:B 0.000220846
6 *1673:B 0.000166056
7 *1784:C1 4.7182e-06
8 *1779:C1 8.68897e-06
9 *1755:B1 0
10 *1763:A 1.48584e-05
11 *2069:X 1.79042e-05
12 *531:74 0.000438994
13 *531:72 0.000610297
14 *531:70 0.000808337
15 *531:49 0.00025485
16 *531:47 0.00256402
17 *531:31 0.000127708
18 *531:25 0.0017672
19 *531:15 0.00117962
20 *531:6 3.27626e-05
21 *1596:C *1596:D 9.14692e-05
22 *1596:C *538:12 1.60083e-05
23 *1596:C *540:10 9.27255e-06
24 *1596:C *542:63 3.99339e-05
25 *1673:B *1673:A 4.99619e-05
26 *1674:B *1674:C 1.82559e-05
27 *1674:B *1692:A1 5.62178e-05
28 *531:25 *565:12 1.18553e-06
29 *531:25 *565:73 0
30 *531:31 *565:12 8.22493e-05
31 *531:72 *539:68 0.00011379
32 *531:72 *542:63 0
33 *531:74 *539:68 9.50342e-06
34 *1716:A1 *1674:B 0.000197269
35 *1716:B1 *1673:B 4.92284e-05
36 *1734:A1 *1596:C 3.73232e-05
37 *1734:A2 *1596:C 1.34503e-05
38 *1734:B1 *1596:C 0.000472297
39 *1735:B1 *1596:C 6.08215e-05
40 *1747:A *531:25 0.00015635
41 *1754:A1 *531:25 0.00031209
42 *1754:B1 *531:31 0
43 *1755:A2 *1779:C1 3.68999e-05
44 *1755:A2 *531:31 0.00016031
45 *1761:A *531:72 0.000185398
46 *1761:C *531:72 0.000193345
47 *1762:A1 *1762:B1 1.73877e-05
48 *1763:B *1763:A 1.33205e-05
49 *1763:B *531:6 1.1392e-05
50 *1763:C *1763:A 4.77719e-05
51 *1763:C *531:6 3.57349e-05
52 *1765:C *1762:B1 0
53 *1777:B *1596:C 0.000192125
54 *1778:A2 *531:70 0.000185198
55 *1778:B2 *531:70 2.94243e-05
56 *1778:B2 *531:72 8.53113e-06
57 *1784:A1 *1784:C1 3.63701e-06
58 *1784:A1 *531:70 9.74049e-05
59 *1784:B1 *1784:C1 1.70661e-06
60 *1787:B1 *531:25 0.000409139
61 *1799:B2 *531:25 1.83975e-05
62 *1800:B *1762:B1 0
63 *1802:B1 *1762:B1 2.75229e-05
64 *1922:B1 *1596:C 0.000146416
65 *1924:A2 *1596:C 0.00015896
66 *1924:B1 *1596:C 4.21973e-05
67 *1924:C1 *1596:C 0.000619256
68 *67:8 *1673:B 9.50342e-06
69 *67:8 *531:72 2.14129e-05
70 *67:8 *531:74 0.000129047
71 *67:19 *531:72 0.000112123
72 *67:32 *531:72 0.000579609
73 *97:10 *1596:C 3.82741e-05
74 *100:8 *531:25 0.000135009
75 *126:15 *1779:C1 4.77757e-05
76 *126:15 *531:31 0.000159156
77 *136:18 *1784:C1 1.9537e-06
78 *136:18 *531:70 0.000313566
79 *136:18 *531:72 0.000167651
80 *140:12 *1762:B1 7.06418e-05
81 *283:12 *531:72 0
82 *283:85 *531:72 0
83 *471:26 *1673:B 0.000103002
84 *471:26 *531:74 2.67022e-05
85 *471:41 *531:74 2.04147e-05
86 *471:71 *1762:B1 9.55514e-05
87 *471:71 *531:25 0.00100623
88 *497:29 *531:25 1.08856e-05
89 *510:39 *531:70 2.00134e-05
90 *510:39 *531:72 6.71803e-06
91 *510:89 *531:25 0
92 *512:25 *531:72 4.24292e-06
*RES
1 *2069:X *531:6 2.05 
2 *531:6 *1763:A 2.05 
3 *531:6 *531:15 2 
4 *531:15 *531:25 26.6575 
5 *531:25 *531:31 5.2475 
6 *531:31 *1755:B1 1.6 
7 *531:31 *1779:C1 2.05 
8 *531:25 *531:47 1.29547 
9 *531:47 *531:49 0.5 
10 *531:49 *1784:C1 3.75 
11 *531:49 *531:70 5.8253 
12 *531:70 *531:72 14.13 
13 *531:72 *531:74 1.635 
14 *531:74 *1673:B 7.305 
15 *531:74 *1674:B 6.465 
16 *531:72 *1717:C1 3.6 
17 *531:70 *1778:C1 3.6 
18 *531:47 *1596:C 29.7891 
19 *531:15 *1762:B1 6.705 
*END

*D_NET *532 0.0115335
*CONN
*I *2014:B I *D sky130_fd_sc_hd__xnor2_1
*I *2046:A2 I *D sky130_fd_sc_hd__a21oi_1
*I *2047:A2 I *D sky130_fd_sc_hd__o22a_1
*I *2048:A2 I *D sky130_fd_sc_hd__a32o_1
*I *2024:C I *D sky130_fd_sc_hd__nand4_1
*I *2023:A2 I *D sky130_fd_sc_hd__a22o_1
*I *2070:X O *D sky130_fd_sc_hd__clkbuf_2
*CAP
1 *2014:B 0
2 *2046:A2 2.4628e-05
3 *2047:A2 0.000273041
4 *2048:A2 0
5 *2024:C 0
6 *2023:A2 4.55289e-05
7 *2070:X 9.31679e-05
8 *532:24 0.00107915
9 *532:18 0.00110065
10 *532:16 0.00043489
11 *532:14 0.000653883
12 *532:6 0.000627603
13 *2023:A2 *2023:B1 7.71626e-05
14 *2023:A2 *535:43 4.82919e-05
15 *532:24 *1862:B 0
16 *532:24 *1880:B 5.16348e-05
17 *532:24 *535:43 0.000451953
18 *532:24 *545:33 0.000403466
19 *532:24 *545:37 2.59981e-05
20 *532:24 *547:96 0.000358944
21 *1817:A *532:14 0.000273878
22 *1817:B *532:14 3.64998e-06
23 *1818:B2 *532:14 0
24 *1826:C1 *532:14 0.000174503
25 *1832:A2 *532:24 0.000219767
26 *1834:A *532:24 0.000292815
27 *1837:C *532:24 3.91737e-05
28 *1858:B *532:24 0.000162332
29 *1866:A2 *532:24 9.76964e-06
30 *2016:A *532:6 4.99619e-05
31 *2023:B2 *2023:A2 0.000162311
32 *2023:B2 *532:24 4.99619e-05
33 *2068:A *532:14 0.000120655
34 *188:63 *2046:A2 0.000122337
35 *190:8 *532:14 8.55048e-05
36 *190:10 *532:14 8.79086e-05
37 *190:10 *532:16 4.43871e-06
38 *190:14 *532:16 0.000116563
39 *190:14 *532:18 6.41961e-05
40 *190:14 *532:24 0.00025946
41 *190:54 *2046:A2 0.000122337
42 *192:6 *532:14 2.16917e-05
43 *192:97 *532:6 9.29176e-05
44 *192:97 *532:14 0.000118294
45 *196:12 *532:14 0
46 *197:16 *532:14 0.000381337
47 *197:40 *532:18 1.79483e-05
48 *199:45 *532:14 8.88967e-05
49 *205:26 *532:14 4.13171e-05
50 *205:26 *532:16 2.15594e-05
51 *205:47 *532:24 0.000166093
52 *326:56 *532:14 0.000714496
53 *492:50 *532:16 0.000181376
54 *492:50 *532:18 0.000143578
55 *492:56 *532:18 8.7152e-06
56 *492:56 *532:24 0.000135533
57 *497:52 *2047:A2 0.000378513
58 *519:25 *532:24 7.21296e-06
59 *521:79 *532:24 0.000289698
60 *523:16 *532:24 0
61 *523:39 *532:24 0
62 *525:39 *532:24 7.49327e-05
63 *525:41 *532:24 0.000337041
64 *525:59 *532:24 0.000140787
*RES
1 *2070:X *532:6 3.775 
2 *532:6 *532:14 17.915 
3 *532:14 *532:16 2.655 
4 *532:16 *532:18 1.89 
5 *532:18 *532:24 32.105 
6 *532:24 *2023:A2 3.445 
7 *532:24 *2024:C 1.6 
8 *532:18 *2048:A2 3.6 
9 *532:16 *2047:A2 7.155 
10 *532:14 *2046:A2 4.74 
11 *532:6 *2014:B 1.6 
*END

*D_NET *533 0.000721392
*CONN
*I *2067:A I *D sky130_fd_sc_hd__clkbuf_2
*I *2106:X O *D sky130_fd_sc_hd__clkbuf_1
*CAP
1 *2067:A 0.000289896
2 *2106:X 0.000289896
3 *2067:A *544:18 0.000141599
*RES
1 *2106:X *2067:A 11.7 
*END

*D_NET *534 0.0436153
*CONN
*I *1801:A1 I *D sky130_fd_sc_hd__a21oi_1
*I *1971:A I *D sky130_fd_sc_hd__xor2_1
*I *1978:C1 I *D sky130_fd_sc_hd__o211a_1
*I *1596:D I *D sky130_fd_sc_hd__or4_4
*I *1593:A I *D sky130_fd_sc_hd__inv_2
*I *1717:B1 I *D sky130_fd_sc_hd__a311oi_4
*I *1674:C I *D sky130_fd_sc_hd__or4_4
*I *1673:C I *D sky130_fd_sc_hd__nor4_1
*I *1739:A I *D sky130_fd_sc_hd__xnor2_1
*I *1764:A I *D sky130_fd_sc_hd__xor2_1
*I *2071:X O *D sky130_fd_sc_hd__buf_4
*CAP
1 *1801:A1 9.74317e-05
2 *1971:A 1.37747e-05
3 *1978:C1 1.90984e-05
4 *1596:D 0.00248701
5 *1593:A 6.14809e-05
6 *1717:B1 0
7 *1674:C 5.34758e-06
8 *1673:C 0.000121652
9 *1739:A 0.000168272
10 *1764:A 0.000118603
11 *2071:X 0
12 *534:153 0.00229553
13 *534:139 0.00728984
14 *534:133 0.00539294
15 *534:74 0.000359138
16 *534:66 0.000631113
17 *534:50 0.000683816
18 *534:48 0.00328289
19 *534:27 0.0017116
20 *534:15 0.00128221
21 *534:4 0.000134138
22 *1596:D *2078:A 0
23 *1596:D *540:10 0.000237249
24 *1596:D *543:42 0.000143779
25 *1596:D *547:12 2.15594e-05
26 *1596:D *548:94 8.73389e-06
27 *1673:C *1673:A 0.000254964
28 *1673:C *536:24 1.07797e-05
29 *1674:C *1692:A1 1.82559e-05
30 *534:48 *565:33 0.000151616
31 *534:50 *565:33 0
32 *534:66 *1746:S 4.66108e-05
33 *534:66 *561:6 4.77757e-05
34 *534:66 *561:23 0.000192269
35 *534:74 *536:24 7.17811e-05
36 *534:74 *539:68 0.000232105
37 *534:153 *1893:A2 0.00015997
38 *534:153 *1921:A 0
39 *534:153 *2015:A1 0
40 *534:153 *2059:A 0.000387279
41 *534:153 *538:28 0.000168714
42 *534:153 *538:45 0.000191392
43 *534:153 *540:116 0.000158297
44 *534:153 *541:18 0.000454278
45 *534:153 *541:36 4.19396e-05
46 *534:153 *553:68 0
47 *534:153 *554:111 8.48367e-05
48 *1596:C *1596:D 9.14692e-05
49 *1601:A2 *1596:D 0
50 *1674:B *1674:C 1.82559e-05
51 *1693:C *534:74 3.96737e-05
52 *1695:B *534:66 0.000137709
53 *1717:A3 *534:66 6.58339e-05
54 *1729:A *1596:D 3.72916e-05
55 *1739:B *1739:A 0.000289321
56 *1739:B *534:48 0.000716211
57 *1746:A0 *534:66 7.17811e-05
58 *1749:A *534:27 0.000154488
59 *1749:C *534:27 0.000194531
60 *1749:D *534:27 0.000361983
61 *1754:B1 *1596:D 8.7974e-05
62 *1754:B1 *534:50 5.02217e-05
63 *1756:B *534:27 0
64 *1757:A1 *534:27 0.000120186
65 *1758:B *534:27 0.000233925
66 *1764:B *1764:A 0.000251017
67 *1764:B *534:15 9.53428e-06
68 *1764:B *534:133 1.46744e-05
69 *1765:C *1801:A1 7.45881e-05
70 *1766:A1 *534:27 4.38051e-05
71 *1767:A *534:27 9.24127e-05
72 *1770:B *534:27 6.20952e-05
73 *1771:B *534:27 0.000233918
74 *1780:A1 *1596:D 3.44217e-05
75 *1800:A *534:133 0.000350486
76 *1800:B *1801:A1 0
77 *1801:A2 *1801:A1 0.000141599
78 *1806:B1 *534:139 0.000154036
79 *1827:B *534:139 0.000104998
80 *1890:A *534:153 4.21314e-05
81 *1891:B1 *534:153 0
82 *1894:B1 *1596:D 0.000120172
83 *1920:A2 *534:153 8.25609e-05
84 *1922:B1 *1596:D 0.000271089
85 *1923:A2 *534:153 0
86 *1923:B1 *534:153 3.18054e-05
87 *1923:C1 *534:153 7.63125e-05
88 *1927:B *534:153 7.96104e-06
89 *1929:A1 *534:153 8.49205e-05
90 *1930:B *534:153 1.52184e-05
91 *1930:C *534:153 5.33085e-05
92 *1963:B *534:153 0
93 *1967:C1 *534:153 0
94 *1968:B1 *534:153 0
95 *1971:B *534:153 0
96 *1978:A1 *1978:C1 0
97 *1978:A2 *1978:C1 4.00541e-06
98 *2017:B *1971:A 2.75145e-05
99 *2070:A *534:139 0.00341383
100 *2073:A *534:27 0.000250623
101 *2076:A *534:27 7.01129e-06
102 *2100:A *534:27 5.1805e-05
103 *48:6 *1673:C 8.57024e-05
104 *64:24 *534:66 9.47972e-06
105 *64:24 *534:74 0.000526175
106 *68:8 *534:74 1.19928e-05
107 *70:24 *534:66 0.00017423
108 *95:10 *534:50 0
109 *95:10 *534:66 0
110 *95:23 *534:48 6.28843e-05
111 *103:10 *1596:D 5.98073e-05
112 *112:10 *534:27 0.000139238
113 *112:19 *534:27 0.000222054
114 *112:30 *534:27 0.000131401
115 *114:8 *534:27 0
116 *132:10 *534:27 0.000492006
117 *135:18 *534:27 0.000757095
118 *192:97 *1971:A 2.75145e-05
119 *196:74 *534:153 0
120 *196:93 *534:153 0
121 *234:27 *534:153 0.000141606
122 *265:17 *534:153 0
123 *273:27 *1596:D 0.00142449
124 *283:12 *1673:C 0.000222126
125 *283:12 *534:74 0.000127373
126 *304:12 *534:50 0.000131875
127 *306:10 *534:153 0
128 *306:12 *534:153 7.57202e-05
129 *306:36 *534:153 0.000114912
130 *307:10 *534:153 7.23533e-05
131 *309:16 *534:153 2.75229e-05
132 *326:18 *534:139 0.000156708
133 *339:12 *534:153 0.00013521
134 *343:23 *534:153 0
135 *471:26 *1673:C 4.35432e-05
136 *512:25 *534:50 0
137 *518:54 *1596:D 0
138 *520:29 *1596:D 4.58211e-05
139 *521:10 *534:153 4.87789e-05
140 *523:10 *534:153 0
141 *526:62 *534:153 0
142 *527:18 *1978:C1 0
143 *527:18 *534:153 0.000128874
*RES
1 *2071:X *534:4 1.6 
2 *534:4 *1764:A 4.48 
3 *534:4 *534:15 0.36 
4 *534:15 *534:27 35.035 
5 *534:27 *1739:A 4.825 
6 *534:27 *534:48 16.56 
7 *534:48 *534:50 3.93 
8 *534:50 *534:66 14.46 
9 *534:66 *534:74 8.93 
10 *534:74 *1673:C 7.74 
11 *534:74 *1674:C 3.77625 
12 *534:66 *1717:B1 1.6 
13 *534:50 *1593:A 4.395 
14 *534:48 *1596:D 43.09 
15 *534:15 *534:133 6.0425 
16 *534:133 *534:139 10.7103 
17 *534:139 *534:153 49.805 
18 *534:153 *1978:C1 1.96 
19 *534:139 *1971:A 4.05 
20 *534:133 *1801:A1 6.1275 
*END

*D_NET *535 0.0151308
*CONN
*I *2007:A2 I *D sky130_fd_sc_hd__a21oi_1
*I *2009:A2 I *D sky130_fd_sc_hd__a32o_1
*I *2015:A1 I *D sky130_fd_sc_hd__a21o_1
*I *2008:A2 I *D sky130_fd_sc_hd__o22a_1
*I *2024:D I *D sky130_fd_sc_hd__nand4_1
*I *2023:B1 I *D sky130_fd_sc_hd__a22o_1
*I *1979:A2 I *D sky130_fd_sc_hd__a211oi_1
*I *2072:X O *D sky130_fd_sc_hd__clkbuf_2
*CAP
1 *2007:A2 2.14824e-05
2 *2009:A2 5.69923e-05
3 *2015:A1 0.000244032
4 *2008:A2 0
5 *2024:D 0
6 *2023:B1 8.35268e-05
7 *1979:A2 0.00144131
8 *2072:X 0
9 *535:69 0.000542127
10 *535:65 0.000440251
11 *535:61 0.00011374
12 *535:43 0.000296267
13 *535:22 0.00322532
14 *535:4 0.00157836
15 *1979:A2 *1983:D 2.38193e-05
16 *1979:A2 *2062:A 9.30787e-05
17 *1979:A2 *537:84 0.000196364
18 *2009:A2 *553:16 7.47215e-05
19 *2015:A1 *1957:A 4.66108e-05
20 *2015:A1 *553:68 0.000187792
21 *535:22 *2025:B1 8.25039e-05
22 *535:22 *537:69 0
23 *535:22 *553:16 1.73877e-05
24 *535:22 *563:14 0.000490155
25 *535:22 *563:69 0.000319583
26 *535:65 *553:16 0.000132467
27 *535:69 *1957:A 0.000120655
28 *1864:B2 *535:22 0.00017741
29 *1866:B1 *535:22 9.28013e-05
30 *1883:B *535:22 6.56015e-05
31 *1906:B1_N *535:22 2.7881e-05
32 *1929:B1 *1979:A2 4.82863e-05
33 *1930:C *1979:A2 4.21973e-05
34 *1956:A2 *535:22 0.000593514
35 *1970:B1 *2015:A1 0.000185405
36 *1980:A *1979:A2 4.82919e-05
37 *1980:B *1979:A2 4.82919e-05
38 *1983:A *1979:A2 8.17718e-05
39 *1983:A *535:22 5.65627e-05
40 *1984:B *1979:A2 9.07793e-05
41 *2007:B1 *2007:A2 7.23635e-05
42 *2007:B1 *535:22 3.21718e-05
43 *2007:B1 *535:61 3.83041e-05
44 *2008:B1 *535:69 6.0147e-06
45 *2009:B1 *535:69 8.5735e-05
46 *2010:B1 *535:69 3.13458e-05
47 *2012:B1 *2007:A2 8.23457e-05
48 *2012:B1 *535:22 4.82919e-05
49 *2012:B1 *535:61 4.82863e-05
50 *2023:A1 *2023:B1 0.000161529
51 *2023:A1 *535:43 8.37704e-05
52 *2023:A2 *2023:B1 7.71626e-05
53 *2023:A2 *535:43 4.82919e-05
54 *2023:B2 *2023:B1 3.08677e-05
55 *2024:A *535:43 0.000837286
56 *2052:A *535:22 0.000214175
57 *2072:A *535:22 1.92979e-05
58 *2118:A *535:22 0
59 *234:12 *535:22 0.000108527
60 *256:12 *535:22 5.02217e-05
61 *305:12 *1979:A2 0.00027299
62 *309:8 *1979:A2 3.99879e-05
63 *310:12 *1979:A2 3.81908e-06
64 *338:8 *2015:A1 4.9968e-05
65 *363:10 *1979:A2 3.1562e-06
66 *366:12 *1979:A2 3.90266e-05
67 *367:6 *1979:A2 1.61831e-05
68 *490:27 *1979:A2 0
69 *490:48 *535:22 8.39218e-05
70 *492:20 *2009:A2 0
71 *492:20 *535:22 0
72 *492:20 *535:65 0
73 *524:25 *535:22 0.000142011
74 *525:39 *535:43 0.00034663
75 *525:92 *1979:A2 0
76 *525:92 *535:22 0
77 *527:45 *535:22 0.000119561
78 *529:14 *535:43 9.8249e-05
79 *532:24 *535:43 0.000451953
80 *534:153 *2015:A1 0
*RES
1 *2072:X *535:4 1.6 
2 *535:4 *535:22 38.645 
3 *535:22 *1979:A2 26.65 
4 *535:22 *535:43 12.11 
5 *535:43 *2023:B1 4.15 
6 *535:43 *2024:D 1.6 
7 *535:4 *535:61 0.45 
8 *535:61 *535:65 3.635 
9 *535:65 *535:69 5.555 
10 *535:69 *2008:A2 1.6 
11 *535:69 *2015:A1 11 
12 *535:65 *2009:A2 4.47 
13 *535:61 *2007:A2 2.395 
*END

*D_NET *536 0.0145146
*CONN
*I *1596:B I *D sky130_fd_sc_hd__or4_4
*I *1694:B1 I *D sky130_fd_sc_hd__a21o_1
*I *1693:A I *D sky130_fd_sc_hd__and3_1
*I *1674:A I *D sky130_fd_sc_hd__or4_4
*I *1673:A I *D sky130_fd_sc_hd__nor4_1
*I *2073:X O *D sky130_fd_sc_hd__buf_6
*CAP
1 *1596:B 0.00149899
2 *1694:B1 2.1108e-05
3 *1693:A 3.45455e-05
4 *1674:A 0
5 *1673:A 0.000198157
6 *2073:X 0.00176917
7 *536:24 0.000323273
8 *536:22 0.000272129
9 *536:20 0.000926047
10 *536:16 0.00406064
11 *1596:B *1869:A2 0.00015639
12 *1596:B *538:12 5.95694e-05
13 *1596:B *543:125 0.000518721
14 *1596:B *548:53 0.000271314
15 *1693:A *539:68 0.000123225
16 *536:16 *1725:A 0.000204456
17 *536:22 *539:85 0
18 *536:24 *539:85 0
19 *1672:C *1673:A 7.23533e-05
20 *1673:B *1673:A 4.99619e-05
21 *1673:C *1673:A 0.000254964
22 *1673:C *536:24 1.07797e-05
23 *1678:A *536:20 0
24 *1694:A2 *1694:B1 8.49205e-05
25 *1716:A1 *1693:A 8.65961e-05
26 *1722:A0 *536:20 0
27 *1733:B *536:20 1.7635e-05
28 *1768:A0 *536:16 4.31056e-05
29 *1768:A1 *536:16 8.65961e-05
30 *1768:S *536:16 0.000421961
31 *1769:B *536:16 5.83373e-05
32 *1777:B *536:20 0.000370129
33 *1781:A1 *536:20 0
34 *1789:A_N *536:16 0.000156754
35 *1804:B1 *536:16 0
36 *1804:C1 *536:16 0
37 *1805:C *536:16 1.17409e-05
38 *1805:D *536:16 0
39 *1839:A *536:16 0
40 *1846:A1 *1596:B 4.66108e-05
41 *1846:B1 *1596:B 3.00381e-05
42 *2051:A *536:16 0
43 *2072:A *536:16 0
44 *2112:A *1673:A 2.75229e-05
45 *43:12 *1673:A 6.61973e-05
46 *43:12 *536:24 9.50342e-06
47 *47:8 *1673:A 0.000121437
48 *48:6 *1673:A 2.05056e-05
49 *49:14 *1673:A 1.82563e-05
50 *49:42 *536:24 5.93761e-05
51 *52:10 *536:22 0
52 *52:23 *536:20 0
53 *61:26 *1694:B1 8.23457e-05
54 *105:10 *536:20 0
55 *135:18 *536:16 0.000356225
56 *144:12 *536:16 9.29751e-06
57 *145:16 *536:16 6.55328e-05
58 *155:14 *536:16 0
59 *273:27 *536:16 0
60 *273:27 *536:20 0
61 *283:12 *536:20 1.07797e-05
62 *283:12 *536:22 2.58818e-05
63 *283:12 *536:24 1.44259e-05
64 *283:85 *536:16 0.000219628
65 *283:85 *536:20 0.000532857
66 *337:16 *1596:B 0
67 *337:60 *1596:B 0
68 *471:49 *536:20 0.000541221
69 *471:49 *536:22 2.15594e-05
70 *498:23 *536:16 0
71 *534:74 *536:24 7.17811e-05
*RES
1 *2073:X *536:16 38.29 
2 *536:16 *536:20 18.66 
3 *536:20 *536:22 1.635 
4 *536:22 *536:24 2.4 
5 *536:24 *1673:A 8.61 
6 *536:24 *1674:A 3.6 
7 *536:22 *1693:A 4.74 
8 *536:20 *1694:B1 4.395 
9 *536:16 *1596:B 31.165 
*END

*D_NET *537 0.0115402
*CONN
*I *1964:A2 I *D sky130_fd_sc_hd__a21oi_1
*I *1965:A2 I *D sky130_fd_sc_hd__o22a_1
*I *1981:B I *D sky130_fd_sc_hd__nand2_1
*I *2022:B I *D sky130_fd_sc_hd__nand2_1
*I *2038:A2 I *D sky130_fd_sc_hd__a31o_1
*I *1966:A2 I *D sky130_fd_sc_hd__a32o_1
*I *1970:A1 I *D sky130_fd_sc_hd__a21o_1
*I *1957:A I *D sky130_fd_sc_hd__xnor2_1
*I *2074:X O *D sky130_fd_sc_hd__buf_2
*CAP
1 *1964:A2 8.15547e-05
2 *1965:A2 0
3 *1981:B 0
4 *2022:B 0.000283625
5 *2038:A2 2.81017e-05
6 *1966:A2 0.000157693
7 *1970:A1 0.000104219
8 *1957:A 0.00015267
9 *2074:X 6.20884e-05
10 *537:84 0.000368581
11 *537:69 0.0013189
12 *537:52 0.00153584
13 *537:46 0.000250742
14 *537:42 0.000439762
15 *537:12 0.000397655
16 *537:6 0.000482623
17 *1957:A *2008:A1 2.16833e-05
18 *1966:A2 *1919:A2 4.99619e-05
19 *1970:A1 *2008:A1 5.73362e-05
20 *1970:A1 *553:47 4.82919e-05
21 *537:42 *1921:A 0
22 *537:42 *554:111 0
23 *537:52 *1919:A2 2.7648e-05
24 *537:69 *1982:B1 7.16919e-05
25 *1891:B1 *537:69 0
26 *1892:A1 *537:69 0.000137777
27 *1895:A2 *537:69 0
28 *1919:B1 *537:42 4.71081e-05
29 *1920:B1 *537:42 5.16348e-05
30 *1956:A1 *537:42 0
31 *1956:B1 *1970:A1 0.000154481
32 *1956:B1 *537:12 0.000200318
33 *1956:B1 *537:42 7.11809e-05
34 *1957:B *1957:A 0.000122331
35 *1964:A1 *1964:A2 8.69182e-05
36 *1964:A1 *537:46 6.1357e-05
37 *1964:A1 *537:52 6.07575e-06
38 *1965:B1 *1964:A2 4.66108e-05
39 *1965:B1 *537:46 1.08758e-05
40 *1965:B2 *1964:A2 3.51884e-05
41 *1965:B2 *537:42 5.33085e-05
42 *1965:B2 *537:46 2.75229e-05
43 *1966:A1 *1966:A2 4.66108e-05
44 *1966:B1 *1966:A2 1.08758e-05
45 *1967:A2 *1966:A2 9.9571e-05
46 *1967:C1 *1964:A2 0.000122325
47 *1969:A *1966:A2 1.91597e-05
48 *1969:C *1966:A2 8.23457e-05
49 *1979:A2 *537:84 0.000196364
50 *1981:A *537:84 5.14739e-05
51 *1982:A1 *537:69 0.000163937
52 *1984:B *537:84 8.23457e-05
53 *1985:A *537:84 1.17309e-05
54 *1985:B *2038:A2 9.50342e-06
55 *2008:B1 *1957:A 2.65814e-06
56 *2008:B2 *1970:A1 5.4003e-05
57 *2008:B2 *537:12 9.14049e-05
58 *2009:B2 *537:42 0
59 *2012:B1 *537:6 3.03775e-05
60 *2012:B1 *537:12 3.1835e-05
61 *2015:A1 *1957:A 4.66108e-05
62 *2037:A *2022:B 9.66021e-05
63 *2050:B1 *1964:A2 1.61831e-05
64 *2052:A *537:69 9.41342e-05
65 *2074:A *537:12 2.00134e-05
66 *2118:A *537:52 7.23602e-05
67 *188:71 *537:42 0.000147397
68 *253:12 *537:69 0
69 *259:12 *537:69 0.000116568
70 *287:12 *537:69 0.000339879
71 *338:8 *537:12 2.1444e-05
72 *338:8 *537:42 7.23533e-05
73 *490:48 *1966:A2 0.000266164
74 *490:48 *537:52 5.12017e-06
75 *490:48 *537:69 1.0183e-05
76 *497:52 *537:52 8.49205e-05
77 *497:56 *537:52 5.95508e-05
78 *497:56 *537:69 6.55406e-05
79 *518:105 *537:52 3.79555e-05
80 *520:53 *537:69 0.000126679
81 *524:25 *537:69 0.000817262
82 *524:52 *537:69 0.000332536
83 *525:92 *2038:A2 4.9968e-05
84 *525:92 *537:69 0.000360218
85 *535:22 *537:69 0
86 *535:69 *1957:A 0.000120655
*RES
1 *2074:X *537:6 2.395 
2 *537:6 *537:12 5.195 
3 *537:12 *1957:A 6.735 
4 *537:12 *1970:A1 5.94 
5 *537:6 *537:42 10.33 
6 *537:42 *537:46 1.755 
7 *537:46 *537:52 5.03 
8 *537:52 *1966:A2 7.605 
9 *537:52 *537:69 30.495 
10 *537:69 *2038:A2 4.215 
11 *537:69 *537:84 4.535 
12 *537:84 *2022:B 6.19 
13 *537:84 *1981:B 1.6 
14 *537:46 *1965:A2 1.6 
15 *537:42 *1964:A2 4.135 
*END

*D_NET *538 0.0130595
*CONN
*I *1596:A I *D sky130_fd_sc_hd__or4_4
*I *1927:D I *D sky130_fd_sc_hd__and4_1
*I *1928:B1 I *D sky130_fd_sc_hd__a22oi_1
*I *1983:D I *D sky130_fd_sc_hd__and4_1
*I *1903:D I *D sky130_fd_sc_hd__and4_1
*I *2075:X O *D sky130_fd_sc_hd__buf_6
*CAP
1 *1596:A 2.21004e-05
2 *1927:D 0
3 *1928:B1 0
4 *1983:D 0.000642866
5 *1903:D 9.01671e-05
6 *2075:X 0.000560967
7 *538:49 0.000880424
8 *538:45 0.000691779
9 *538:28 0.00301464
10 *538:12 0.00305332
11 *1903:D *1904:A2 4.82919e-05
12 *1903:D *541:18 8.40213e-05
13 *538:12 *1899:A 0.000149694
14 *538:12 *2078:A 2.99518e-06
15 *538:12 *540:10 6.90876e-05
16 *538:12 *542:120 0
17 *538:28 *1833:A 8.65961e-05
18 *538:28 *540:10 0.00015806
19 *538:28 *540:116 1.8644e-05
20 *538:28 *541:12 3.4222e-05
21 *538:28 *545:29 2.97361e-05
22 *538:28 *547:82 0.000222375
23 *538:28 *554:75 0
24 *538:45 *541:12 2.92496e-05
25 *538:49 *1927:C 0.000122337
26 *538:49 *1928:A2 8.32062e-05
27 *1596:B *538:12 5.95694e-05
28 *1596:C *538:12 1.60083e-05
29 *1833:C *538:28 0.000106433
30 *1845:A *538:12 0.000120811
31 *1860:A *538:28 0.000198945
32 *1860:B *538:28 2.8185e-05
33 *1865:B1 *538:28 7.97096e-05
34 *1872:A *538:12 0
35 *1898:A *538:12 0
36 *1898:B *538:12 4.13171e-05
37 *1903:B *1983:D 7.23231e-06
38 *1904:A1 *538:28 0
39 *1904:A1 *538:45 4.36849e-05
40 *1924:C1 *538:12 4.04579e-05
41 *1924:C1 *538:28 6.34105e-05
42 *1927:B *538:49 2.05056e-05
43 *1955:B1 *538:12 1.94892e-05
44 *1968:A3 *538:28 0.000192125
45 *1968:B1 *538:28 0.000157959
46 *1979:A2 *1983:D 2.38193e-05
47 *2061:A *538:45 8.44359e-05
48 *2063:A *538:45 0
49 *2075:A *538:12 0
50 *207:6 *538:28 1.1085e-05
51 *207:10 *538:28 4.29107e-05
52 *234:12 *538:28 7.95488e-05
53 *261:18 *538:28 0
54 *337:60 *538:12 0
55 *366:12 *1983:D 9.50342e-06
56 *492:67 *538:28 0.000150921
57 *492:87 *538:28 1.7396e-05
58 *521:10 *538:45 7.06865e-05
59 *521:31 *1983:D 9.82856e-06
60 *521:39 *1983:D 4.82919e-05
61 *521:39 *538:49 2.05056e-05
62 *524:56 *538:28 0.000309612
63 *524:64 *538:12 0
64 *524:64 *538:28 0.000153816
65 *525:12 *538:45 1.61831e-05
66 *525:16 *538:49 6.51782e-07
67 *525:28 *1983:D 9.23197e-05
68 *525:37 *538:49 1.85674e-05
69 *525:92 *1983:D 1.73021e-05
70 *526:19 *538:45 0
71 *526:62 *538:28 0
72 *527:34 *1983:D 0.000124424
73 *528:22 *538:28 9.7688e-05
74 *529:14 *538:49 9.27255e-06
75 *529:51 *538:28 0
76 *534:153 *538:28 0.000168714
77 *534:153 *538:45 0.000191392
*RES
1 *2075:X *538:12 17.3 
2 *538:12 *538:28 44.88 
3 *538:28 *1903:D 4.74 
4 *538:28 *538:45 11.165 
5 *538:45 *538:49 3.225 
6 *538:49 *1983:D 10.5472 
7 *538:49 *1928:B1 1.6 
8 *538:45 *1927:D 1.6 
9 *538:12 *1596:A 1.96 
*END

*D_NET *539 0.0180886
*CONN
*I *1773:A I *D sky130_fd_sc_hd__or2_1
*I *1774:A I *D sky130_fd_sc_hd__nand2_1
*I *1744:A I *D sky130_fd_sc_hd__xor2_1
*I *1743:A I *D sky130_fd_sc_hd__and2_1
*I *2026:D_N I *D sky130_fd_sc_hd__or4b_1
*I *1669:B1 I *D sky130_fd_sc_hd__a21oi_1
*I *1672:A I *D sky130_fd_sc_hd__and3_1
*I *1690:A I *D sky130_fd_sc_hd__or2_1
*I *1691:A I *D sky130_fd_sc_hd__xnor2_1
*I *1750:A1 I *D sky130_fd_sc_hd__o22a_1
*I *2076:X O *D sky130_fd_sc_hd__buf_2
*CAP
1 *1773:A 1.25806e-05
2 *1774:A 3.63983e-05
3 *1744:A 0.000353735
4 *1743:A 0
5 *2026:D_N 0.000620628
6 *1669:B1 3.42699e-05
7 *1672:A 2.88537e-05
8 *1690:A 0
9 *1691:A 0.000673413
10 *1750:A1 2.03941e-05
11 *2076:X 0.000296192
12 *539:104 0.000955499
13 *539:85 0.000645309
14 *539:68 0.00115301
15 *539:37 0.001951
16 *539:35 0.000626683
17 *539:22 0.00061295
18 *539:18 0.00087669
19 *539:16 0.000211752
20 *539:12 0.000367479
21 *1773:A *565:73 8.65961e-05
22 *2026:D_N *551:107 0.000158109
23 *539:12 *1770:A 6.89558e-05
24 *539:12 *565:73 8.40213e-05
25 *539:22 *559:12 0.000159964
26 *539:22 *565:73 0
27 *539:37 *1742:S 0
28 *539:85 *546:121 0
29 *539:104 *1688:A1 1.19928e-05
30 *539:104 *2123:A 4.82863e-05
31 *1688:A2 *539:85 1.31519e-05
32 *1688:A2 *539:104 0.00010861
33 *1688:B1 *539:104 8.23457e-05
34 *1689:A2 *1669:B1 9.47454e-05
35 *1689:B1 *1669:B1 9.30787e-05
36 *1689:B1 *2026:D_N 8.73389e-06
37 *1691:B *1691:A 0.000127803
38 *1693:A *539:68 0.000123225
39 *1693:C *539:68 0.000109013
40 *1694:A2 *539:68 8.23457e-05
41 *1716:A1 *539:68 1.91597e-05
42 *1717:A2 *1691:A 0
43 *1742:A0 *1691:A 0
44 *1742:A0 *539:37 0
45 *1744:B *1744:A 0.000504641
46 *1745:A *1691:A 0.000318248
47 *1746:A1 *539:37 0
48 *1751:B *539:22 0
49 *1754:A2 *539:35 1.91597e-05
50 *1768:S *1774:A 8.65961e-05
51 *1769:B *539:12 1.41559e-05
52 *1773:B *539:16 0
53 *2026:C *2026:D_N 0.000158072
54 *2072:A *539:16 0.000129728
55 *2072:A *539:18 0.000216595
56 *2076:A *539:12 4.82863e-05
57 *2112:A *1672:A 1.83847e-05
58 *2112:A *539:104 3.26889e-05
59 *45:56 *2026:D_N 0
60 *47:8 *539:85 0
61 *49:14 *539:85 9.54399e-05
62 *49:42 *539:85 0.000202095
63 *52:10 *539:85 0
64 *61:26 *1691:A 0
65 *61:26 *539:37 0
66 *61:26 *539:68 0.000574251
67 *61:49 *1691:A 0.000224692
68 *64:14 *539:85 4.82863e-05
69 *64:24 *539:68 9.6578e-05
70 *64:24 *539:85 6.87687e-05
71 *66:12 *1691:A 8.65905e-05
72 *117:10 *539:37 0.000695022
73 *117:23 *1750:A1 4.82863e-05
74 *117:23 *539:35 0.000474117
75 *117:23 *539:37 9.50342e-06
76 *117:27 *539:18 9.51151e-07
77 *117:27 *539:22 0.000469075
78 *121:14 *539:35 0.000147066
79 *121:14 *539:37 0.000425969
80 *145:16 *539:12 6.36055e-06
81 *147:10 *539:18 0
82 *147:10 *539:22 0
83 *149:10 *539:16 3.39064e-05
84 *283:67 *2026:D_N 0.000124895
85 *471:20 *539:104 0.000102005
86 *471:41 *539:68 5.83373e-05
87 *498:23 *1773:A 7.57202e-05
88 *498:23 *539:12 0.00037595
89 *510:76 *539:22 0.000722978
90 *513:23 *539:85 6.28765e-05
91 *531:72 *539:68 0.00011379
92 *531:74 *539:68 9.50342e-06
93 *534:74 *539:68 0.000232105
94 *536:22 *539:85 0
95 *536:24 *539:85 0
*RES
1 *2076:X *539:12 7.96 
2 *539:12 *539:16 3.635 
3 *539:16 *539:18 2.655 
4 *539:18 *539:22 14.09 
5 *539:22 *1750:A1 2.05 
6 *539:22 *539:35 7.67 
7 *539:35 *539:37 12.855 
8 *539:37 *1691:A 14.175 
9 *539:37 *539:68 19.335 
10 *539:68 *1690:A 1.6 
11 *539:68 *539:85 10.045 
12 *539:85 *1672:A 2.05 
13 *539:85 *539:104 6.045 
14 *539:104 *1669:B1 6.725 
15 *539:104 *2026:D_N 15.425 
16 *539:35 *1743:A 3.6 
17 *539:18 *1744:A 9.585 
18 *539:16 *1774:A 4.395 
19 *539:12 *1773:A 2.395 
*END

*D_NET *540 0.0200264
*CONN
*I *1597:A I *D sky130_fd_sc_hd__or2_4
*I *1893:A2 I *D sky130_fd_sc_hd__o22a_1
*I *1886:B I *D sky130_fd_sc_hd__and3_1
*I *1887:A2 I *D sky130_fd_sc_hd__a21oi_1
*I *1892:A2 I *D sky130_fd_sc_hd__a21oi_1
*I *1894:A2 I *D sky130_fd_sc_hd__a32o_1
*I *1641:A1 I *D sky130_fd_sc_hd__a21o_1
*I *2025:A2 I *D sky130_fd_sc_hd__a22o_1
*I *1640:A1 I *D sky130_fd_sc_hd__o21ba_4
*I *1605:C1 I *D sky130_fd_sc_hd__a211oi_2
*I *2077:X O *D sky130_fd_sc_hd__buf_2
*CAP
1 *1597:A 4.61528e-05
2 *1893:A2 4.60032e-05
3 *1886:B 0
4 *1887:A2 0.000112173
5 *1892:A2 0
6 *1894:A2 0.000436584
7 *1641:A1 0.000289915
8 *2025:A2 0
9 *1640:A1 0.000877157
10 *1605:C1 0
11 *2077:X 0.000405612
12 *540:116 0.000437569
13 *540:110 0.000595851
14 *540:97 0.00136883
15 *540:70 0.00158096
16 *540:33 0.00173162
17 *540:22 0.000924489
18 *540:18 0.000627287
19 *540:12 0.000283702
20 *540:10 0.000468124
21 *1640:A1 *2025:B1 9.50342e-06
22 *1640:A1 *554:58 0.000124641
23 *1641:A1 *1599:A2 1.08758e-05
24 *1893:A2 *2059:A 0.000149766
25 *1894:A2 *1865:A2 1.34503e-05
26 *1894:A2 *2081:A 0.000100756
27 *540:33 *2025:B1 0.000420457
28 *540:33 *2078:A 0.000273114
29 *540:33 *550:32 0.000462835
30 *540:33 *554:58 0
31 *540:33 *554:75 0
32 *540:116 *2059:A 0.000159964
33 *1596:C *540:10 9.27255e-06
34 *1596:D *540:10 0.000237249
35 *1599:A3 *540:18 2.20418e-05
36 *1607:A1 *540:18 0.000179338
37 *1628:A *1640:A1 8.49205e-05
38 *1636:B1 *1640:A1 0.000122331
39 *1640:B1_N *1640:A1 8.40213e-05
40 *1641:B1 *1641:A1 8.73389e-06
41 *1835:B1 *540:97 0.000332737
42 *1836:A1 *540:97 9.28737e-05
43 *1865:A3 *1894:A2 4.82919e-05
44 *1865:B1 *1894:A2 0.000484915
45 *1865:B1 *540:97 0.000317785
46 *1886:A *1887:A2 0.000200615
47 *1886:A *540:116 3.23663e-05
48 *1891:B1 *540:110 4.82863e-05
49 *1892:B1 *540:97 0.000120655
50 *1892:B1 *540:110 0.0001249
51 *1894:A3 *1894:A2 3.83041e-05
52 *1894:B1 *1894:A2 5.84448e-05
53 *1895:B2 *540:110 8.8266e-05
54 *1896:C1 *540:97 9.49575e-05
55 *1915:B *1887:A2 0.000183442
56 *1968:A2 *540:18 0
57 *1968:A3 *540:18 0.000315917
58 *1968:A3 *540:22 0.00011379
59 *2023:A1 *540:33 5.33085e-05
60 *2025:A1 *1640:A1 0.000219178
61 *2027:D *1640:A1 1.1561e-05
62 *2028:A1 *1640:A1 0
63 *2028:A1 *540:33 0
64 *2052:A *540:97 0.000317278
65 *197:63 *540:97 9.66862e-06
66 *205:62 *540:97 0.000282734
67 *205:64 *1894:A2 0.000321675
68 *205:64 *540:97 0.000403687
69 *234:16 *540:97 0.000122331
70 *234:16 *540:110 0.000260466
71 *234:27 *540:110 8.88631e-05
72 *337:16 *540:10 0.000104979
73 *337:16 *540:12 2.99953e-05
74 *337:16 *540:18 0.00018615
75 *348:10 *540:10 3.09233e-05
76 *348:10 *540:12 3.79595e-05
77 *348:10 *540:18 0.000276259
78 *348:32 *540:10 3.76857e-05
79 *369:10 *1641:A1 0.000100142
80 *409:8 *540:33 0
81 *460:14 *1640:A1 4.82919e-05
82 *492:87 *540:33 0
83 *517:33 *1640:A1 0.000566613
84 *518:54 *1894:A2 4.61701e-06
85 *519:88 *1894:A2 9.82856e-06
86 *519:105 *1894:A2 4.43871e-06
87 *524:25 *540:97 0.00015771
88 *524:52 *540:97 0.000158389
89 *524:64 *540:10 8.53113e-06
90 *524:107 *1597:A 8.23457e-05
91 *524:113 *1894:A2 0.000124895
92 *534:153 *1893:A2 0.00015997
93 *534:153 *540:116 0.000158297
94 *538:12 *540:10 6.90876e-05
95 *538:28 *540:10 0.00015806
96 *538:28 *540:116 1.8644e-05
*RES
1 *2077:X *540:10 9.915 
2 *540:10 *540:12 0.4875 
3 *540:12 *540:18 7.1625 
4 *540:18 *540:22 3.38 
5 *540:22 *1605:C1 1.6 
6 *540:22 *540:33 20.885 
7 *540:33 *1640:A1 21.765 
8 *540:33 *2025:A2 3.6 
9 *540:18 *1641:A1 6.81 
10 *540:12 *540:70 0.5 
11 *540:70 *1894:A2 7.15237 
12 *540:70 *540:97 10.219 
13 *540:97 *1892:A2 1.6 
14 *540:97 *540:110 7.4 
15 *540:110 *540:116 7.1 
16 *540:116 *1887:A2 4.75 
17 *540:116 *1886:B 1.6 
18 *540:110 *1893:A2 5.49 
19 *540:10 *1597:A 4.395 
*END

*D_NET *541 0.005578
*CONN
*I *1904:A2 I *D sky130_fd_sc_hd__a22oi_1
*I *1903:C I *D sky130_fd_sc_hd__and4_1
*I *1927:C I *D sky130_fd_sc_hd__and4_1
*I *1928:A2 I *D sky130_fd_sc_hd__a22oi_1
*I *1982:A2 I *D sky130_fd_sc_hd__a22oi_1
*I *1983:C I *D sky130_fd_sc_hd__and4_1
*I *2078:X O *D sky130_fd_sc_hd__buf_1
*CAP
1 *1904:A2 0.000111843
2 *1903:C 0
3 *1927:C 2.54668e-05
4 *1928:A2 4.67685e-05
5 *1982:A2 0
6 *1983:C 7.12342e-05
7 *2078:X 0.000137228
8 *541:54 7.22353e-05
9 *541:36 0.000500832
10 *541:18 0.000761248
11 *541:12 0.000580721
12 *1904:A2 *1904:B1 2.33223e-05
13 *1983:C *1926:B 4.45953e-05
14 *541:12 *2078:A 2.75229e-05
15 *541:18 *2059:A 0.000695008
16 *541:36 *1926:B 0.000111191
17 *541:36 *2059:A 0.000266031
18 *1903:B *541:18 0.000197264
19 *1903:D *1904:A2 4.82919e-05
20 *1903:D *541:18 8.40213e-05
21 *1904:A1 *1904:A2 5.8864e-05
22 *1904:A1 *541:12 9.58495e-05
23 *1927:B *1927:C 4.82919e-05
24 *1930:C *541:36 0.000118534
25 *1984:A *541:36 4.66108e-05
26 *307:10 *541:36 6.28498e-05
27 *366:12 *1983:C 4.66108e-05
28 *521:47 *1983:C 0.000178501
29 *521:47 *541:36 0.000104013
30 *525:12 *1927:C 3.63661e-05
31 *525:12 *1928:A2 5.83121e-06
32 *525:16 *1928:A2 4.75416e-05
33 *527:18 *541:36 9.27326e-05
34 *527:76 *1904:A2 4.36521e-05
35 *527:76 *541:18 2.16917e-05
36 *534:153 *541:18 0.000454278
37 *534:153 *541:36 4.19396e-05
38 *538:28 *541:12 3.4222e-05
39 *538:45 *541:12 2.92496e-05
40 *538:49 *1927:C 0.000122337
41 *538:49 *1928:A2 8.32062e-05
*RES
1 *2078:X *541:12 7.865 
2 *541:12 *541:18 12.44 
3 *541:18 *541:36 11.4838 
4 *541:36 *1983:C 3.81625 
5 *541:36 *1982:A2 1.6 
6 *541:18 *541:54 2 
7 *541:54 *1928:A2 2.75875 
8 *541:54 *1927:C 2.74 
9 *541:12 *1903:C 1.6 
10 *541:12 *1904:A2 3.81625 
*END

*D_NET *542 0.0245046
*CONN
*I *2078:A I *D sky130_fd_sc_hd__buf_1
*I *2077:A I *D sky130_fd_sc_hd__buf_2
*I *1870:A I *D sky130_fd_sc_hd__xnor2_1
*I *1645:A I *D sky130_fd_sc_hd__nor2_1
*I *1591:A I *D sky130_fd_sc_hd__inv_2
*I *1766:B2 I *D sky130_fd_sc_hd__o32a_1
*I *1750:B1 I *D sky130_fd_sc_hd__o22a_1
*I *1748:A I *D sky130_fd_sc_hd__xnor2_1
*I *2079:X O *D sky130_fd_sc_hd__clkbuf_4
*CAP
1 *2078:A 0.00236698
2 *2077:A 0
3 *1870:A 0
4 *1645:A 0.000904902
5 *1591:A 0.000100228
6 *1766:B2 5.55053e-05
7 *1750:B1 5.24011e-05
8 *1748:A 0.000151962
9 *2079:X 0
10 *542:120 0.00307208
11 *542:109 0.00145641
12 *542:63 0.00141446
13 *542:55 0.00217322
14 *542:36 0.00113448
15 *542:21 0.00029071
16 *542:4 0.000323881
17 *1645:A *546:121 0.00100849
18 *1645:A *565:58 0.000153849
19 *2078:A *1597:B 0
20 *2078:A *1605:A1 3.83194e-05
21 *2078:A *2081:A 0.000162409
22 *2078:A *543:42 0
23 *2078:A *545:29 2.35512e-05
24 *2078:A *550:32 0.000129464
25 *2078:A *550:41 1.61831e-05
26 *542:21 *1757:A2 8.40213e-05
27 *542:55 *1757:A2 1.19928e-05
28 *542:55 *558:8 0.000177064
29 *542:55 *559:12 2.49909e-05
30 *542:55 *565:8 6.54567e-06
31 *542:109 *1725:A 0.000118081
32 *542:109 *1847:A 1.4174e-05
33 *542:109 *543:108 4.99782e-05
34 *1596:C *542:63 3.99339e-05
35 *1596:D *2078:A 0
36 *1601:A2 *2078:A 0.000225175
37 *1604:A1 *2078:A 0.00015639
38 *1608:A1 *2078:A 3.57768e-05
39 *1608:A2 *2078:A 4.9968e-05
40 *1618:B *2078:A 0.000119756
41 *1663:B *1645:A 0.000127372
42 *1675:A *1645:A 5.16418e-05
43 *1679:A *1645:A 4.82863e-05
44 *1722:A0 *1645:A 8.8266e-05
45 *1732:A *542:109 2.45351e-05
46 *1735:B1 *542:63 0.000117832
47 *1749:C *1748:A 8.77073e-05
48 *1751:B *1750:B1 7.47145e-05
49 *1757:A3 *1766:B2 4.39001e-05
50 *1757:A3 *542:36 5.56629e-05
51 *1757:B1 *1750:B1 8.5242e-05
52 *1757:B1 *542:36 7.49589e-05
53 *1761:C *542:63 0.000135312
54 *1780:A1 *542:63 0.000304226
55 *1782:A *542:55 6.81378e-05
56 *1782:B *542:55 0.000305554
57 *1783:A *542:109 0.00090708
58 *1783:B *542:109 0.000136877
59 *1785:A *542:109 4.14369e-05
60 *1787:B1 *542:55 1.31297e-05
61 *1791:A *542:109 0.000195943
62 *1847:B *542:109 0.000122325
63 *1855:B *2078:A 4.66108e-05
64 *1855:C *2078:A 6.63894e-05
65 *1863:B *2078:A 0.000159957
66 *1869:B1 *542:109 6.97118e-05
67 *1870:B *542:109 8.65961e-05
68 *1872:A *542:120 0
69 *1922:B1 *2078:A 0
70 *1922:B1 *542:120 1.39456e-05
71 *1968:A3 *2078:A 0
72 *2079:A *1748:A 5.56629e-05
73 *52:10 *1645:A 0.000107524
74 *52:23 *1645:A 0.000127416
75 *53:10 *1645:A 7.46606e-05
76 *61:26 *1645:A 0.000159269
77 *97:10 *542:63 0.000600971
78 *97:10 *542:109 8.53113e-06
79 *97:21 *542:109 0.000131408
80 *107:6 *542:109 2.75145e-05
81 *110:14 *542:55 9.77048e-06
82 *121:29 *1766:B2 0.000116158
83 *121:29 *542:36 1.97849e-05
84 *130:14 *542:63 5.12017e-06
85 *132:10 *542:21 4.66108e-05
86 *135:18 *1750:B1 0.000159957
87 *135:18 *1766:B2 7.21296e-06
88 *135:18 *542:36 2.28792e-05
89 *155:14 *542:63 0.000317121
90 *155:14 *542:109 1.97849e-05
91 *221:12 *542:109 0.000308724
92 *233:12 *2078:A 6.72692e-05
93 *241:39 *1645:A 0.000489644
94 *253:12 *2078:A 0.000236026
95 *283:8 *1591:A 0.00012657
96 *283:8 *1645:A 7.49327e-05
97 *283:67 *1645:A 0.000161407
98 *283:85 *542:63 0.000110315
99 *369:14 *2078:A 0.000151432
100 *391:12 *2078:A 1.17114e-05
101 *391:16 *2078:A 0
102 *471:49 *1591:A 2.0514e-05
103 *471:49 *1645:A 1.91597e-05
104 *474:14 *2078:A 0
105 *479:10 *1645:A 0.00015639
106 *490:27 *2078:A 0.000160658
107 *515:33 *1645:A 0.000231564
108 *527:109 *2078:A 0.000160635
109 *531:72 *542:63 0
110 *538:12 *2078:A 2.99518e-06
111 *538:12 *542:120 0
112 *540:33 *2078:A 0.000273114
113 *541:12 *2078:A 2.75229e-05
*RES
1 *2079:X *542:4 1.6 
2 *542:4 *1748:A 8.795 
3 *542:4 *542:21 4.52 
4 *542:21 *1750:B1 5.49 
5 *542:21 *542:36 3.575 
6 *542:36 *1766:B2 6.98 
7 *542:36 *542:55 14.555 
8 *542:55 *542:63 14.645 
9 *542:63 *1591:A 3.445 
10 *542:63 *1645:A 30.5 
11 *542:55 *542:109 20.96 
12 *542:109 *1870:A 1.6 
13 *542:109 *542:120 12.155 
14 *542:120 *2077:A 3.6 
15 *542:120 *2078:A 49 
*END

*D_NET *543 0.0169293
*CONN
*I *1869:A3 I *D sky130_fd_sc_hd__o31a_1
*I *1725:A I *D sky130_fd_sc_hd__and2_1
*I *1724:A I *D sky130_fd_sc_hd__nor2_1
*I *1847:A I *D sky130_fd_sc_hd__xnor2_1
*I *1597:B I *D sky130_fd_sc_hd__or2_4
*I *1605:A1 I *D sky130_fd_sc_hd__a211oi_2
*I *1618:A I *D sky130_fd_sc_hd__nor2_1
*I *1619:A I *D sky130_fd_sc_hd__or2_1
*I *1592:A I *D sky130_fd_sc_hd__inv_2
*I *1780:C1 I *D sky130_fd_sc_hd__o211a_1
*I *2080:X O *D sky130_fd_sc_hd__clkbuf_4
*CAP
1 *1869:A3 0
2 *1725:A 0.000347794
3 *1724:A 3.56364e-05
4 *1847:A 3.98661e-05
5 *1597:B 0.000403904
6 *1605:A1 3.5037e-05
7 *1618:A 9.02697e-05
8 *1619:A 0.000341974
9 *1592:A 0
10 *1780:C1 0.000490717
11 *2080:X 0
12 *543:125 0.000850015
13 *543:108 0.00065309
14 *543:104 0.000389449
15 *543:76 0.000493321
16 *543:63 0.000458411
17 *543:42 0.00104701
18 *543:29 0.000504029
19 *543:23 0.000751629
20 *543:4 0.000886786
21 *1605:A1 *550:32 0.000119756
22 *1619:A *552:38 0.000104321
23 *1619:A *552:46 0.000138544
24 *543:29 *1869:A1 8.01218e-05
25 *543:29 *548:94 0.000113269
26 *543:42 *547:12 0.000206817
27 *543:42 *548:94 0.000641515
28 *543:104 *1869:A1 0.000254436
29 *543:104 *1869:A2 0.00022921
30 *1596:B *543:125 0.000518721
31 *1596:D *543:42 0.000143779
32 *1599:A1 *1597:B 0.000151432
33 *1599:A1 *1618:A 3.09164e-05
34 *1599:A1 *543:76 0.000175214
35 *1601:A2 *543:42 0
36 *1604:A1 *1605:A1 4.82863e-05
37 *1604:A2 *543:42 6.28765e-05
38 *1605:B1 *1597:B 0.000197126
39 *1605:B1 *543:76 8.53113e-06
40 *1607:A2 *1597:B 0.000116158
41 *1619:B *1619:A 6.02123e-05
42 *1725:B *1725:A 3.96284e-05
43 *1728:A0 *543:29 0.000119756
44 *1728:A0 *543:42 0.000222123
45 *1732:A *1847:A 1.08758e-05
46 *1776:B *543:23 4.66108e-05
47 *1778:A1 *1780:C1 5.46841e-05
48 *1778:A2 *1780:C1 0.000154433
49 *1781:A1 *1780:C1 2.7441e-05
50 *1781:B1 *1780:C1 0.000593201
51 *1781:C1 *1780:C1 0.000168176
52 *1781:C1 *543:23 0.000302131
53 *1783:A *1725:A 3.24882e-05
54 *1783:A *543:125 4.19797e-05
55 *1783:B *1725:A 4.66108e-05
56 *1788:B *1780:C1 0.00022786
57 *1847:B *1847:A 5.83121e-06
58 *1847:B *543:108 6.71882e-05
59 *1867:A2 *543:23 0.000416828
60 *1868:B1 *543:23 5.83121e-06
61 *1869:B1 *543:108 0.000122331
62 *1968:A3 *1597:B 7.17543e-05
63 *1968:A3 *1618:A 6.56525e-05
64 *1968:A3 *543:76 9.68865e-05
65 *2054:A *543:42 0
66 *2078:A *1597:B 0
67 *2078:A *1605:A1 3.83194e-05
68 *2078:A *543:42 0
69 *97:25 *1725:A 2.39856e-05
70 *219:25 *1847:A 4.66108e-05
71 *219:25 *543:29 9.90903e-05
72 *219:25 *543:104 0.00035215
73 *219:25 *543:108 0.000291029
74 *219:40 *543:125 2.92496e-05
75 *273:27 *543:42 0.000127929
76 *283:85 *1725:A 0.000204456
77 *337:16 *1597:B 6.45618e-05
78 *337:18 *1597:B 1.64562e-05
79 *391:12 *1597:B 3.63701e-06
80 *391:16 *1597:B 0.000190179
81 *423:10 *1619:A 0.00033406
82 *423:10 *543:42 0
83 *454:10 *1618:A 3.00448e-05
84 *474:14 *1619:A 0
85 *474:14 *543:42 0.000159771
86 *493:34 *543:104 1.44259e-05
87 *516:79 *1618:A 0.000158394
88 *516:112 *543:125 7.44375e-05
89 *518:54 *543:42 2.67591e-05
90 *523:39 *1618:A 4.82919e-05
91 *524:107 *1597:B 4.82919e-05
92 *536:16 *1725:A 0.000204456
93 *542:109 *1725:A 0.000118081
94 *542:109 *1847:A 1.4174e-05
95 *542:109 *543:108 4.99782e-05
*RES
1 *2080:X *543:4 1.6 
2 *543:4 *1780:C1 15.89 
3 *543:4 *543:23 10.04 
4 *543:23 *543:29 5.285 
5 *543:29 *1592:A 1.6 
6 *543:29 *543:42 16.195 
7 *543:42 *1619:A 13.265 
8 *543:42 *543:63 6.245 
9 *543:63 *1618:A 6.195 
10 *543:63 *543:76 2.145 
11 *543:76 *1605:A1 4.74 
12 *543:76 *1597:B 12.87 
13 *543:23 *543:104 10.01 
14 *543:104 *543:108 3.915 
15 *543:108 *1847:A 2.41 
16 *543:108 *543:125 14.02 
17 *543:125 *1724:A 2.05 
18 *543:125 *1725:A 12.26 
19 *543:104 *1869:A3 1.6 
*END

*D_NET *544 0.01884
*CONN
*I *2064:A I *D sky130_fd_sc_hd__buf_2
*I *1841:A I *D sky130_fd_sc_hd__xnor2_1
*I *1840:A I *D sky130_fd_sc_hd__nand2_1
*I *2107:X O *D sky130_fd_sc_hd__clkbuf_2
*CAP
1 *2064:A 0
2 *1841:A 0.00029341
3 *1840:A 1.11194e-05
4 *2107:X 0.000840327
5 *544:34 0.00168899
6 *544:30 0.00351202
7 *544:18 0.00296788
8 *544:18 *2062:A 0.000352156
9 *544:34 *551:107 0.000139245
10 *544:34 *551:120 0.000406279
11 *1617:A *544:30 3.45588e-05
12 *1622:B1 *544:30 2.75145e-05
13 *1638:B1 *544:30 0.000341896
14 *1663:A *544:34 0.000162325
15 *1668:A *544:30 0.000132415
16 *1685:B *544:34 7.89689e-05
17 *1791:A *544:34 0
18 *1795:B1 *544:34 9.07429e-05
19 *1795:C1 *544:34 0.000138266
20 *1825:A1 *544:34 3.90697e-05
21 *1827:B *1841:A 0.000148344
22 *1838:B *544:34 8.6099e-05
23 *1839:B *1841:A 0.000160651
24 *1839:B *544:34 0
25 *1843:B1 *1840:A 4.99619e-05
26 *1844:A1 *1841:A 0
27 *1846:B1 *544:34 8.89673e-05
28 *1847:B *544:34 0.000136877
29 *1852:A3 *1841:A 0
30 *1852:B1 *1841:A 8.36546e-05
31 *1868:A2 *1841:A 2.0117e-05
32 *2003:B *544:18 0
33 *2043:A *544:18 0
34 *2060:A *544:18 8.96017e-05
35 *2067:A *544:18 0.000141599
36 *2069:A *1841:A 0.000562829
37 *2070:A *1841:A 4.10051e-05
38 *2106:A *544:18 6.4368e-05
39 *2107:A *544:18 7.3579e-05
40 *43:6 *544:30 0.000110563
41 *45:56 *544:34 0
42 *191:24 *544:34 0.000223278
43 *214:12 *1840:A 1.83847e-05
44 *221:12 *544:34 0
45 *287:12 *544:30 0.000198934
46 *326:18 *1841:A 0.000314745
47 *388:10 *544:18 5.30673e-05
48 *431:12 *544:18 0.000394432
49 *443:20 *544:30 7.4542e-05
50 *471:6 *544:30 0.000166919
51 *471:10 *544:30 1.3676e-05
52 *493:23 *544:34 0.00039474
53 *493:34 *544:34 1.40616e-05
54 *501:8 *1841:A 1.93416e-05
55 *516:23 *544:34 1.52776e-05
56 *516:38 *544:34 0.000339893
57 *516:40 *544:34 5.4003e-05
58 *516:42 *544:34 0.000160665
59 *516:112 *544:34 0.000556185
60 *519:29 *544:30 0.000237126
61 *519:58 *544:30 0.000717235
62 *519:125 *544:30 7.65418e-05
63 *523:16 *544:18 6.1357e-05
64 *523:16 *544:30 0.000878698
65 *523:52 *544:34 1.26626e-05
66 *524:6 *544:18 0.000198945
67 *524:25 *544:30 0.000481592
68 *529:63 *544:34 4.83522e-05
*RES
1 *2107:X *544:18 24.77 
2 *544:18 *544:30 42.275 
3 *544:30 *544:34 37.2 
4 *544:34 *1840:A 4.05 
5 *544:34 *1841:A 12.8925 
6 *544:18 *2064:A 1.6 
*END

*D_NET *545 0.0108325
*CONN
*I *1864:A2 I *D sky130_fd_sc_hd__o22a_1
*I *1857:B I *D sky130_fd_sc_hd__and4b_1
*I *1878:B I *D sky130_fd_sc_hd__nand2_1
*I *1862:B I *D sky130_fd_sc_hd__nand2_1
*I *1856:A2_N I *D sky130_fd_sc_hd__o2bb2a_1
*I *1865:A2 I *D sky130_fd_sc_hd__a32o_1
*I *2081:X O *D sky130_fd_sc_hd__clkbuf_2
*CAP
1 *1864:A2 0.000178198
2 *1857:B 0
3 *1878:B 0.000171639
4 *1862:B 0.000193838
5 *1856:A2_N 0.000193299
6 *1865:A2 0.000465376
7 *2081:X 0
8 *545:46 0.000489226
9 *545:37 0.000361424
10 *545:33 0.000473968
11 *545:29 0.00167836
12 *545:4 0.00153595
13 *545:29 *2081:A 6.96175e-05
14 *1836:A2 *545:29 4.94191e-05
15 *1836:A3 *545:29 2.20039e-05
16 *1836:B1 *545:29 1.12459e-05
17 *1837:C *545:29 8.35106e-05
18 *1856:A1_N *1856:A2_N 1.98893e-05
19 *1857:D *1856:A2_N 0.000184989
20 *1861:B *545:33 0
21 *1862:A *1862:B 4.99619e-05
22 *1863:B *1862:B 0.000417986
23 *1863:B *545:33 0
24 *1863:B *545:37 0
25 *1865:A3 *1865:A2 5.68039e-05
26 *1865:B1 *1865:A2 0.000102788
27 *1866:A2 *545:33 4.78726e-05
28 *1867:C1 *545:29 6.98801e-05
29 *1893:B1 *1864:A2 0.000123225
30 *1894:A2 *1865:A2 1.34503e-05
31 *1894:A3 *1865:A2 2.75229e-05
32 *1894:B1 *1865:A2 1.59999e-05
33 *1909:A *1862:B 5.16418e-05
34 *1922:B1 *545:29 6.04362e-05
35 *2078:A *545:29 2.35512e-05
36 *188:28 *1864:A2 0.000441688
37 *188:28 *545:29 0.000305462
38 *190:27 *545:33 0
39 *233:12 *545:33 6.02202e-05
40 *256:12 *1862:B 4.82863e-05
41 *490:27 *1878:B 6.36578e-05
42 *490:27 *545:33 0
43 *520:18 *545:29 0.000822764
44 *523:16 *1862:B 1.7396e-05
45 *523:39 *1862:B 0.00010727
46 *524:107 *1865:A2 4.38278e-05
47 *524:113 *1865:A2 2.91584e-05
48 *526:62 *1864:A2 0.000381094
49 *527:109 *1856:A2_N 4.82863e-05
50 *527:109 *1878:B 0.000313213
51 *527:109 *545:46 0.000199833
52 *528:22 *545:29 8.23457e-05
53 *528:34 *545:29 0.000118081
54 *529:51 *545:29 4.76569e-05
55 *532:24 *1862:B 0
56 *532:24 *545:33 0.000403466
57 *532:24 *545:37 2.59981e-05
58 *538:28 *545:29 2.97361e-05
*RES
1 *2081:X *545:4 1.6 
2 *545:4 *1865:A2 7.24 
3 *545:4 *545:29 25.55 
4 *545:29 *545:33 10.775 
5 *545:33 *545:37 2.615 
6 *545:37 *1856:A2_N 4.12 
7 *545:37 *545:46 1.83 
8 *545:46 *1862:B 11.51 
9 *545:46 *1878:B 8.81 
10 *545:33 *1857:B 3.6 
11 *545:29 *1864:A2 6.88 
*END

*D_NET *546 0.0231877
*CONN
*I *2081:A I *D sky130_fd_sc_hd__clkbuf_2
*I *2080:A I *D sky130_fd_sc_hd__clkbuf_4
*I *1710:A I *D sky130_fd_sc_hd__and3_1
*I *1709:B1 I *D sky130_fd_sc_hd__a21oi_1
*I *2032:B I *D sky130_fd_sc_hd__nand2_1
*I *1932:A2 I *D sky130_fd_sc_hd__a31oi_2
*I *1933:B I *D sky130_fd_sc_hd__nand2_1
*I *1986:B I *D sky130_fd_sc_hd__nand2_1
*I *1652:A I *D sky130_fd_sc_hd__nand2_1
*I *2082:X O *D sky130_fd_sc_hd__buf_2
*CAP
1 *2081:A 0.00128146
2 *2080:A 0.000244763
3 *1710:A 3.89595e-05
4 *1709:B1 0.000261943
5 *2032:B 0
6 *1932:A2 0.000218168
7 *1933:B 0
8 *1986:B 0
9 *1652:A 9.69071e-05
10 *2082:X 0
11 *546:121 0.00245873
12 *546:81 0.00118133
13 *546:73 0.00227452
14 *546:44 0.000679179
15 *546:35 0.00176407
16 *546:27 0.00259498
17 *546:10 0.00144421
18 *546:6 0.000516961
19 *1932:A2 *1934:B 0
20 *546:27 *549:23 0
21 *546:27 *551:49 0
22 *546:27 *552:46 0.000218804
23 *546:27 *552:56 7.63204e-05
24 *546:35 *1989:B2 5.98073e-05
25 *546:35 *2032:A 0.000190593
26 *546:35 *552:56 5.062e-06
27 *546:44 *1934:B 0
28 *546:73 *556:10 4.75576e-05
29 *546:121 *1692:A1 4.5783e-05
30 *546:121 *548:18 0
31 *546:121 *556:10 0.000194624
32 *546:121 *565:58 0.000546253
33 *1645:A *546:121 0.00100849
34 *1650:A0 *546:27 0.000238403
35 *1663:B *546:121 5.89912e-05
36 *1664:B *546:73 0.000129291
37 *1670:A1 *546:73 0.000157602
38 *1671:A3 *546:73 0.000157602
39 *1687:B *546:73 0
40 *1696:A *546:73 0
41 *1696:B *1652:A 5.0128e-05
42 *1698:B1 *1709:B1 0
43 *1698:B1 *546:73 3.19991e-05
44 *1703:A2 *1709:B1 2.56752e-06
45 *1709:A1 *1709:B1 6.29385e-06
46 *1709:A2 *1709:B1 0.000145185
47 *1721:A *546:121 2.96383e-05
48 *1721:B *546:121 0
49 *1722:A1 *546:121 7.23533e-05
50 *1731:B *546:121 4.92014e-05
51 *1733:B *2080:A 8.34464e-05
52 *1733:B *2081:A 2.57272e-05
53 *1746:A0 *546:81 7.01359e-05
54 *1776:A *546:121 3.82741e-05
55 *1867:A2 *546:121 0
56 *1894:A2 *2081:A 0.000100756
57 *1894:B1 *2081:A 0.000102577
58 *1896:C1 *2081:A 0.000454863
59 *1922:B1 *2081:A 1.58894e-05
60 *1932:A3 *1932:A2 4.82863e-05
61 *1986:A *546:44 0
62 *2035:A *546:35 0.000164874
63 *2035:B *546:27 0
64 *2036:A *546:35 0.000214272
65 *2037:A *1932:A2 0
66 *2037:A *546:35 0
67 *2037:A *546:44 0
68 *2037:B *546:35 4.07937e-05
69 *2078:A *2081:A 0.000162409
70 *2082:A *546:10 5.21046e-05
71 *2082:A *546:73 2.68721e-05
72 *41:8 *546:73 6.55328e-05
73 *41:19 *546:73 1.07797e-05
74 *52:10 *546:121 1.88904e-05
75 *61:26 *546:121 0.000156901
76 *64:14 *546:121 0.000141865
77 *74:8 *1709:B1 8.52845e-05
78 *82:20 *546:81 3.45117e-05
79 *82:24 *1710:A 4.77719e-05
80 *105:10 *2080:A 3.96153e-05
81 *205:64 *2081:A 0.000117047
82 *241:39 *546:73 6.63413e-05
83 *241:39 *546:121 2.05583e-05
84 *283:26 *1709:B1 8.52845e-05
85 *283:26 *546:81 8.10455e-05
86 *283:67 *546:81 0.000156528
87 *312:12 *546:44 0
88 *326:86 *2081:A 0
89 *375:12 *546:35 1.94805e-05
90 *375:12 *546:44 0.000147918
91 *471:20 *546:121 0.000179015
92 *479:10 *546:73 6.21553e-05
93 *479:10 *546:121 5.4003e-05
94 *479:12 *546:73 6.28498e-05
95 *483:8 *1652:A 8.65961e-05
96 *483:8 *546:27 0.000571998
97 *484:10 *546:73 9.82856e-06
98 *485:12 *1652:A 1.16578e-05
99 *485:25 *546:73 0.000181376
100 *493:10 *546:10 0
101 *493:10 *546:73 0
102 *510:12 *2080:A 0
103 *512:51 *546:121 0
104 *515:33 *546:121 0.000139012
105 *515:42 *546:121 0.0001147
106 *519:12 *1932:A2 6.36578e-05
107 *519:25 *1932:A2 0.000105849
108 *539:85 *546:121 0
109 *545:29 *2081:A 6.96175e-05
*RES
1 *2082:X *546:6 3.6 
2 *546:6 *546:10 3.125 
3 *546:10 *1652:A 3.445 
4 *546:10 *546:27 25.675 
5 *546:27 *546:35 19.775 
6 *546:35 *1986:B 3.6 
7 *546:35 *546:44 8.265 
8 *546:44 *1933:B 3.6 
9 *546:44 *1932:A2 7.98 
10 *546:27 *2032:B 1.6 
11 *546:6 *546:73 11.205 
12 *546:73 *546:81 15.1825 
13 *546:81 *1709:B1 8.6175 
14 *546:81 *1710:A 4.2825 
15 *546:73 *546:121 25.2553 
16 *546:121 *2080:A 5.03337 
17 *546:121 *2081:A 8.71923 
*END

*D_NET *547 0.0115682
*CONN
*I *1830:A2 I *D sky130_fd_sc_hd__o22a_1
*I *1828:B I *D sky130_fd_sc_hd__and2_1
*I *1881:A2 I *D sky130_fd_sc_hd__a21oi_1
*I *1880:B I *D sky130_fd_sc_hd__and3_1
*I *1599:A2 I *D sky130_fd_sc_hd__o41ai_4
*I *1807:B I *D sky130_fd_sc_hd__or3_1
*I *1598:B1 I *D sky130_fd_sc_hd__a2111oi_1
*I *1601:A1 I *D sky130_fd_sc_hd__a211o_1
*I *1603:A I *D sky130_fd_sc_hd__or2_1
*I *1602:A I *D sky130_fd_sc_hd__nor2_1
*I *2083:X O *D sky130_fd_sc_hd__buf_2
*CAP
1 *1830:A2 0.000350696
2 *1828:B 0
3 *1881:A2 5.0067e-05
4 *1880:B 1.41931e-05
5 *1599:A2 0.000143142
6 *1807:B 0.00011356
7 *1598:B1 0
8 *1601:A1 4.61655e-05
9 *1603:A 0
10 *1602:A 5.33548e-05
11 *2083:X 0
12 *547:96 0.000221471
13 *547:88 0.000346838
14 *547:82 0.000889423
15 *547:65 0.000652051
16 *547:45 0.000394927
17 *547:37 0.000648024
18 *547:26 0.000447678
19 *547:12 0.000301933
20 *547:4 0.000443243
21 *1601:A1 *1832:B1 1.19928e-05
22 *1830:A2 *550:54 0
23 *1830:A2 *550:65 0
24 *547:12 *1832:B1 7.9205e-06
25 *547:12 *548:94 0.000160641
26 *547:26 *1832:B1 2.19562e-06
27 *547:37 *1832:B1 7.68414e-06
28 *547:65 *1832:B1 5.26865e-05
29 *547:65 *554:75 0.000145034
30 *547:82 *1833:A 8.65961e-05
31 *1596:D *547:12 2.15594e-05
32 *1599:A4 *547:82 1.34503e-05
33 *1599:B1 *547:82 0.000123225
34 *1601:A2 *1602:A 8.65961e-05
35 *1601:A2 *547:12 5.83121e-06
36 *1601:A2 *547:26 0.000107415
37 *1601:C1 *1601:A1 1.67131e-05
38 *1601:C1 *547:37 0.000120655
39 *1607:A2 *1601:A1 1.08758e-05
40 *1607:A2 *547:37 2.03356e-05
41 *1607:B1 *547:37 2.75145e-05
42 *1641:A1 *1599:A2 1.08758e-05
43 *1832:A2 *547:88 1.14559e-05
44 *1833:B *1830:A2 7.23943e-06
45 *1833:B *547:82 2.11084e-05
46 *1833:C *547:82 7.06981e-05
47 *1853:B1 *547:88 1.08758e-05
48 *1862:A *1881:A2 5.506e-05
49 *1878:A *547:96 4.66108e-05
50 *1881:B1 *1881:A2 8.20228e-05
51 *1968:A2 *547:45 0.000446931
52 *1968:A2 *547:65 0.000265637
53 *38:34 *1881:A2 2.0857e-06
54 *182:16 *1807:B 4.39911e-06
55 *182:16 *547:45 1.54061e-06
56 *188:28 *1830:A2 0.000108737
57 *202:21 *547:88 0.000378275
58 *202:32 *547:88 8.28738e-05
59 *202:43 *1830:A2 0.000468221
60 *202:43 *547:88 2.07184e-05
61 *207:6 *547:82 3.64998e-06
62 *256:12 *1881:A2 2.87621e-05
63 *326:78 *1807:B 0.000120655
64 *326:78 *547:45 5.19173e-05
65 *326:86 *547:45 1.03572e-05
66 *337:60 *547:45 3.64998e-06
67 *348:10 *547:45 0.000165193
68 *348:32 *547:45 0.000255727
69 *369:6 *1599:A2 0.000108753
70 *369:6 *547:82 2.75229e-05
71 *369:10 *1599:A2 2.75229e-05
72 *380:12 *1602:A 4.82863e-05
73 *518:54 *547:12 0.000138196
74 *520:18 *1830:A2 0.00019637
75 *521:83 *1881:A2 8.23457e-05
76 *523:39 *547:88 4.60584e-05
77 *523:39 *547:96 8.40213e-05
78 *525:59 *1880:B 5.33085e-05
79 *525:59 *547:88 2.97004e-06
80 *525:59 *547:96 0.000351101
81 *529:35 *1830:A2 0.00017462
82 *529:35 *547:88 0.000506349
83 *532:24 *1880:B 5.16348e-05
84 *532:24 *547:96 0.000358944
85 *538:28 *547:82 0.000222375
86 *543:42 *547:12 0.000206817
*RES
1 *2083:X *547:4 1.6 
2 *547:4 *547:12 9.085 
3 *547:12 *1602:A 2.74 
4 *547:12 *1603:A 1.6 
5 *547:4 *547:26 2.52 
6 *547:26 *1601:A1 2.665 
7 *547:26 *547:37 2.52 
8 *547:37 *547:45 11.44 
9 *547:45 *1598:B1 1.6 
10 *547:45 *1807:B 3.085 
11 *547:37 *547:65 7.96 
12 *547:65 *1599:A2 4.135 
13 *547:65 *547:82 9.125 
14 *547:82 *547:88 8.765 
15 *547:88 *547:96 7.34 
16 *547:96 *1880:B 4.215 
17 *547:96 *1881:A2 5.3325 
18 *547:88 *1828:B 1.6 
19 *547:82 *1830:A2 11.145 
*END

*D_NET *548 0.0116991
*CONN
*I *2083:A I *D sky130_fd_sc_hd__buf_2
*I *1832:B1 I *D sky130_fd_sc_hd__a22o_1
*I *1590:A I *D sky130_fd_sc_hd__inv_2
*I *1869:A2 I *D sky130_fd_sc_hd__o31a_1
*I *1846:A2 I *D sky130_fd_sc_hd__o21a_1
*I *1731:A I *D sky130_fd_sc_hd__xnor2_2
*I *1681:B1 I *D sky130_fd_sc_hd__a21o_1
*I *1682:A I *D sky130_fd_sc_hd__and3_1
*I *2084:X O *D sky130_fd_sc_hd__buf_2
*CAP
1 *2083:A 0
2 *1832:B1 0.000892149
3 *1590:A 0.000313061
4 *1869:A2 0.000163055
5 *1846:A2 0
6 *1731:A 0.000113878
7 *1681:B1 0
8 *1682:A 0.000221842
9 *2084:X 9.33359e-05
10 *548:94 0.00133317
11 *548:73 0.00075408
12 *548:53 0.000543847
13 *548:38 0.000712327
14 *548:18 0.000614022
15 *548:10 0.0008406
16 *548:6 0.000324098
17 *1590:A *1585:A 5.03766e-05
18 *1590:A *1869:A1 0.000183731
19 *1590:A *2086:A 2.05056e-05
20 *1590:A *550:6 4.66826e-05
21 *1590:A *550:21 1.46744e-05
22 *1590:A *550:32 2.50318e-05
23 *1590:A *551:120 2.75229e-05
24 *1869:A2 *1869:A1 0.000231564
25 *548:18 *565:58 0
26 *548:94 *1869:A1 0.000176647
27 *1596:B *1869:A2 0.00015639
28 *1596:B *548:53 0.000271314
29 *1596:D *548:94 8.73389e-06
30 *1601:A1 *1832:B1 1.19928e-05
31 *1601:A2 *1832:B1 7.61941e-05
32 *1601:C1 *1832:B1 1.84596e-05
33 *1604:A1 *1590:A 0
34 *1607:A2 *1832:B1 6.33103e-05
35 *1607:B1 *1832:B1 3.83084e-05
36 *1663:A *1682:A 0
37 *1681:A1 *1682:A 7.63204e-05
38 *1683:B *548:18 0
39 *1685:A *548:10 4.66108e-05
40 *1721:A *548:18 0
41 *1721:B *548:18 7.39261e-05
42 *1727:B *548:10 5.83121e-06
43 *1727:B *548:18 7.45339e-05
44 *1728:A1 *548:10 4.82919e-05
45 *1728:A1 *548:38 0.000136877
46 *1731:B *548:38 0
47 *1776:B *548:38 0
48 *1783:A *548:53 2.87867e-05
49 *1867:A2 *548:38 0.000162318
50 *1896:A2 *1682:A 6.00201e-05
51 *1924:A2 *1590:A 2.42236e-05
52 *2011:A2 *1832:B1 4.82863e-05
53 *51:8 *1682:A 5.28781e-05
54 *106:36 *1731:A 3.00381e-05
55 *106:36 *548:53 0
56 *107:10 *548:53 0
57 *107:12 *548:53 0
58 *107:23 *548:53 0
59 *219:10 *1590:A 8.74947e-05
60 *219:25 *1590:A 2.75707e-05
61 *219:25 *548:94 5.13597e-05
62 *294:43 *548:94 0.00016063
63 *493:23 *1590:A 0
64 *512:51 *548:18 8.53113e-06
65 *512:51 *548:38 7.44647e-05
66 *516:6 *548:10 0.00027042
67 *516:23 *548:18 3.11119e-05
68 *516:38 *548:18 0
69 *516:40 *1682:A 0
70 *516:40 *548:18 0
71 *516:42 *1682:A 0
72 *516:112 *548:18 5.12017e-06
73 *516:112 *548:38 0.000200879
74 *516:112 *548:53 0.000155224
75 *518:54 *1590:A 4.82919e-05
76 *523:52 *548:18 0
77 *528:14 *1832:B1 4.66742e-05
78 *529:51 *1832:B1 0.000106377
79 *543:29 *548:94 0.000113269
80 *543:42 *548:94 0.000641515
81 *543:104 *1869:A2 0.00022921
82 *546:121 *548:18 0
83 *547:12 *1832:B1 7.9205e-06
84 *547:12 *548:94 0.000160641
85 *547:26 *1832:B1 2.19562e-06
86 *547:37 *1832:B1 7.68414e-06
87 *547:65 *1832:B1 5.26865e-05
*RES
1 *2084:X *548:6 2.74 
2 *548:6 *548:10 5.9 
3 *548:10 *548:18 7.485 
4 *548:18 *1682:A 7.74 
5 *548:18 *1681:B1 3.6 
6 *548:10 *548:38 5.97 
7 *548:38 *1731:A 5.43 
8 *548:38 *548:53 7.94 
9 *548:53 *1846:A2 1.6 
10 *548:53 *1869:A2 9.74 
11 *548:6 *548:73 2 
12 *548:73 *1590:A 10.515 
13 *548:73 *548:94 12.2 
14 *548:94 *1832:B1 14.365 
15 *548:94 *2083:A 1.6 
*END

*D_NET *549 0.0100761
*CONN
*I *1907:B I *D sky130_fd_sc_hd__and3_1
*I *1934:B I *D sky130_fd_sc_hd__and3_1
*I *1879:B I *D sky130_fd_sc_hd__nand2_1
*I *1935:A2 I *D sky130_fd_sc_hd__a21oi_1
*I *1989:B1 I *D sky130_fd_sc_hd__a22oi_1
*I *1988:B I *D sky130_fd_sc_hd__and3_1
*I *1634:A3 I *D sky130_fd_sc_hd__a31o_1
*I *1633:B1 I *D sky130_fd_sc_hd__a21o_1
*I *1660:C1 I *D sky130_fd_sc_hd__o211ai_2
*I *1987:B I *D sky130_fd_sc_hd__nand2_1
*I *2085:X O *D sky130_fd_sc_hd__buf_2
*CAP
1 *1907:B 0.000268832
2 *1934:B 0.000171267
3 *1879:B 2.78682e-05
4 *1935:A2 7.05463e-05
5 *1989:B1 7.05522e-05
6 *1988:B 0
7 *1634:A3 0
8 *1633:B1 5.14423e-05
9 *1660:C1 0.00060342
10 *1987:B 0.000216033
11 *2085:X 0
12 *549:118 0.000475475
13 *549:107 0.000491423
14 *549:92 0.000590406
15 *549:81 0.000251534
16 *549:72 0.000719594
17 *549:44 9.78192e-05
18 *549:23 0.000893212
19 *549:19 0.00104338
20 *549:4 0.000385707
21 *1660:C1 *552:46 0
22 *1987:B *552:46 0.000124532
23 *1987:B *552:56 5.53249e-06
24 *1989:B1 *1988:A 6.10014e-05
25 *549:23 *551:41 0
26 *549:23 *551:49 0
27 *549:23 *552:46 0
28 *549:107 *1653:A 4.21973e-05
29 *549:107 *554:36 0
30 *549:107 *554:58 0
31 *1634:A1 *1633:B1 4.77259e-05
32 *1634:A2 *1633:B1 8.11459e-05
33 *1636:C1 *1660:C1 0.000176985
34 *1642:A1 *1660:C1 8.65905e-05
35 *1642:A2 *1660:C1 8.43862e-05
36 *1653:B *1879:B 3.26889e-05
37 *1653:B *549:107 0.0001249
38 *1655:B *549:107 4.80285e-05
39 *1657:C1 *1660:C1 0.000143258
40 *1660:A2 *1660:C1 2.49909e-05
41 *1907:C *1907:B 2.91741e-05
42 *1908:A1 *1907:B 6.14433e-05
43 *1908:A2 *549:107 5.062e-06
44 *1908:A2 *549:118 5.35969e-06
45 *1908:B1 *1907:B 0.000191236
46 *1932:A2 *1934:B 0
47 *1986:A *1934:B 4.43871e-06
48 *1988:C *1989:B1 3.47668e-05
49 *1988:C *549:92 0.000119495
50 *1988:C *549:107 8.08153e-06
51 *1990:A *549:72 3.45588e-05
52 *1990:A *549:81 4.43682e-05
53 *1990:B *1989:B1 1.26548e-05
54 *2031:B1_N *549:72 1.90092e-05
55 *2085:A *1987:B 3.9352e-05
56 *439:20 *1660:C1 1.34361e-05
57 *448:33 *1935:A2 0.000160641
58 *453:14 *1660:C1 0.00011379
59 *463:8 *1660:C1 6.02202e-05
60 *463:27 *1633:B1 9.95366e-05
61 *463:27 *1660:C1 0
62 *463:27 *549:23 0
63 *464:14 *1633:B1 0.000111387
64 *466:10 *1660:C1 1.61461e-05
65 *467:10 *1660:C1 0
66 *469:6 *1660:C1 4.26197e-05
67 *475:8 *1660:C1 0.000453546
68 *486:8 *549:107 8.34281e-06
69 *492:87 *1989:B1 0.000183738
70 *492:87 *549:92 0.000214006
71 *492:87 *549:107 0.000171308
72 *517:58 *1907:B 0
73 *517:62 *1934:B 0
74 *519:12 *1907:B 3.05373e-05
75 *519:12 *1934:B 3.86529e-05
76 *519:25 *1907:B 0.000236722
77 *546:27 *549:23 0
78 *546:44 *1934:B 0
*RES
1 *2085:X *549:4 1.6 
2 *549:4 *1987:B 9.395 
3 *549:4 *549:19 1.83 
4 *549:19 *549:23 5.42 
5 *549:23 *1660:C1 16.14 
6 *549:23 *549:44 2.45 
7 *549:44 *1633:B1 4.32625 
8 *549:44 *1634:A3 1.6 
9 *549:19 *549:72 7.005 
10 *549:72 *1988:B 1.6 
11 *549:72 *549:81 3.14 
12 *549:81 *1989:B1 6 
13 *549:81 *549:92 3.42 
14 *549:92 *1935:A2 5.085 
15 *549:92 *549:107 8.885 
16 *549:107 *1879:B 2.215 
17 *549:107 *549:118 2.45 
18 *549:118 *1934:B 6.51 
19 *549:118 *1907:B 9.96 
*END

*D_NET *550 0.0107796
*CONN
*I *1853:A1 I *D sky130_fd_sc_hd__a21o_1
*I *1819:A1 I *D sky130_fd_sc_hd__o22a_1
*I *1818:A1 I *D sky130_fd_sc_hd__a22oi_1
*I *1807:A I *D sky130_fd_sc_hd__or3_1
*I *1598:A1 I *D sky130_fd_sc_hd__a2111oi_1
*I *1832:A1 I *D sky130_fd_sc_hd__a22o_1
*I *1833:A I *D sky130_fd_sc_hd__and3_1
*I *1855:A I *D sky130_fd_sc_hd__and3_1
*I *1585:A I *D sky130_fd_sc_hd__inv_2
*I *1600:B I *D sky130_fd_sc_hd__and2b_1
*I *2086:X O *D sky130_fd_sc_hd__clkbuf_4
*CAP
1 *1853:A1 0.000236862
2 *1819:A1 5.9744e-05
3 *1818:A1 4.5287e-05
4 *1807:A 0
5 *1598:A1 6.33807e-05
6 *1832:A1 0
7 *1833:A 1.41735e-05
8 *1855:A 0
9 *1585:A 2.65114e-05
10 *1600:B 8.65554e-05
11 *2086:X 2.63573e-05
12 *550:95 0.000341519
13 *550:67 0.000142529
14 *550:65 0.000623677
15 *550:54 0.000451251
16 *550:43 0.000231811
17 *550:41 0.000335746
18 *550:32 0.000804803
19 *550:21 0.000818153
20 *550:6 0.000124209
21 *1589:A *550:67 4.66108e-05
22 *1590:A *1585:A 5.03766e-05
23 *1590:A *550:6 4.66826e-05
24 *1590:A *550:21 1.46744e-05
25 *1590:A *550:32 2.50318e-05
26 *1598:A2 *1598:A1 6.16148e-05
27 *1598:A2 *550:67 8.82557e-05
28 *1604:A1 *550:32 0.000141266
29 *1604:B1_N *550:32 0.000234674
30 *1605:A1 *550:32 0.000119756
31 *1807:C *1598:A1 4.82919e-05
32 *1807:C *550:67 4.82863e-05
33 *1809:C *1818:A1 1.8731e-05
34 *1818:B1 *1818:A1 1.93972e-05
35 *1818:B2 *1819:A1 9.60974e-05
36 *1830:A2 *550:54 0
37 *1830:A2 *550:65 0
38 *1833:B *550:54 4.61423e-05
39 *1835:B1 *550:65 0.000127062
40 *1836:A2 *550:54 9.10305e-05
41 *1836:A2 *550:65 0.000104996
42 *1836:B1 *550:65 8.20748e-05
43 *1845:A *550:65 0.000112123
44 *1853:B1 *1853:A1 8.65961e-05
45 *1855:B *1853:A1 0.000245893
46 *1896:A2 *1600:B 0.000183731
47 *1956:A2 *550:67 8.34281e-06
48 *2078:A *550:32 0.000129464
49 *2078:A *550:41 1.61831e-05
50 *182:16 *1598:A1 2.28514e-05
51 *188:22 *1819:A1 8.53113e-06
52 *188:22 *550:95 0.000543457
53 *219:10 *550:6 8.23457e-05
54 *219:10 *550:21 4.66108e-05
55 *219:10 *550:32 1.08758e-05
56 *227:12 *1853:A1 0.00011852
57 *273:8 *550:32 4.80285e-05
58 *294:43 *1600:B 0.000185398
59 *326:78 *1598:A1 0.000126616
60 *326:78 *550:67 0.000332785
61 *326:78 *550:95 0.00014719
62 *434:8 *550:32 0.000235568
63 *492:56 *550:67 7.14699e-05
64 *492:56 *550:95 0.00015639
65 *492:67 *550:54 7.34442e-05
66 *492:67 *550:65 0.00012362
67 *492:87 *1853:A1 8.77642e-05
68 *492:87 *550:43 6.10014e-05
69 *492:87 *550:54 1.07797e-05
70 *518:54 *550:32 1.96098e-05
71 *523:39 *1853:A1 1.33293e-05
72 *526:92 *550:65 0.00029999
73 *528:34 *550:65 0.000113558
74 *528:34 *550:95 0.000276452
75 *528:49 *1819:A1 0.000170477
76 *528:49 *550:95 3.09164e-05
77 *529:35 *1853:A1 0
78 *529:35 *550:43 0
79 *529:35 *550:54 0
80 *538:28 *1833:A 8.65961e-05
81 *540:33 *550:32 0.000462835
82 *547:82 *1833:A 8.65961e-05
*RES
1 *2086:X *550:6 2.395 
2 *550:6 *1600:B 8.195 
3 *550:6 *550:21 0.45 
4 *550:21 *1585:A 2.38 
5 *550:21 *550:32 14.94 
6 *550:32 *1855:A 1.6 
7 *550:32 *550:41 2.45 
8 *550:41 *550:43 1.38 
9 *550:43 *1833:A 4.395 
10 *550:43 *550:54 2.91 
11 *550:54 *1832:A1 3.6 
12 *550:54 *550:65 9.755 
13 *550:65 *550:67 3.21 
14 *550:67 *1598:A1 3.88 
15 *550:67 *1807:A 1.6 
16 *550:65 *550:95 9.965 
17 *550:95 *1818:A1 4.41 
18 *550:95 *1819:A1 5.745 
19 *550:41 *1853:A1 9.12 
*END

*D_NET *551 0.0167157
*CONN
*I *2086:A I *D sky130_fd_sc_hd__clkbuf_4
*I *1869:A1 I *D sky130_fd_sc_hd__o31a_1
*I *1662:A I *D sky130_fd_sc_hd__nor2_1
*I *1653:A I *D sky130_fd_sc_hd__nand2_1
*I *1612:A I *D sky130_fd_sc_hd__or2_1
*I *1614:A I *D sky130_fd_sc_hd__nor2_1
*I *1615:A I *D sky130_fd_sc_hd__and2_1
*I *1989:A1 I *D sky130_fd_sc_hd__a22oi_1
*I *2033:A I *D sky130_fd_sc_hd__nand2_1
*I *1664:A I *D sky130_fd_sc_hd__nand2_1
*I *2087:X O *D sky130_fd_sc_hd__buf_4
*CAP
1 *2086:A 1.27578e-05
2 *1869:A1 0.000360163
3 *1662:A 0
4 *1653:A 4.43399e-05
5 *1612:A 0
6 *1614:A 3.60095e-05
7 *1615:A 0
8 *1989:A1 0.000246609
9 *2033:A 6.24256e-05
10 *1664:A 0.000183783
11 *2087:X 0.000125389
12 *551:120 0.00069106
13 *551:107 0.000837847
14 *551:89 0.000418555
15 *551:74 0.00070214
16 *551:49 0.00057615
17 *551:41 0.000513528
18 *551:37 0.00169156
19 *551:25 0.00189833
20 *551:6 0.000534567
21 *1614:A *1629:B1 4.00541e-06
22 *1989:A1 *1989:A2 1.2818e-05
23 *551:37 *552:46 0.000212129
24 *551:41 *554:23 0
25 *551:41 *554:36 0
26 *551:49 *554:23 0
27 *551:74 *1629:B1 3.00381e-05
28 *551:74 *554:40 2.75145e-05
29 *1590:A *1869:A1 0.000183731
30 *1590:A *2086:A 2.05056e-05
31 *1590:A *551:120 2.75229e-05
32 *1629:A2 *1614:A 0
33 *1629:A2 *551:74 8.8266e-05
34 *1630:B *551:74 2.26018e-05
35 *1630:C *551:41 0
36 *1653:B *1653:A 4.82919e-05
37 *1655:B *1653:A 9.53428e-06
38 *1656:C1 *551:37 5.83121e-06
39 *1657:B1 *551:37 0.000115464
40 *1658:B1 *551:37 0.000151574
41 *1660:A1 *551:25 0.000134509
42 *1660:A1 *551:107 0.000185405
43 *1706:B1 *551:37 6.3124e-06
44 *1868:B1 *1869:A1 0.000215155
45 *1869:A2 *1869:A1 0.000231564
46 *1924:A2 *1869:A1 0.000808425
47 *1986:A *551:37 0.000528278
48 *1986:A *551:41 6.14602e-05
49 *1986:A *551:74 0.000112349
50 *2026:D_N *551:107 0.000158109
51 *2031:A1 *1989:A1 6.53629e-05
52 *2031:A2 *1989:A1 3.23663e-05
53 *2034:A *2033:A 0
54 *2034:B *2033:A 3.00381e-05
55 *31:6 *551:37 0.000169251
56 *34:8 *1664:A 0.000141323
57 *35:10 *551:6 4.70919e-05
58 *45:56 *551:107 0
59 *219:10 *2086:A 4.66108e-05
60 *219:10 *551:120 0.00016063
61 *446:10 *1664:A 0
62 *446:10 *551:25 8.09021e-06
63 *448:8 *551:41 0
64 *453:14 *551:74 1.46828e-05
65 *463:8 *551:41 1.14559e-05
66 *463:27 *551:41 5.16418e-05
67 *466:10 *551:41 9.59969e-05
68 *474:14 *551:37 8.73389e-06
69 *474:18 *551:37 0.000139231
70 *486:8 *1653:A 0.000124007
71 *492:87 *1989:A1 0.000422379
72 *492:87 *2033:A 1.84324e-05
73 *492:87 *551:89 9.30787e-05
74 *493:10 *1664:A 5.51245e-05
75 *493:10 *551:25 0
76 *493:23 *551:6 7.10578e-05
77 *493:23 *551:25 0.000163175
78 *493:23 *551:107 0.000524474
79 *493:23 *551:120 0.000736479
80 *517:62 *551:89 4.94404e-05
81 *543:29 *1869:A1 8.01218e-05
82 *543:104 *1869:A1 0.000254436
83 *544:34 *551:107 0.000139245
84 *544:34 *551:120 0.000406279
85 *546:27 *551:49 0
86 *548:94 *1869:A1 0.000176647
87 *549:23 *551:41 0
88 *549:23 *551:49 0
89 *549:107 *1653:A 4.21973e-05
*RES
1 *2087:X *551:6 3.775 
2 *551:6 *1664:A 9.41 
3 *551:6 *551:25 6.41 
4 *551:25 *551:37 21.885 
5 *551:37 *551:41 6.695 
6 *551:41 *551:49 6.3125 
7 *551:49 *2033:A 2.9275 
8 *551:49 *1989:A1 7.3975 
9 *551:41 *1615:A 3.6 
10 *551:37 *551:74 3.9 
11 *551:74 *1614:A 2.215 
12 *551:74 *551:89 8.68 
13 *551:89 *1612:A 1.6 
14 *551:89 *1653:A 3.1 
15 *551:25 *551:107 13.56 
16 *551:107 *1662:A 3.6 
17 *551:107 *551:120 12.695 
18 *551:120 *1869:A1 19.475 
19 *551:120 *2086:A 2.05 
*END

*D_NET *552 0.0188604
*CONN
*I *1809:D I *D sky130_fd_sc_hd__or4_1
*I *1966:B2 I *D sky130_fd_sc_hd__a32o_1
*I *1600:A_N I *D sky130_fd_sc_hd__and2b_1
*I *1609:A I *D sky130_fd_sc_hd__and3_1
*I *1611:A2 I *D sky130_fd_sc_hd__a21o_1
*I *1987:A I *D sky130_fd_sc_hd__nand2_1
*I *1988:A I *D sky130_fd_sc_hd__and3_1
*I *1989:A2 I *D sky130_fd_sc_hd__a22oi_1
*I *1623:A1 I *D sky130_fd_sc_hd__a22o_1
*I *1610:A I *D sky130_fd_sc_hd__nand3_1
*I *2088:X O *D sky130_fd_sc_hd__buf_2
*CAP
1 *1809:D 0.000101645
2 *1966:B2 0.000512723
3 *1600:A_N 0
4 *1609:A 0.000105973
5 *1611:A2 0
6 *1987:A 0
7 *1988:A 0.000115264
8 *1989:A2 3.75469e-06
9 *1623:A1 1.65753e-05
10 *1610:A 6.53529e-05
11 *2088:X 0
12 *552:110 0.000821168
13 *552:56 0.000980735
14 *552:46 0.0020356
15 *552:38 0.00127382
16 *552:34 0.000323969
17 *552:25 0.000416545
18 *552:12 0.000517603
19 *552:10 0.00159751
20 *552:4 0.00163397
21 *1988:A *1989:B2 2.97004e-06
22 *1988:A *554:23 0
23 *552:56 *1989:B2 4.92096e-05
24 *552:56 *2032:A 0.000239664
25 *552:56 *554:23 0
26 *1619:A *552:38 0.000104321
27 *1619:A *552:46 0.000138544
28 *1623:A2 *1609:A 1.91597e-05
29 *1623:A2 *552:34 7.10578e-05
30 *1623:B1 *552:25 4.66108e-05
31 *1623:B2 *552:25 2.49909e-05
32 *1636:C1 *552:46 0.00035825
33 *1638:B1 *552:46 0.000117825
34 *1640:A2 *552:46 0
35 *1644:A0 *552:46 0.000199734
36 *1657:B1 *552:46 0
37 *1660:C1 *552:46 0
38 *1728:A0 *552:10 6.49655e-05
39 *1781:C1 *552:10 3.47837e-05
40 *1867:B1 *552:10 7.18727e-05
41 *1868:B1 *552:10 0.000286976
42 *1897:A_N *552:10 0
43 *1924:A1 *552:10 1.15399e-05
44 *1924:A2 *552:10 0
45 *1924:A2 *552:12 0
46 *1967:A2 *1966:B2 0.000119756
47 *1987:B *552:46 0.000124532
48 *1987:B *552:56 5.53249e-06
49 *1988:C *1988:A 8.53113e-06
50 *1989:A1 *1989:A2 1.2818e-05
51 *1989:B1 *1988:A 6.10014e-05
52 *1990:A *1988:A 4.82919e-05
53 *2031:A1 *1989:A2 1.2818e-05
54 *2031:B1_N *1988:A 0
55 *2035:A *552:56 1.33293e-05
56 *2036:A *552:56 0
57 *2036:B *552:56 0.000616833
58 *2048:B1 *1966:B2 7.14698e-05
59 *2084:A *552:12 0.000194421
60 *2129:A *552:38 9.50342e-06
61 *2129:A *552:46 8.34348e-05
62 *2131:A *1966:B2 4.99619e-05
63 *183:12 *1809:D 0.000197592
64 *183:12 *1966:B2 6.83488e-05
65 *197:46 *1966:B2 0.000490078
66 *199:51 *1809:D 0
67 *199:51 *1966:B2 0
68 *245:10 *552:10 2.66935e-05
69 *294:43 *1610:A 0.000227562
70 *294:43 *552:10 0.000222105
71 *294:43 *552:12 0.000491018
72 *294:47 *552:46 1.52945e-05
73 *294:55 *552:46 0.000126799
74 *326:90 *552:10 0.000325402
75 *441:14 *1609:A 6.33957e-05
76 *441:25 *552:38 0.000190918
77 *459:16 *552:46 0.00023973
78 *467:10 *552:46 0.000128032
79 *474:14 *552:38 1.97442e-05
80 *474:14 *552:46 0.000200658
81 *474:18 *552:46 3.95347e-05
82 *492:87 *1988:A 0
83 *492:87 *552:56 0
84 *497:29 *552:10 9.96647e-05
85 *497:44 *552:10 0.000105138
86 *497:52 *552:10 0.000499357
87 *497:52 *552:110 0.000308708
88 *515:20 *1610:A 0.000251595
89 *515:20 *552:12 8.59365e-05
90 *515:88 *1610:A 9.50342e-06
91 *518:54 *552:46 0
92 *519:88 *552:46 0
93 *523:39 *552:25 8.4499e-05
94 *523:39 *552:34 8.34281e-06
95 *529:51 *1966:B2 2.54884e-05
96 *546:27 *552:46 0.000218804
97 *546:27 *552:56 7.63204e-05
98 *546:35 *552:56 5.062e-06
99 *549:23 *552:46 0
100 *551:37 *552:46 0.000212129
*RES
1 *2088:X *552:4 1.6 
2 *552:4 *552:10 26.42 
3 *552:10 *552:12 5.715 
4 *552:12 *1610:A 6.51 
5 *552:12 *552:25 5.21 
6 *552:25 *1623:A1 1.96 
7 *552:25 *552:34 1.485 
8 *552:34 *552:38 4.91 
9 *552:38 *552:46 27.72 
10 *552:46 *552:56 16.69 
11 *552:56 *1989:A2 3.72375 
12 *552:56 *1988:A 5.685 
13 *552:46 *1987:A 3.6 
14 *552:38 *1611:A2 3.6 
15 *552:34 *1609:A 3.1 
16 *552:10 *1600:A_N 3.6 
17 *552:4 *552:110 4.865 
18 *552:110 *1966:B2 13.365 
19 *552:110 *1809:D 6 
*END

*D_NET *553 0.00712631
*CONN
*I *2013:A1 I *D sky130_fd_sc_hd__a21oi_1
*I *1973:A I *D sky130_fd_sc_hd__xor2_1
*I *2008:A1 I *D sky130_fd_sc_hd__o22a_1
*I *2009:A1 I *D sky130_fd_sc_hd__a32o_1
*I *2007:A1 I *D sky130_fd_sc_hd__a21oi_1
*I *2049:A1 I *D sky130_fd_sc_hd__a211o_1
*I *2089:X O *D sky130_fd_sc_hd__clkbuf_2
*CAP
1 *2013:A1 4.31071e-05
2 *1973:A 5.19084e-05
3 *2008:A1 9.24259e-05
4 *2009:A1 0
5 *2007:A1 0
6 *2049:A1 0.00033622
7 *2089:X 3.61979e-05
8 *553:68 0.000740957
9 *553:47 0.000944071
10 *553:16 0.000486386
11 *553:10 0.000221161
12 *553:6 0.000312896
13 *1956:A1 *2049:A1 2.23485e-05
14 *1956:B1 *2008:A1 8.08153e-06
15 *1956:B1 *553:68 1.23479e-05
16 *1957:A *2008:A1 2.16833e-05
17 *1957:B *2008:A1 4.66108e-05
18 *1970:A1 *2008:A1 5.73362e-05
19 *1970:A1 *553:47 4.82919e-05
20 *1970:B1 *2008:A1 0.00013994
21 *1970:B1 *553:68 3.09233e-05
22 *1971:B *553:68 3.25831e-05
23 *2007:B1 *553:16 8.23457e-05
24 *2008:B2 *2008:A1 9.50342e-06
25 *2009:A2 *553:16 7.47215e-05
26 *2009:B2 *2049:A1 0.000441124
27 *2013:A2 *1973:A 7.89767e-05
28 *2015:A1 *553:68 0.000187792
29 *2015:A2 *553:68 4.66826e-05
30 *2018:A *2013:A1 4.60584e-05
31 *2018:A *553:68 2.75229e-05
32 *2047:B1 *2049:A1 0.000121437
33 *2049:B1 *2049:A1 6.81184e-05
34 *2050:B1 *2049:A1 0.000138705
35 *2118:A *2049:A1 0.000483262
36 *2118:A *553:10 0.000136877
37 *2118:A *553:16 0.000240095
38 *191:76 *553:68 3.67496e-05
39 *192:97 *1973:A 9.37731e-05
40 *352:10 *553:47 2.65814e-06
41 *352:10 *553:68 0.000139245
42 *490:48 *2049:A1 0.000120655
43 *492:14 *553:10 0
44 *497:52 *2049:A1 0.000714671
45 *534:153 *553:68 0
46 *535:22 *553:16 1.73877e-05
47 *535:65 *553:16 0.000132467
*RES
1 *2089:X *553:6 2.05 
2 *553:6 *553:10 3.635 
3 *553:10 *553:16 5.705 
4 *553:16 *2049:A1 18.335 
5 *553:16 *2007:A1 1.6 
6 *553:10 *2009:A1 3.6 
7 *553:6 *553:47 4.865 
8 *553:47 *2008:A1 6.03 
9 *553:47 *553:68 13.16 
10 *553:68 *1973:A 7.235 
11 *553:68 *2013:A1 2.395 
*END

*D_NET *554 0.0193075
*CONN
*I *1989:B2 I *D sky130_fd_sc_hd__a22oi_1
*I *1959:A I *D sky130_fd_sc_hd__nand2_1
*I *1958:A I *D sky130_fd_sc_hd__or2_1
*I *1921:A I *D sky130_fd_sc_hd__and2_1
*I *1809:A I *D sky130_fd_sc_hd__or4_1
*I *1616:B I *D sky130_fd_sc_hd__or2_1
*I *1614:B I *D sky130_fd_sc_hd__nor2_1
*I *1629:B1 I *D sky130_fd_sc_hd__o21ai_1
*I *1615:B I *D sky130_fd_sc_hd__and2_1
*I *2032:A I *D sky130_fd_sc_hd__nand2_1
*I *2090:X O *D sky130_fd_sc_hd__buf_6
*CAP
1 *1989:B2 0.000223791
2 *1959:A 0
3 *1958:A 5.27198e-05
4 *1921:A 0.000473528
5 *1809:A 0
6 *1616:B 0.000288624
7 *1614:B 0
8 *1629:B1 2.12083e-05
9 *1615:B 0.000148195
10 *2032:A 0.000150782
11 *2090:X 0
12 *554:111 0.000296697
13 *554:88 0.00218537
14 *554:75 0.00251604
15 *554:58 0.00221315
16 *554:40 4.10988e-05
17 *554:36 0.00120565
18 *554:23 0.000824425
19 *554:4 0.000741391
20 *554:58 *2025:B1 0.000428654
21 *1606:A *1616:B 0
22 *1606:A *554:58 9.49116e-05
23 *1606:A *554:75 5.28815e-05
24 *1614:A *1629:B1 4.00541e-06
25 *1616:A *1616:B 0
26 *1617:A *554:58 0
27 *1629:A1 *1629:B1 9.72742e-06
28 *1629:A2 *1629:B1 5.4155e-06
29 *1630:B *1629:B1 3.00381e-05
30 *1640:A1 *554:58 0.000124641
31 *1656:C1 *554:58 0.00011852
32 *1808:A *554:75 0
33 *1811:A *554:88 7.23602e-05
34 *1895:A1 *1921:A 0
35 *1919:B1 *1921:A 0
36 *1920:A2 *1921:A 0
37 *1920:B1 *1921:A 4.62396e-05
38 *1921:B *1921:A 2.16833e-05
39 *1923:A3 *1921:A 7.58604e-05
40 *1923:B1 *1921:A 5.5554e-05
41 *1952:A *1921:A 0
42 *1956:A2 *554:88 0.000143099
43 *1958:B *1958:A 4.82863e-05
44 *1964:B1 *1921:A 0.000136877
45 *1967:B1 *1921:A 5.20968e-05
46 *1967:C1 *1921:A 0.000155928
47 *1968:A2 *554:75 0.000129942
48 *1988:A *1989:B2 2.97004e-06
49 *1988:A *554:23 0
50 *1988:C *554:23 0
51 *1988:C *554:36 0
52 *1990:B *1989:B2 4.9968e-05
53 *2011:B1 *1958:A 1.34594e-05
54 *2012:B1 *1958:A 0.000231634
55 *2025:A1 *554:58 0
56 *2025:B2 *554:58 0.000317494
57 *2031:A1 *1989:B2 4.66108e-05
58 *2031:B1_N *554:23 0.000117832
59 *2035:A *2032:A 5.74801e-05
60 *2036:A *1989:B2 0.000278117
61 *2036:A *554:23 0
62 *2036:B *1989:B2 0.000427094
63 *2036:B *2032:A 0.000313852
64 *2088:A *554:75 8.97642e-05
65 *2088:A *554:88 3.13459e-05
66 *2131:A *554:75 0
67 *182:16 *554:75 2.46089e-05
68 *183:12 *554:75 2.42236e-05
69 *183:12 *554:88 7.63125e-05
70 *188:71 *1921:A 7.21296e-06
71 *199:51 *554:88 0.000640627
72 *199:89 *554:88 0.000258751
73 *326:78 *554:75 6.58176e-05
74 *326:86 *554:75 2.06578e-05
75 *336:18 *554:88 0.000122605
76 *336:18 *554:111 3.80606e-05
77 *338:8 *554:111 0
78 *339:12 *554:111 5.53249e-06
79 *341:6 *1958:A 6.77501e-05
80 *434:10 *554:75 0.000155883
81 *448:8 *554:36 0
82 *449:6 *1616:B 0.000163204
83 *449:23 *1616:B 3.25831e-05
84 *454:10 *1616:B 8.53113e-06
85 *462:10 *554:36 5.33787e-05
86 *492:87 *1989:B2 5.83121e-06
87 *492:87 *554:23 2.50049e-05
88 *492:87 *554:58 0
89 *492:87 *554:75 0
90 *497:56 *1921:A 0
91 *519:58 *554:58 0.000119214
92 *524:64 *554:75 0
93 *524:107 *554:75 7.1222e-05
94 *526:94 *554:88 0.000153482
95 *529:51 *554:75 0.00117333
96 *534:153 *1921:A 0
97 *534:153 *554:111 8.48367e-05
98 *537:42 *1921:A 0
99 *537:42 *554:111 0
100 *538:28 *554:75 0
101 *540:33 *554:58 0
102 *540:33 *554:75 0
103 *546:35 *1989:B2 5.98073e-05
104 *546:35 *2032:A 0.000190593
105 *547:65 *554:75 0.000145034
106 *549:107 *554:36 0
107 *549:107 *554:58 0
108 *551:41 *554:23 0
109 *551:41 *554:36 0
110 *551:49 *554:23 0
111 *551:74 *1629:B1 3.00381e-05
112 *551:74 *554:40 2.75145e-05
113 *552:56 *1989:B2 4.92096e-05
114 *552:56 *2032:A 0.000239664
115 *552:56 *554:23 0
*RES
1 *2090:X *554:4 1.6 
2 *554:4 *2032:A 7.96 
3 *554:4 *554:23 10.225 
4 *554:23 *1615:B 3.775 
5 *554:23 *554:36 6.98 
6 *554:36 *554:40 2.45 
7 *554:40 *1629:B1 2.41 
8 *554:40 *1614:B 1.6 
9 *554:36 *554:58 19.425 
10 *554:58 *1616:B 11.335 
11 *554:58 *554:75 23.82 
12 *554:75 *1809:A 3.6 
13 *554:75 *554:88 21.68 
14 *554:88 *1921:A 14.765 
15 *554:88 *554:111 7.795 
16 *554:111 *1958:A 3.79 
17 *554:111 *1959:A 1.6 
18 *554:4 *1989:B2 12.095 
*END

*D_NET *555 0.00334324
*CONN
*I *2062:A I *D sky130_fd_sc_hd__buf_2
*I *2108:X O *D sky130_fd_sc_hd__clkbuf_1
*CAP
1 *2062:A 0.000814458
2 *2108:X 0.000814458
3 *1979:A2 *2062:A 9.30787e-05
4 *1980:B *2062:A 0
5 *1999:A2 *2062:A 3.64998e-06
6 *2002:A *2062:A 0.000851857
7 *2003:B *2062:A 3.76596e-05
8 *2020:A *2062:A 0
9 *2020:B *2062:A 5.63405e-05
10 *2043:A *2062:A 3.26822e-05
11 *2060:A *2062:A 0.000124007
12 *2065:A *2062:A 9.05377e-05
13 *323:14 *2062:A 0
14 *363:10 *2062:A 0
15 *384:12 *2062:A 7.23602e-05
16 *544:18 *2062:A 0.000352156
*RES
1 *2108:X *2062:A 24.855 
*END

*D_NET *556 0.00363856
*CONN
*I *1692:A1 I *D sky130_fd_sc_hd__a21o_1
*I *1677:A1 I *D sky130_fd_sc_hd__a21o_1
*I *2123:A I *D sky130_fd_sc_hd__buf_2
*I *2121:X O *D sky130_fd_sc_hd__dlygate4sd1_1
*CAP
1 *1692:A1 0.000306725
2 *1677:A1 6.59466e-05
3 *2123:A 9.73191e-06
4 *2121:X 0.000526382
5 *556:21 0.000424419
6 *556:10 0.00058786
7 *1674:B *1692:A1 5.62178e-05
8 *1674:C *1692:A1 1.82559e-05
9 *1677:B1 *1677:A1 5.83121e-06
10 *1687:A *556:10 0.000120655
11 *1688:A2 *2123:A 4.82863e-05
12 *1692:A2 *1692:A1 0.000193576
13 *1692:B1 *1692:A1 2.59295e-05
14 *1716:A1 *1692:A1 8.65961e-05
15 *2121:A *556:10 0.000265265
16 *43:12 *1677:A1 2.45351e-05
17 *43:12 *1692:A1 0.000271308
18 *49:14 *556:10 0
19 *49:14 *556:21 0
20 *471:20 *1692:A1 8.53113e-06
21 *471:20 *556:10 7.30547e-05
22 *471:20 *556:21 0.000114492
23 *513:23 *1677:A1 5.83121e-06
24 *513:23 *1692:A1 2.42236e-05
25 *513:23 *556:21 3.86529e-05
26 *539:104 *2123:A 4.82863e-05
27 *546:73 *556:10 4.75576e-05
28 *546:121 *1692:A1 4.5783e-05
29 *546:121 *556:10 0.000194624
*RES
1 *2121:X *556:10 13.815 
2 *556:10 *2123:A 4.05 
3 *556:10 *556:21 1.38 
4 *556:21 *1677:A1 4.395 
5 *556:21 *1692:A1 10.485 
*END

*D_NET *557 0.000288726
*CONN
*I *1688:A1 I *D sky130_fd_sc_hd__a21oi_1
*I *2123:X O *D sky130_fd_sc_hd__buf_2
*CAP
1 *1688:A1 9.71935e-05
2 *2123:X 9.71935e-05
3 *1688:A2 *1688:A1 8.23457e-05
4 *539:104 *1688:A1 1.19928e-05
*RES
1 *2123:X *1688:A1 4.34 
*END

*D_NET *558 0.00138822
*CONN
*I *2126:A I *D sky130_fd_sc_hd__dlymetal6s2s_1
*I *1757:A2 I *D sky130_fd_sc_hd__o31a_1
*I *2125:X O *D sky130_fd_sc_hd__buf_1
*CAP
1 *2126:A 0
2 *1757:A2 7.97698e-05
3 *2125:X 0.00032525
4 *558:8 0.00040502
5 *558:8 *559:12 2.75145e-05
6 *558:8 *565:8 0.000230973
7 *1757:B1 *1757:A2 4.66108e-05
8 *542:21 *1757:A2 8.40213e-05
9 *542:55 *1757:A2 1.19928e-05
10 *542:55 *558:8 0.000177064
*RES
1 *2125:X *558:8 7.93 
2 *558:8 *1757:A2 3.085 
3 *558:8 *2126:A 1.6 
*END

*D_NET *559 0.000932265
*CONN
*I *1766:A2 I *D sky130_fd_sc_hd__o32a_1
*I *2127:A I *D sky130_fd_sc_hd__dlygate4sd1_1
*I *2126:X O *D sky130_fd_sc_hd__dlymetal6s2s_1
*CAP
1 *1766:A2 9.57754e-05
2 *2127:A 0
3 *2126:X 6.48218e-05
4 *559:12 0.000160597
5 *1748:B *1766:A2 0.000124895
6 *1766:A3 *1766:A2 2.75229e-05
7 *1766:B1 *1766:A2 4.66108e-05
8 *100:36 *1766:A2 3.37859e-05
9 *117:27 *559:12 0.000159957
10 *123:8 *1766:A2 5.83121e-06
11 *539:22 *559:12 0.000159964
12 *542:55 *559:12 2.49909e-05
13 *558:8 *559:12 2.75145e-05
*RES
1 *2126:X *559:12 7.94 
2 *559:12 *2127:A 1.6 
3 *559:12 *1766:A2 3.79 
*END

*D_NET *560 0.000320663
*CONN
*I *1736:B I *D sky130_fd_sc_hd__nor2_1
*I *2127:X O *D sky130_fd_sc_hd__dlygate4sd1_1
*CAP
1 *1736:B 6.91244e-05
2 *2127:X 6.91244e-05
3 *100:36 *1736:B 0.000182414
*RES
1 *2127:X *1736:B 4.955 
*END

*D_NET *561 0.0028787
*CONN
*I *1742:S I *D sky130_fd_sc_hd__mux2_4
*I *1720:S I *D sky130_fd_sc_hd__mux2_4
*I *1746:S I *D sky130_fd_sc_hd__mux2_4
*I *2128:X O *D sky130_fd_sc_hd__buf_6
*CAP
1 *1742:S 7.67979e-05
2 *1720:S 3.56364e-05
3 *1746:S 0.000106163
4 *2128:X 0.000112692
5 *561:23 0.000557034
6 *561:6 0.000663454
7 *1695:B *561:6 9.28507e-05
8 *1742:A0 *1742:S 0.000164686
9 *1746:A0 *1746:S 8.40269e-05
10 *1746:A0 *561:6 3.66286e-05
11 *61:26 *1746:S 6.21763e-05
12 *61:26 *561:6 0.00022201
13 *69:6 *561:6 7.66388e-05
14 *70:24 *561:23 0.000102302
15 *95:10 *561:23 0.000198945
16 *121:14 *561:23 0
17 *534:66 *1746:S 4.66108e-05
18 *534:66 *561:6 4.77757e-05
19 *534:66 *561:23 0.000192269
20 *539:37 *1742:S 0
*RES
1 *2128:X *561:6 5.155 
2 *561:6 *1746:S 3.79 
3 *561:6 *561:23 12.115 
4 *561:23 *1720:S 2.05 
5 *561:23 *1742:S 7.49 
*END

*D_NET *562 0.00164359
*CONN
*I *1610:C I *D sky130_fd_sc_hd__nand3_1
*I *2129:X O *D sky130_fd_sc_hd__buf_1
*CAP
1 *1610:C 0.000576476
2 *2129:X 0.000576476
3 *1662:B *1610:C 5.05437e-05
4 *1924:A2 *1610:C 9.71067e-05
5 *2129:A *1610:C 4.41506e-05
6 *38:19 *1610:C 0.00011891
7 *470:12 *1610:C 2.67022e-05
8 *515:20 *1610:C 5.53249e-06
9 *515:88 *1610:C 0
10 *519:62 *1610:C 0.000147697
*RES
1 *2129:X *1610:C 14.985 
*END

*D_NET *563 0.0176081
*CONN
*I *1919:A2 I *D sky130_fd_sc_hd__a21oi_1
*I *1899:A I *D sky130_fd_sc_hd__xor2_1
*I *1904:B1 I *D sky130_fd_sc_hd__a22oi_1
*I *1982:B1 I *D sky130_fd_sc_hd__a22oi_1
*I *2025:B1 I *D sky130_fd_sc_hd__a22o_1
*I *2052:X O *D sky130_fd_sc_hd__clkbuf_1
*CAP
1 *1919:A2 0.000206538
2 *1899:A 0.00151976
3 *1904:B1 0.000786242
4 *1982:B1 0.000467007
5 *2025:B1 0.00120993
6 *2052:X 0.000185492
7 *563:69 0.002081
8 *563:35 0.00152154
9 *563:14 0.0018329
10 *563:8 0.000894869
11 *1640:A1 *2025:B1 9.50342e-06
12 *1807:C *1899:A 0
13 *1866:B1 *563:14 8.53113e-06
14 *1866:B1 *563:69 9.28013e-05
15 *1872:A *1899:A 0
16 *1882:B *2025:B1 4.38278e-05
17 *1892:B1 *563:8 0.000235573
18 *1903:B *1982:B1 0
19 *1904:A1 *1904:B1 1.39383e-05
20 *1904:A2 *1904:B1 2.33223e-05
21 *1956:A2 *563:69 0.000181936
22 *1966:A2 *1919:A2 4.99619e-05
23 *1967:A2 *1919:A2 8.49205e-05
24 *1969:C *563:69 0.000222813
25 *1982:A1 *1982:B1 0.000306373
26 *2052:A *563:8 1.61831e-05
27 *2075:A *1899:A 7.3664e-05
28 *2118:A *1919:A2 1.7635e-05
29 *197:28 *563:69 3.58364e-05
30 *197:63 *1899:A 0
31 *287:12 *1982:B1 0.000186627
32 *490:27 *563:14 0.000318494
33 *490:27 *563:69 0.000297566
34 *490:48 *1919:A2 7.82985e-05
35 *497:52 *1899:A 4.20983e-05
36 *518:105 *1899:A 0.000895662
37 *518:105 *1919:A2 0.000225143
38 *521:39 *1982:B1 0.000106103
39 *525:28 *1982:B1 0
40 *527:45 *2025:B1 9.54469e-05
41 *527:45 *563:14 2.14129e-05
42 *527:51 *1904:B1 0.000535974
43 *527:51 *563:35 0.000381094
44 *527:76 *1904:B1 0.000127929
45 *527:109 *563:14 0.000183738
46 *535:22 *2025:B1 8.25039e-05
47 *535:22 *563:14 0.000490155
48 *535:22 *563:69 0.000319583
49 *537:52 *1919:A2 2.7648e-05
50 *537:69 *1982:B1 7.16919e-05
51 *538:12 *1899:A 0.000149694
52 *540:33 *2025:B1 0.000420457
53 *554:58 *2025:B1 0.000428654
*RES
1 *2052:X *563:8 6.12 
2 *563:8 *563:14 10.44 
3 *563:14 *2025:B1 29.335 
4 *563:14 *563:35 5.555 
5 *563:35 *1982:B1 15.395 
6 *563:35 *1904:B1 13.015 
7 *563:8 *563:69 10.9325 
8 *563:69 *1899:A 10.3438 
9 *563:69 *1919:A2 6.2801 
*END

*D_NET *564 0.000482531
*CONN
*I *1714:B1 I *D sky130_fd_sc_hd__a21o_1
*I *2130:X O *D sky130_fd_sc_hd__dlygate4sd3_1
*CAP
1 *1714:B1 0.000190637
2 *2130:X 0.000190637
3 *1714:A1 *1714:B1 5.53249e-06
4 *1715:C_N *1714:B1 5.0751e-05
5 *1742:A0 *1714:B1 0
6 *2130:A *1714:B1 0
7 *76:12 *1714:B1 4.43871e-06
8 *89:10 *1714:B1 4.05358e-05
*RES
1 *2130:X *1714:B1 10.065 
*END

*D_NET *565 0.0218309
*CONN
*I *1770:A I *D sky130_fd_sc_hd__nand2_1
*I *1769:A I *D sky130_fd_sc_hd__nor2_1
*I *1926:B I *D sky130_fd_sc_hd__nand2_1
*I *1753:B2 I *D sky130_fd_sc_hd__o2bb2a_1
*I *1737:A I *D sky130_fd_sc_hd__xor2_1
*I *2051:X O *D sky130_fd_sc_hd__clkbuf_1
*CAP
1 *1770:A 5.72771e-05
2 *1769:A 0
3 *1926:B 0.00224975
4 *1753:B2 0
5 *1737:A 0.000446013
6 *2051:X 0.000464338
7 *565:73 0.000938357
8 *565:58 0.00439495
9 *565:33 0.00265904
10 *565:12 0.00132532
11 *565:8 0.00171088
12 *1625:B *1926:B 0.000123225
13 *1626:B *565:58 0.000112349
14 *1626:C *565:58 1.19928e-05
15 *1627:B1 *565:58 4.21973e-05
16 *1644:A0 *1926:B 7.01918e-05
17 *1644:A0 *565:58 8.40269e-05
18 *1645:A *565:58 0.000153849
19 *1663:B *565:58 5.12944e-06
20 *1679:A *565:58 1.83756e-05
21 *1683:B *565:58 0.000218324
22 *1689:A1 *565:58 0.000210093
23 *1689:A2 *565:58 0.000312097
24 *1721:A *565:58 3.86529e-05
25 *1737:B *1737:A 0.000223209
26 *1747:A *565:73 0
27 *1753:B1 *565:33 0.000154908
28 *1753:B1 *565:58 2.86975e-05
29 *1754:A1 *565:12 0.000139238
30 *1754:A1 *565:73 0.000229203
31 *1754:B1 *565:12 0
32 *1754:B1 *565:33 3.62197e-05
33 *1756:B *1737:A 3.00381e-05
34 *1768:S *565:73 7.07801e-05
35 *1769:B *1770:A 1.41559e-05
36 *1771:A *565:73 0.000296088
37 *1773:A *565:73 8.65961e-05
38 *1773:B *565:73 0
39 *1896:A2 *565:58 0.000130547
40 *1983:C *1926:B 4.45953e-05
41 *1984:A *1926:B 2.49909e-05
42 *2025:A1 *1926:B 1.4399e-05
43 *2025:B2 *1926:B 1.56428e-05
44 *2027:D *1926:B 8.05985e-05
45 *2029:A_N *1926:B 1.4389e-05
46 *44:10 *565:58 0.00035328
47 *57:10 *565:58 9.14049e-05
48 *64:14 *565:58 0.00015356
49 *95:10 *565:33 0
50 *95:23 *1737:A 0.00013106
51 *95:23 *565:12 5.23362e-05
52 *95:23 *565:33 2.49909e-05
53 *110:14 *565:8 0.000343082
54 *112:10 *1737:A 1.47256e-05
55 *113:6 *565:58 8.12896e-06
56 *121:14 *565:12 0.000829472
57 *144:12 *1770:A 8.8266e-05
58 *145:16 *1770:A 2.37729e-05
59 *147:10 *565:73 0
60 *149:10 *565:73 0
61 *294:43 *565:58 0.000270409
62 *366:12 *1926:B 1.56428e-05
63 *460:14 *1926:B 4.66108e-05
64 *471:49 *565:58 0.000241677
65 *498:23 *565:73 0.000127921
66 *510:76 *565:12 0
67 *510:76 *565:73 0
68 *510:89 *565:73 0.000214089
69 *521:47 *1926:B 2.86265e-06
70 *521:51 *1926:B 0.000233853
71 *531:25 *565:12 1.18553e-06
72 *531:25 *565:73 0
73 *531:31 *565:12 8.22493e-05
74 *534:48 *565:33 0.000151616
75 *534:50 *565:33 0
76 *539:12 *1770:A 6.89558e-05
77 *539:12 *565:73 8.40213e-05
78 *539:22 *565:73 0
79 *541:36 *1926:B 0.000111191
80 *542:55 *565:8 6.54567e-06
81 *546:121 *565:58 0.000546253
82 *548:18 *565:58 0
83 *558:8 *565:8 0.000230973
*RES
1 *2051:X *565:8 9.57 
2 *565:8 *565:12 12.305 
3 *565:12 *1737:A 8.29 
4 *565:12 *565:33 10.84 
5 *565:33 *1753:B2 1.6 
6 *565:33 *565:58 42.16 
7 *565:58 *1926:B 28.105 
8 *565:8 *565:73 20.45 
9 *565:73 *1769:A 1.6 
10 *565:73 *1770:A 3.65875 
*END

*D_NET *566 0.00978512
*CONN
*I *2059:A I *D sky130_fd_sc_hd__dlymetal6s2s_1
*I *2058:A I *D sky130_fd_sc_hd__buf_2
*I *2109:X O *D sky130_fd_sc_hd__buf_1
*CAP
1 *2059:A 0.00146925
2 *2058:A 0.000634825
3 *2109:X 0.000716148
4 *566:14 0.00282022
5 *1891:B1 *2059:A 0
6 *1893:A2 *2059:A 0.000149766
7 *1893:B1 *2059:A 2.23407e-05
8 *1893:B2 *2059:A 0.000203776
9 *1903:B *2059:A 0.000719264
10 *1923:A2 *2059:A 3.1835e-05
11 *1930:B *2059:A 0
12 *1930:C *2059:A 5.57736e-05
13 *1933:A *2058:A 0
14 *1938:A *2058:A 0.000247671
15 *1938:B *2058:A 9.80032e-06
16 *1943:A *2059:A 0
17 *1984:A *2059:A 0
18 *1997:B *566:14 2.75229e-05
19 *1998:A1 *566:14 2.59835e-05
20 *1998:A2 *566:14 4.82919e-05
21 *1998:B1 *566:14 0.00013732
22 *2000:C *566:14 5.4155e-06
23 *2021:A_N *566:14 0.000123304
24 *2040:A *2059:A 0
25 *253:12 *2059:A 0
26 *259:12 *2059:A 0
27 *305:12 *2059:A 0
28 *310:12 *2059:A 0
29 *317:34 *2058:A 2.75229e-05
30 *319:10 *2058:A 0.000286784
31 *319:10 *566:14 0.00011964
32 *322:8 *2059:A 0
33 *381:14 *2059:A 0
34 *381:14 *566:14 9.16333e-06
35 *382:10 *566:14 6.6566e-05
36 *383:6 *566:14 0.00010854
37 *383:15 *566:14 0.000131658
38 *525:28 *2059:A 1.7635e-05
39 *527:34 *2059:A 6.08204e-05
40 *534:153 *2059:A 0.000387279
41 *540:116 *2059:A 0.000159964
42 *541:18 *2059:A 0.000695008
43 *541:36 *2059:A 0.000266031
*RES
1 *2109:X *566:14 13.93 
2 *566:14 *2058:A 12.79 
3 *566:14 *2059:A 39.14 
*END

*D_NET *567 0.00121463
*CONN
*I *1909:B I *D sky130_fd_sc_hd__xnor2_2
*I *2122:X O *D sky130_fd_sc_hd__buf_2
*CAP
1 *1909:B 0.000410787
2 *2122:X 0.000410787
3 *1909:A *1909:B 3.25831e-05
4 *1932:A3 *1909:B 0
5 *2037:A *1909:B 9.54399e-05
6 *490:27 *1909:B 0.00024259
7 *521:57 *1909:B 0
8 *521:79 *1909:B 0
9 *523:16 *1909:B 2.24423e-05
*RES
1 *2122:X *1909:B 15.405 
*END

*D_NET *568 0.00479744
*CONN
*I *2057:A I *D sky130_fd_sc_hd__clkbuf_4
*I *2110:X O *D sky130_fd_sc_hd__clkbuf_1
*CAP
1 *2057:A 0.00171737
2 *2110:X 0.00171737
3 *2084:A *2057:A 0.000915207
4 *475:68 *2057:A 3.99395e-05
5 *494:14 *2057:A 0.000387079
6 *515:88 *2057:A 2.04763e-05
*RES
1 *2110:X *2057:A 14.0595 
*END

*D_NET *569 0.000539287
*CONN
*I *1932:B1 I *D sky130_fd_sc_hd__a31oi_2
*I *2124:X O *D sky130_fd_sc_hd__dlymetal6s2s_1
*CAP
1 *1932:B1 0.000152776
2 *2124:X 0.000152776
3 *1932:A3 *1932:B1 8.08153e-06
4 *2037:A *1932:B1 6.44134e-05
5 *2122:A *1932:B1 0.000161241
*RES
1 *2124:X *1932:B1 10.575 
*END
