*SPEF "ieee 1481-1999"
*DESIGN "alu8bit"
*DATE "11:54:25 Wednesday August 05, 2026"
*VENDOR "The OpenROAD Project"
*PROGRAM "OpenROAD"
*VERSION "edf00dff99f6c40d67a30c0e22a8191c5d2ed9d6"
*DESIGN_FLOW "NAME_SCOPE LOCAL" "PIN_CAP NONE"
*DIVIDER /
*DELIMITER :
*BUS_DELIMITER []
*T_UNIT 1 NS
*C_UNIT 1 PF
*R_UNIT 1 OHM
*L_UNIT 1 HENRY

*NAME_MAP
*3 inst[0]
*4 inst[1]
*5 inst[2]
*6 inst[3]
*7 op_a[0]
*8 op_a[1]
*9 op_a[2]
*10 op_a[3]
*11 op_a[4]
*12 op_a[5]
*13 op_a[6]
*14 op_a[7]
*15 op_b[0]
*16 op_b[1]
*17 op_b[2]
*18 op_b[3]
*19 op_b[4]
*20 op_b[5]
*21 op_b[6]
*22 op_b[7]
*23 op_out[0]
*24 op_out[1]
*25 op_out[2]
*26 op_out[3]
*27 op_out[4]
*28 op_out[5]
*29 op_out[6]
*30 op_out[7]
*31 _000_
*32 _001_
*33 _002_
*34 _003_
*35 _004_
*36 _005_
*37 _006_
*38 _007_
*39 _008_
*40 _009_
*41 _010_
*42 _011_
*43 _012_
*44 _013_
*45 _014_
*46 _015_
*47 _016_
*48 _017_
*49 _018_
*50 _019_
*51 _020_
*52 _021_
*53 _022_
*54 _023_
*55 _024_
*56 _025_
*57 _026_
*58 _027_
*59 _028_
*60 _029_
*61 _030_
*62 _031_
*63 _032_
*64 _033_
*65 _034_
*66 _035_
*67 _036_
*68 _037_
*69 _038_
*70 _039_
*71 _040_
*72 _041_
*73 _042_
*74 _043_
*75 _044_
*76 _045_
*77 _046_
*78 _047_
*79 _048_
*80 _049_
*81 _050_
*82 _051_
*83 _052_
*84 _053_
*85 _054_
*86 _055_
*87 _056_
*88 _057_
*89 _058_
*90 _059_
*91 _060_
*92 _061_
*93 _062_
*94 _063_
*95 _064_
*96 _065_
*97 _066_
*98 _067_
*99 _068_
*100 _069_
*101 _070_
*102 _071_
*103 _072_
*104 _073_
*105 _074_
*106 _075_
*107 _076_
*108 _077_
*109 _078_
*110 _079_
*111 _080_
*112 _081_
*113 _082_
*114 _083_
*115 _084_
*116 _085_
*117 _086_
*118 _087_
*119 _088_
*120 _089_
*121 _090_
*122 _091_
*123 _092_
*124 _093_
*125 _094_
*126 _095_
*127 _096_
*128 _097_
*129 _098_
*130 _099_
*131 _100_
*132 _101_
*133 _102_
*134 _103_
*135 _104_
*136 _105_
*137 _106_
*138 _107_
*139 _108_
*140 _109_
*141 _110_
*142 _111_
*143 _112_
*144 _113_
*145 _114_
*146 _115_
*147 _116_
*148 _117_
*149 _118_
*150 _119_
*151 _120_
*152 _121_
*153 _122_
*154 _123_
*155 _124_
*156 _125_
*157 _126_
*158 _127_
*159 _128_
*160 _129_
*161 _130_
*162 _131_
*163 _132_
*164 _133_
*165 _134_
*166 _135_
*167 _136_
*168 _137_
*169 _138_
*170 _139_
*171 _140_
*172 _141_
*173 _142_
*174 _143_
*175 _144_
*176 _145_
*177 _146_
*178 _147_
*179 _148_
*180 _149_
*181 _150_
*182 _151_
*183 _152_
*184 _153_
*185 _154_
*186 _155_
*187 _156_
*188 _157_
*189 _158_
*190 _159_
*191 _160_
*192 _161_
*193 _162_
*194 _163_
*195 _164_
*196 _165_
*197 _166_
*198 _167_
*199 _168_
*200 _169_
*201 _170_
*202 _171_
*203 _172_
*204 _173_
*205 _174_
*206 _175_
*207 _176_
*208 _177_
*209 _178_
*210 _179_
*211 _180_
*212 _181_
*213 _182_
*214 _183_
*215 _184_
*216 _185_
*217 _186_
*218 _187_
*219 _188_
*220 _189_
*221 _190_
*222 _191_
*223 _192_
*224 _193_
*225 _194_
*226 _195_
*227 _196_
*228 _197_
*229 _198_
*230 _199_
*231 _200_
*232 _201_
*233 _202_
*234 _203_
*235 _204_
*236 _205_
*237 _206_
*238 _207_
*239 _208_
*240 _209_
*241 _210_
*242 _211_
*243 _212_
*244 _213_
*245 _214_
*246 _215_
*247 _216_
*248 _217_
*249 _218_
*250 _219_
*251 _220_
*252 _221_
*253 _222_
*254 _223_
*255 _224_
*256 _225_
*257 _226_
*258 _227_
*259 _228_
*260 _229_
*261 _230_
*262 _231_
*263 _232_
*264 _233_
*265 _234_
*266 _235_
*267 _236_
*268 _237_
*269 _238_
*270 _239_
*271 _240_
*272 _241_
*273 _242_
*274 _243_
*275 _244_
*276 _245_
*277 _246_
*278 _247_
*279 _248_
*280 _249_
*281 _250_
*282 _251_
*283 _252_
*284 _253_
*285 _254_
*286 _255_
*287 _256_
*288 _257_
*289 _258_
*290 _259_
*291 _260_
*292 _261_
*293 _262_
*294 _263_
*295 _264_
*296 _265_
*297 _266_
*298 _267_
*299 _268_
*300 _269_
*301 _270_
*302 _271_
*303 _272_
*304 _273_
*305 _274_
*306 _275_
*307 _276_
*308 _277_
*309 _278_
*310 _279_
*311 _280_
*312 _281_
*313 _282_
*314 _283_
*315 _284_
*316 _285_
*317 _286_
*318 _287_
*319 _288_
*320 _289_
*321 _290_
*322 _291_
*323 _292_
*324 _293_
*325 _294_
*326 _295_
*327 _296_
*328 _297_
*329 _298_
*330 _299_
*331 _300_
*332 _301_
*333 _302_
*334 _303_
*335 _304_
*336 _305_
*337 _306_
*338 _307_
*339 _308_
*340 _309_
*341 _310_
*342 _311_
*343 _312_
*344 _313_
*345 _314_
*346 _315_
*347 _316_
*348 _317_
*349 _318_
*350 _319_
*351 _320_
*352 _321_
*353 _322_
*354 _323_
*355 _324_
*356 _325_
*357 _326_
*358 _327_
*359 _328_
*360 _329_
*361 _330_
*362 _331_
*363 _332_
*364 _333_
*365 _334_
*366 _335_
*367 _336_
*368 _337_
*369 _338_
*370 _339_
*371 _340_
*372 _341_
*373 _342_
*374 _343_
*375 _344_
*376 _345_
*377 _346_
*378 _347_
*379 _348_
*380 _349_
*381 _350_
*382 _351_
*383 _352_
*384 _353_
*385 _354_
*386 _355_
*387 _356_
*388 _357_
*389 _358_
*390 _359_
*391 _360_
*392 _361_
*393 _362_
*394 _363_
*395 _364_
*396 _365_
*397 _366_
*398 _367_
*399 _368_
*400 _369_
*401 _370_
*402 _371_
*403 _372_
*404 _373_
*405 _374_
*406 _375_
*407 _376_
*408 _377_
*409 _378_
*410 _379_
*411 _380_
*412 _381_
*413 _382_
*414 _383_
*415 _384_
*416 _385_
*417 _386_
*418 _387_
*419 _388_
*420 _389_
*421 _390_
*422 _391_
*423 _392_
*424 _393_
*425 _394_
*426 _395_
*427 _396_
*428 _397_
*429 _398_
*430 _399_
*431 _400_
*432 _401_
*433 _402_
*434 _403_
*435 _404_
*436 _405_
*437 _406_
*438 _407_
*439 _408_
*440 _409_
*441 _410_
*442 _411_
*443 _412_
*444 _413_
*445 _414_
*446 _415_
*447 _416_
*448 _417_
*449 _418_
*450 _419_
*451 _420_
*452 _421_
*453 _422_
*454 _423_
*455 _424_
*456 _425_
*457 _426_
*458 _427_
*459 _428_
*460 _429_
*461 _430_
*462 _431_
*463 _432_
*464 _433_
*465 _434_
*466 _435_
*467 _436_
*468 _437_
*469 _438_
*470 _439_
*471 _440_
*472 _441_
*473 _442_
*474 _443_
*475 _444_
*476 _445_
*477 _446_
*478 _447_
*479 _448_
*480 _449_
*481 _450_
*482 _451_
*483 _452_
*484 _453_
*485 _454_
*486 _455_
*487 _456_
*488 _457_
*489 net1
*490 net10
*491 net11
*492 net12
*493 net13
*494 net14
*495 net15
*496 net16
*497 net17
*498 net18
*499 net19
*500 net2
*501 net20
*502 net21
*503 net22
*504 net23
*505 net24
*506 net25
*507 net26
*508 net27
*509 net28
*510 net29
*511 net3
*512 net30
*513 net31
*514 net32
*515 net33
*516 net34
*517 net35
*518 net36
*519 net37
*520 net38
*521 net39
*522 net4
*523 net40
*524 net41
*525 net42
*526 net43
*527 net44
*528 net45
*529 net46
*530 net47
*531 net48
*532 net49
*533 net5
*534 net50
*535 net51
*536 net52
*537 net53
*538 net54
*539 net55
*540 net56
*541 net57
*542 net58
*543 net59
*544 net6
*545 net60
*546 net61
*547 net62
*548 net63
*549 net64
*550 net65
*551 net66
*552 net67
*553 net68
*554 net69
*555 net7
*556 net70
*557 net8
*558 net9
*559 FILLER_0_109
*560 FILLER_0_113
*561 FILLER_0_125
*562 FILLER_0_137
*563 FILLER_0_141
*564 FILLER_0_15
*565 FILLER_0_153
*566 FILLER_0_165
*567 FILLER_0_169
*568 FILLER_0_181
*569 FILLER_0_193
*570 FILLER_0_197
*571 FILLER_0_209
*572 FILLER_0_221
*573 FILLER_0_225
*574 FILLER_0_237
*575 FILLER_0_249
*576 FILLER_0_253
*577 FILLER_0_27
*578 FILLER_0_29
*579 FILLER_0_3
*580 FILLER_0_41
*581 FILLER_0_53
*582 FILLER_0_57
*583 FILLER_0_69
*584 FILLER_0_81
*585 FILLER_0_85
*586 FILLER_0_97
*587 FILLER_10_109
*588 FILLER_10_121
*589 FILLER_10_133
*590 FILLER_10_139
*591 FILLER_10_141
*592 FILLER_10_15
*593 FILLER_10_153
*594 FILLER_10_165
*595 FILLER_10_177
*596 FILLER_10_189
*597 FILLER_10_195
*598 FILLER_10_197
*599 FILLER_10_209
*600 FILLER_10_221
*601 FILLER_10_233
*602 FILLER_10_245
*603 FILLER_10_251
*604 FILLER_10_253
*605 FILLER_10_27
*606 FILLER_10_29
*607 FILLER_10_3
*608 FILLER_10_41
*609 FILLER_10_53
*610 FILLER_10_65
*611 FILLER_10_77
*612 FILLER_10_83
*613 FILLER_10_85
*614 FILLER_10_97
*615 FILLER_11_105
*616 FILLER_11_111
*617 FILLER_11_113
*618 FILLER_11_125
*619 FILLER_11_137
*620 FILLER_11_149
*621 FILLER_11_15
*622 FILLER_11_161
*623 FILLER_11_167
*624 FILLER_11_169
*625 FILLER_11_181
*626 FILLER_11_193
*627 FILLER_11_205
*628 FILLER_11_217
*629 FILLER_11_223
*630 FILLER_11_225
*631 FILLER_11_237
*632 FILLER_11_249
*633 FILLER_11_255
*634 FILLER_11_27
*635 FILLER_11_3
*636 FILLER_11_39
*637 FILLER_11_51
*638 FILLER_11_55
*639 FILLER_11_57
*640 FILLER_11_69
*641 FILLER_11_81
*642 FILLER_11_93
*643 FILLER_12_109
*644 FILLER_12_121
*645 FILLER_12_133
*646 FILLER_12_139
*647 FILLER_12_141
*648 FILLER_12_15
*649 FILLER_12_153
*650 FILLER_12_165
*651 FILLER_12_177
*652 FILLER_12_189
*653 FILLER_12_195
*654 FILLER_12_197
*655 FILLER_12_209
*656 FILLER_12_221
*657 FILLER_12_233
*658 FILLER_12_245
*659 FILLER_12_251
*660 FILLER_12_253
*661 FILLER_12_27
*662 FILLER_12_29
*663 FILLER_12_3
*664 FILLER_12_41
*665 FILLER_12_53
*666 FILLER_12_65
*667 FILLER_12_77
*668 FILLER_12_83
*669 FILLER_12_85
*670 FILLER_12_97
*671 FILLER_13_105
*672 FILLER_13_111
*673 FILLER_13_113
*674 FILLER_13_125
*675 FILLER_13_137
*676 FILLER_13_149
*677 FILLER_13_15
*678 FILLER_13_161
*679 FILLER_13_167
*680 FILLER_13_169
*681 FILLER_13_181
*682 FILLER_13_188
*683 FILLER_13_194
*684 FILLER_13_206
*685 FILLER_13_214
*686 FILLER_13_222
*687 FILLER_13_229
*688 FILLER_13_241
*689 FILLER_13_253
*690 FILLER_13_27
*691 FILLER_13_3
*692 FILLER_13_39
*693 FILLER_13_51
*694 FILLER_13_55
*695 FILLER_13_57
*696 FILLER_13_69
*697 FILLER_13_81
*698 FILLER_13_93
*699 FILLER_14_107
*700 FILLER_14_119
*701 FILLER_14_138
*702 FILLER_14_144
*703 FILLER_14_15
*704 FILLER_14_152
*705 FILLER_14_160
*706 FILLER_14_164
*707 FILLER_14_168
*708 FILLER_14_180
*709 FILLER_14_204
*710 FILLER_14_231
*711 FILLER_14_243
*712 FILLER_14_251
*713 FILLER_14_253
*714 FILLER_14_27
*715 FILLER_14_29
*716 FILLER_14_3
*717 FILLER_14_41
*718 FILLER_14_53
*719 FILLER_14_65
*720 FILLER_14_77
*721 FILLER_14_83
*722 FILLER_14_85
*723 FILLER_15_108
*724 FILLER_15_116
*725 FILLER_15_132
*726 FILLER_15_15
*727 FILLER_15_153
*728 FILLER_15_166
*729 FILLER_15_176
*730 FILLER_15_191
*731 FILLER_15_203
*732 FILLER_15_211
*733 FILLER_15_221
*734 FILLER_15_230
*735 FILLER_15_242
*736 FILLER_15_254
*737 FILLER_15_27
*738 FILLER_15_3
*739 FILLER_15_39
*740 FILLER_15_51
*741 FILLER_15_55
*742 FILLER_15_57
*743 FILLER_15_69
*744 FILLER_15_81
*745 FILLER_15_93
*746 FILLER_16_102
*747 FILLER_16_114
*748 FILLER_16_122
*749 FILLER_16_137
*750 FILLER_16_141
*751 FILLER_16_15
*752 FILLER_16_153
*753 FILLER_16_171
*754 FILLER_16_183
*755 FILLER_16_195
*756 FILLER_16_197
*757 FILLER_16_209
*758 FILLER_16_221
*759 FILLER_16_231
*760 FILLER_16_243
*761 FILLER_16_251
*762 FILLER_16_253
*763 FILLER_16_27
*764 FILLER_16_29
*765 FILLER_16_3
*766 FILLER_16_41
*767 FILLER_16_53
*768 FILLER_16_72
*769 FILLER_16_76
*770 FILLER_16_80
*771 FILLER_16_85
*772 FILLER_17_104
*773 FILLER_17_121
*774 FILLER_17_128
*775 FILLER_17_144
*776 FILLER_17_15
*777 FILLER_17_152
*778 FILLER_17_166
*779 FILLER_17_177
*780 FILLER_17_185
*781 FILLER_17_195
*782 FILLER_17_207
*783 FILLER_17_215
*784 FILLER_17_225
*785 FILLER_17_234
*786 FILLER_17_246
*787 FILLER_17_254
*788 FILLER_17_27
*789 FILLER_17_3
*790 FILLER_17_39
*791 FILLER_17_47
*792 FILLER_17_68
*793 FILLER_17_80
*794 FILLER_17_92
*795 FILLER_18_101
*796 FILLER_18_112
*797 FILLER_18_124
*798 FILLER_18_137
*799 FILLER_18_141
*800 FILLER_18_15
*801 FILLER_18_153
*802 FILLER_18_165
*803 FILLER_18_177
*804 FILLER_18_186
*805 FILLER_18_194
*806 FILLER_18_201
*807 FILLER_18_213
*808 FILLER_18_221
*809 FILLER_18_234
*810 FILLER_18_244
*811 FILLER_18_253
*812 FILLER_18_27
*813 FILLER_18_29
*814 FILLER_18_3
*815 FILLER_18_41
*816 FILLER_18_56
*817 FILLER_18_68
*818 FILLER_18_72
*819 FILLER_18_93
*820 FILLER_19_104
*821 FILLER_19_109
*822 FILLER_19_116
*823 FILLER_19_122
*824 FILLER_19_134
*825 FILLER_19_146
*826 FILLER_19_15
*827 FILLER_19_158
*828 FILLER_19_166
*829 FILLER_19_169
*830 FILLER_19_219
*831 FILLER_19_223
*832 FILLER_19_225
*833 FILLER_19_237
*834 FILLER_19_27
*835 FILLER_19_3
*836 FILLER_19_39
*837 FILLER_19_51
*838 FILLER_19_55
*839 FILLER_19_57
*840 FILLER_19_69
*841 FILLER_19_98
*842 FILLER_1_105
*843 FILLER_1_111
*844 FILLER_1_113
*845 FILLER_1_125
*846 FILLER_1_137
*847 FILLER_1_149
*848 FILLER_1_15
*849 FILLER_1_161
*850 FILLER_1_167
*851 FILLER_1_169
*852 FILLER_1_181
*853 FILLER_1_193
*854 FILLER_1_205
*855 FILLER_1_217
*856 FILLER_1_223
*857 FILLER_1_225
*858 FILLER_1_237
*859 FILLER_1_249
*860 FILLER_1_257
*861 FILLER_1_27
*862 FILLER_1_3
*863 FILLER_1_39
*864 FILLER_1_51
*865 FILLER_1_55
*866 FILLER_1_57
*867 FILLER_1_69
*868 FILLER_1_81
*869 FILLER_1_93
*870 FILLER_20_100
*871 FILLER_20_104
*872 FILLER_20_113
*873 FILLER_20_125
*874 FILLER_20_15
*875 FILLER_20_158
*876 FILLER_20_170
*877 FILLER_20_184
*878 FILLER_20_197
*879 FILLER_20_221
*880 FILLER_20_233
*881 FILLER_20_251
*882 FILLER_20_253
*883 FILLER_20_27
*884 FILLER_20_29
*885 FILLER_20_3
*886 FILLER_20_41
*887 FILLER_20_53
*888 FILLER_20_66
*889 FILLER_20_83
*890 FILLER_20_88
*891 FILLER_21_102
*892 FILLER_21_110
*893 FILLER_21_116
*894 FILLER_21_128
*895 FILLER_21_15
*896 FILLER_21_152
*897 FILLER_21_164
*898 FILLER_21_183
*899 FILLER_21_194
*900 FILLER_21_202
*901 FILLER_21_208
*902 FILLER_21_214
*903 FILLER_21_222
*904 FILLER_21_225
*905 FILLER_21_238
*906 FILLER_21_255
*907 FILLER_21_27
*908 FILLER_21_3
*909 FILLER_21_39
*910 FILLER_21_55
*911 FILLER_21_57
*912 FILLER_21_69
*913 FILLER_21_78
*914 FILLER_21_90
*915 FILLER_22_103
*916 FILLER_22_107
*917 FILLER_22_111
*918 FILLER_22_123
*919 FILLER_22_139
*920 FILLER_22_152
*921 FILLER_22_164
*922 FILLER_22_168
*923 FILLER_22_181
*924 FILLER_22_189
*925 FILLER_22_195
*926 FILLER_22_203
*927 FILLER_22_215
*928 FILLER_22_227
*929 FILLER_22_239
*930 FILLER_22_244
*931 FILLER_22_253
*932 FILLER_22_26
*933 FILLER_22_29
*934 FILLER_22_3
*935 FILLER_22_35
*936 FILLER_22_59
*937 FILLER_22_71
*938 FILLER_22_79
*939 FILLER_22_91
*940 FILLER_23_100
*941 FILLER_23_107
*942 FILLER_23_111
*943 FILLER_23_113
*944 FILLER_23_120
*945 FILLER_23_128
*946 FILLER_23_137
*947 FILLER_23_147
*948 FILLER_23_159
*949 FILLER_23_164
*950 FILLER_23_169
*951 FILLER_23_181
*952 FILLER_23_193
*953 FILLER_23_205
*954 FILLER_23_213
*955 FILLER_23_231
*956 FILLER_23_235
*957 FILLER_23_241
*958 FILLER_23_251
*959 FILLER_23_3
*960 FILLER_23_36
*961 FILLER_23_54
*962 FILLER_23_57
*963 FILLER_23_78
*964 FILLER_23_94
*965 FILLER_24_112
*966 FILLER_24_124
*967 FILLER_24_128
*968 FILLER_24_13
*969 FILLER_24_135
*970 FILLER_24_139
*971 FILLER_24_141
*972 FILLER_24_173
*973 FILLER_24_185
*974 FILLER_24_194
*975 FILLER_24_201
*976 FILLER_24_205
*977 FILLER_24_222
*978 FILLER_24_237
*979 FILLER_24_24
*980 FILLER_24_256
*981 FILLER_24_3
*982 FILLER_24_50
*983 FILLER_24_62
*984 FILLER_24_85
*985 FILLER_24_97
*986 FILLER_25_116
*987 FILLER_25_120
*988 FILLER_25_124
*989 FILLER_25_136
*990 FILLER_25_144
*991 FILLER_25_160
*992 FILLER_25_17
*993 FILLER_25_180
*994 FILLER_25_188
*995 FILLER_25_208
*996 FILLER_25_220
*997 FILLER_25_225
*998 FILLER_25_229
*999 FILLER_25_234
*1000 FILLER_25_246
*1001 FILLER_25_258
*1002 FILLER_25_29
*1003 FILLER_25_3
*1004 FILLER_25_49
*1005 FILLER_25_55
*1006 FILLER_25_57
*1007 FILLER_25_65
*1008 FILLER_25_71
*1009 FILLER_25_83
*1010 FILLER_25_91
*1011 FILLER_26_114
*1012 FILLER_26_12
*1013 FILLER_26_125
*1014 FILLER_26_133
*1015 FILLER_26_141
*1016 FILLER_26_181
*1017 FILLER_26_193
*1018 FILLER_26_20
*1019 FILLER_26_200
*1020 FILLER_26_212
*1021 FILLER_26_224
*1022 FILLER_26_236
*1023 FILLER_26_240
*1024 FILLER_26_248
*1025 FILLER_26_253
*1026 FILLER_26_29
*1027 FILLER_26_41
*1028 FILLER_26_56
*1029 FILLER_26_6
*1030 FILLER_26_68
*1031 FILLER_26_80
*1032 FILLER_26_85
*1033 FILLER_26_97
*1034 FILLER_27_110
*1035 FILLER_27_113
*1036 FILLER_27_125
*1037 FILLER_27_137
*1038 FILLER_27_14
*1039 FILLER_27_152
*1040 FILLER_27_164
*1041 FILLER_27_174
*1042 FILLER_27_179
*1043 FILLER_27_191
*1044 FILLER_27_203
*1045 FILLER_27_215
*1046 FILLER_27_235
*1047 FILLER_27_247
*1048 FILLER_27_25
*1049 FILLER_27_37
*1050 FILLER_27_41
*1051 FILLER_27_51
*1052 FILLER_27_55
*1053 FILLER_27_6
*1054 FILLER_27_71
*1055 FILLER_27_83
*1056 FILLER_27_95
*1057 FILLER_28_102
*1058 FILLER_28_109
*1059 FILLER_28_121
*1060 FILLER_28_131
*1061 FILLER_28_139
*1062 FILLER_28_141
*1063 FILLER_28_15
*1064 FILLER_28_153
*1065 FILLER_28_175
*1066 FILLER_28_187
*1067 FILLER_28_195
*1068 FILLER_28_197
*1069 FILLER_28_211
*1070 FILLER_28_220
*1071 FILLER_28_228
*1072 FILLER_28_239
*1073 FILLER_28_251
*1074 FILLER_28_253
*1075 FILLER_28_27
*1076 FILLER_28_29
*1077 FILLER_28_3
*1078 FILLER_28_41
*1079 FILLER_28_49
*1080 FILLER_28_78
*1081 FILLER_28_90
*1082 FILLER_29_111
*1083 FILLER_29_113
*1084 FILLER_29_143
*1085 FILLER_29_15
*1086 FILLER_29_155
*1087 FILLER_29_167
*1088 FILLER_29_169
*1089 FILLER_29_181
*1090 FILLER_29_189
*1091 FILLER_29_198
*1092 FILLER_29_206
*1093 FILLER_29_222
*1094 FILLER_29_230
*1095 FILLER_29_242
*1096 FILLER_29_248
*1097 FILLER_29_254
*1098 FILLER_29_26
*1099 FILLER_29_3
*1100 FILLER_29_41
*1101 FILLER_29_51
*1102 FILLER_29_55
*1103 FILLER_29_57
*1104 FILLER_29_77
*1105 FILLER_29_92
*1106 FILLER_2_109
*1107 FILLER_2_121
*1108 FILLER_2_133
*1109 FILLER_2_139
*1110 FILLER_2_141
*1111 FILLER_2_15
*1112 FILLER_2_153
*1113 FILLER_2_165
*1114 FILLER_2_177
*1115 FILLER_2_189
*1116 FILLER_2_195
*1117 FILLER_2_197
*1118 FILLER_2_209
*1119 FILLER_2_221
*1120 FILLER_2_233
*1121 FILLER_2_245
*1122 FILLER_2_251
*1123 FILLER_2_253
*1124 FILLER_2_27
*1125 FILLER_2_29
*1126 FILLER_2_3
*1127 FILLER_2_41
*1128 FILLER_2_53
*1129 FILLER_2_65
*1130 FILLER_2_77
*1131 FILLER_2_83
*1132 FILLER_2_85
*1133 FILLER_2_97
*1134 FILLER_30_109
*1135 FILLER_30_121
*1136 FILLER_30_131
*1137 FILLER_30_141
*1138 FILLER_30_150
*1139 FILLER_30_155
*1140 FILLER_30_161
*1141 FILLER_30_197
*1142 FILLER_30_209
*1143 FILLER_30_224
*1144 FILLER_30_236
*1145 FILLER_30_258
*1146 FILLER_30_27
*1147 FILLER_30_29
*1148 FILLER_30_3
*1149 FILLER_30_55
*1150 FILLER_30_67
*1151 FILLER_30_71
*1152 FILLER_30_78
*1153 FILLER_30_96
*1154 FILLER_31_116
*1155 FILLER_31_128
*1156 FILLER_31_136
*1157 FILLER_31_143
*1158 FILLER_31_149
*1159 FILLER_31_164
*1160 FILLER_31_176
*1161 FILLER_31_188
*1162 FILLER_31_193
*1163 FILLER_31_205
*1164 FILLER_31_217
*1165 FILLER_31_22
*1166 FILLER_31_223
*1167 FILLER_31_225
*1168 FILLER_31_233
*1169 FILLER_31_257
*1170 FILLER_31_44
*1171 FILLER_31_53
*1172 FILLER_31_63
*1173 FILLER_31_7
*1174 FILLER_31_82
*1175 FILLER_31_94
*1176 FILLER_32_103
*1177 FILLER_32_115
*1178 FILLER_32_126
*1179 FILLER_32_148
*1180 FILLER_32_160
*1181 FILLER_32_172
*1182 FILLER_32_18
*1183 FILLER_32_184
*1184 FILLER_32_197
*1185 FILLER_32_209
*1186 FILLER_32_221
*1187 FILLER_32_233
*1188 FILLER_32_243
*1189 FILLER_32_250
*1190 FILLER_32_253
*1191 FILLER_32_26
*1192 FILLER_32_29
*1193 FILLER_32_3
*1194 FILLER_32_50
*1195 FILLER_32_58
*1196 FILLER_32_73
*1197 FILLER_32_77
*1198 FILLER_32_83
*1199 FILLER_33_105
*1200 FILLER_33_111
*1201 FILLER_33_113
*1202 FILLER_33_125
*1203 FILLER_33_133
*1204 FILLER_33_141
*1205 FILLER_33_15
*1206 FILLER_33_153
*1207 FILLER_33_165
*1208 FILLER_33_169
*1209 FILLER_33_185
*1210 FILLER_33_197
*1211 FILLER_33_205
*1212 FILLER_33_223
*1213 FILLER_33_225
*1214 FILLER_33_233
*1215 FILLER_33_240
*1216 FILLER_33_252
*1217 FILLER_33_258
*1218 FILLER_33_27
*1219 FILLER_33_3
*1220 FILLER_33_35
*1221 FILLER_33_47
*1222 FILLER_33_55
*1223 FILLER_33_57
*1224 FILLER_33_69
*1225 FILLER_33_78
*1226 FILLER_33_82
*1227 FILLER_33_93
*1228 FILLER_34_102
*1229 FILLER_34_132
*1230 FILLER_34_147
*1231 FILLER_34_151
*1232 FILLER_34_157
*1233 FILLER_34_165
*1234 FILLER_34_18
*1235 FILLER_34_185
*1236 FILLER_34_189
*1237 FILLER_34_197
*1238 FILLER_34_223
*1239 FILLER_34_235
*1240 FILLER_34_243
*1241 FILLER_34_251
*1242 FILLER_34_253
*1243 FILLER_34_26
*1244 FILLER_34_29
*1245 FILLER_34_44
*1246 FILLER_34_51
*1247 FILLER_34_6
*1248 FILLER_34_63
*1249 FILLER_34_75
*1250 FILLER_34_83
*1251 FILLER_34_85
*1252 FILLER_34_93
*1253 FILLER_35_111
*1254 FILLER_35_122
*1255 FILLER_35_136
*1256 FILLER_35_144
*1257 FILLER_35_167
*1258 FILLER_35_169
*1259 FILLER_35_191
*1260 FILLER_35_201
*1261 FILLER_35_209
*1262 FILLER_35_217
*1263 FILLER_35_223
*1264 FILLER_35_225
*1265 FILLER_35_24
*1266 FILLER_35_248
*1267 FILLER_35_256
*1268 FILLER_35_32
*1269 FILLER_35_57
*1270 FILLER_35_6
*1271 FILLER_35_69
*1272 FILLER_35_76
*1273 FILLER_35_97
*1274 FILLER_36_101
*1275 FILLER_36_105
*1276 FILLER_36_111
*1277 FILLER_36_119
*1278 FILLER_36_130
*1279 FILLER_36_138
*1280 FILLER_36_14
*1281 FILLER_36_141
*1282 FILLER_36_149
*1283 FILLER_36_158
*1284 FILLER_36_162
*1285 FILLER_36_169
*1286 FILLER_36_177
*1287 FILLER_36_188
*1288 FILLER_36_197
*1289 FILLER_36_20
*1290 FILLER_36_209
*1291 FILLER_36_221
*1292 FILLER_36_233
*1293 FILLER_36_248
*1294 FILLER_36_253
*1295 FILLER_36_38
*1296 FILLER_36_50
*1297 FILLER_36_6
*1298 FILLER_36_62
*1299 FILLER_36_85
*1300 FILLER_36_97
*1301 FILLER_37_110
*1302 FILLER_37_113
*1303 FILLER_37_125
*1304 FILLER_37_141
*1305 FILLER_37_15
*1306 FILLER_37_153
*1307 FILLER_37_159
*1308 FILLER_37_166
*1309 FILLER_37_173
*1310 FILLER_37_185
*1311 FILLER_37_205
*1312 FILLER_37_217
*1313 FILLER_37_223
*1314 FILLER_37_225
*1315 FILLER_37_229
*1316 FILLER_37_235
*1317 FILLER_37_248
*1318 FILLER_37_256
*1319 FILLER_37_27
*1320 FILLER_37_3
*1321 FILLER_37_39
*1322 FILLER_37_47
*1323 FILLER_37_54
*1324 FILLER_37_61
*1325 FILLER_37_69
*1326 FILLER_37_78
*1327 FILLER_37_86
*1328 FILLER_37_98
*1329 FILLER_38_105
*1330 FILLER_38_117
*1331 FILLER_38_129
*1332 FILLER_38_137
*1333 FILLER_38_141
*1334 FILLER_38_15
*1335 FILLER_38_153
*1336 FILLER_38_165
*1337 FILLER_38_171
*1338 FILLER_38_183
*1339 FILLER_38_195
*1340 FILLER_38_197
*1341 FILLER_38_220
*1342 FILLER_38_230
*1343 FILLER_38_234
*1344 FILLER_38_238
*1345 FILLER_38_250
*1346 FILLER_38_253
*1347 FILLER_38_27
*1348 FILLER_38_29
*1349 FILLER_38_3
*1350 FILLER_38_37
*1351 FILLER_38_45
*1352 FILLER_38_50
*1353 FILLER_38_62
*1354 FILLER_38_74
*1355 FILLER_38_82
*1356 FILLER_38_85
*1357 FILLER_38_97
*1358 FILLER_39_102
*1359 FILLER_39_111
*1360 FILLER_39_113
*1361 FILLER_39_125
*1362 FILLER_39_134
*1363 FILLER_39_15
*1364 FILLER_39_162
*1365 FILLER_39_177
*1366 FILLER_39_194
*1367 FILLER_39_206
*1368 FILLER_39_212
*1369 FILLER_39_223
*1370 FILLER_39_225
*1371 FILLER_39_232
*1372 FILLER_39_244
*1373 FILLER_39_256
*1374 FILLER_39_27
*1375 FILLER_39_3
*1376 FILLER_39_39
*1377 FILLER_39_51
*1378 FILLER_39_55
*1379 FILLER_39_57
*1380 FILLER_39_69
*1381 FILLER_39_77
*1382 FILLER_39_90
*1383 FILLER_3_105
*1384 FILLER_3_111
*1385 FILLER_3_113
*1386 FILLER_3_125
*1387 FILLER_3_137
*1388 FILLER_3_149
*1389 FILLER_3_15
*1390 FILLER_3_161
*1391 FILLER_3_167
*1392 FILLER_3_169
*1393 FILLER_3_181
*1394 FILLER_3_193
*1395 FILLER_3_205
*1396 FILLER_3_217
*1397 FILLER_3_223
*1398 FILLER_3_225
*1399 FILLER_3_237
*1400 FILLER_3_249
*1401 FILLER_3_257
*1402 FILLER_3_27
*1403 FILLER_3_3
*1404 FILLER_3_39
*1405 FILLER_3_51
*1406 FILLER_3_55
*1407 FILLER_3_57
*1408 FILLER_3_69
*1409 FILLER_3_81
*1410 FILLER_3_93
*1411 FILLER_40_102
*1412 FILLER_40_107
*1413 FILLER_40_119
*1414 FILLER_40_141
*1415 FILLER_40_15
*1416 FILLER_40_153
*1417 FILLER_40_179
*1418 FILLER_40_191
*1419 FILLER_40_195
*1420 FILLER_40_217
*1421 FILLER_40_229
*1422 FILLER_40_241
*1423 FILLER_40_27
*1424 FILLER_40_29
*1425 FILLER_40_3
*1426 FILLER_40_41
*1427 FILLER_40_53
*1428 FILLER_40_65
*1429 FILLER_40_77
*1430 FILLER_40_83
*1431 FILLER_40_88
*1432 FILLER_40_94
*1433 FILLER_41_119
*1434 FILLER_41_141
*1435 FILLER_41_15
*1436 FILLER_41_153
*1437 FILLER_41_184
*1438 FILLER_41_205
*1439 FILLER_41_240
*1440 FILLER_41_257
*1441 FILLER_41_27
*1442 FILLER_41_3
*1443 FILLER_41_39
*1444 FILLER_41_51
*1445 FILLER_41_55
*1446 FILLER_41_57
*1447 FILLER_41_69
*1448 FILLER_41_75
*1449 FILLER_42_109
*1450 FILLER_42_117
*1451 FILLER_42_124
*1452 FILLER_42_130
*1453 FILLER_42_138
*1454 FILLER_42_141
*1455 FILLER_42_15
*1456 FILLER_42_153
*1457 FILLER_42_157
*1458 FILLER_42_178
*1459 FILLER_42_216
*1460 FILLER_42_228
*1461 FILLER_42_240
*1462 FILLER_42_245
*1463 FILLER_42_256
*1464 FILLER_42_27
*1465 FILLER_42_29
*1466 FILLER_42_3
*1467 FILLER_42_41
*1468 FILLER_42_53
*1469 FILLER_42_65
*1470 FILLER_42_77
*1471 FILLER_42_83
*1472 FILLER_42_85
*1473 FILLER_42_97
*1474 FILLER_43_109
*1475 FILLER_43_113
*1476 FILLER_43_119
*1477 FILLER_43_126
*1478 FILLER_43_134
*1479 FILLER_43_141
*1480 FILLER_43_147
*1481 FILLER_43_15
*1482 FILLER_43_153
*1483 FILLER_43_161
*1484 FILLER_43_167
*1485 FILLER_43_175
*1486 FILLER_43_182
*1487 FILLER_43_188
*1488 FILLER_43_197
*1489 FILLER_43_213
*1490 FILLER_43_221
*1491 FILLER_43_225
*1492 FILLER_43_237
*1493 FILLER_43_249
*1494 FILLER_43_253
*1495 FILLER_43_27
*1496 FILLER_43_29
*1497 FILLER_43_3
*1498 FILLER_43_41
*1499 FILLER_43_53
*1500 FILLER_43_57
*1501 FILLER_43_69
*1502 FILLER_43_81
*1503 FILLER_43_85
*1504 FILLER_43_97
*1505 FILLER_4_109
*1506 FILLER_4_121
*1507 FILLER_4_133
*1508 FILLER_4_139
*1509 FILLER_4_141
*1510 FILLER_4_15
*1511 FILLER_4_153
*1512 FILLER_4_165
*1513 FILLER_4_177
*1514 FILLER_4_189
*1515 FILLER_4_195
*1516 FILLER_4_197
*1517 FILLER_4_209
*1518 FILLER_4_221
*1519 FILLER_4_233
*1520 FILLER_4_245
*1521 FILLER_4_251
*1522 FILLER_4_253
*1523 FILLER_4_27
*1524 FILLER_4_29
*1525 FILLER_4_3
*1526 FILLER_4_41
*1527 FILLER_4_53
*1528 FILLER_4_65
*1529 FILLER_4_77
*1530 FILLER_4_83
*1531 FILLER_4_85
*1532 FILLER_4_97
*1533 FILLER_5_105
*1534 FILLER_5_111
*1535 FILLER_5_113
*1536 FILLER_5_125
*1537 FILLER_5_137
*1538 FILLER_5_149
*1539 FILLER_5_15
*1540 FILLER_5_161
*1541 FILLER_5_167
*1542 FILLER_5_169
*1543 FILLER_5_181
*1544 FILLER_5_193
*1545 FILLER_5_205
*1546 FILLER_5_217
*1547 FILLER_5_223
*1548 FILLER_5_225
*1549 FILLER_5_237
*1550 FILLER_5_249
*1551 FILLER_5_257
*1552 FILLER_5_27
*1553 FILLER_5_3
*1554 FILLER_5_39
*1555 FILLER_5_51
*1556 FILLER_5_55
*1557 FILLER_5_57
*1558 FILLER_5_69
*1559 FILLER_5_81
*1560 FILLER_5_93
*1561 FILLER_6_109
*1562 FILLER_6_121
*1563 FILLER_6_133
*1564 FILLER_6_139
*1565 FILLER_6_141
*1566 FILLER_6_15
*1567 FILLER_6_153
*1568 FILLER_6_165
*1569 FILLER_6_177
*1570 FILLER_6_189
*1571 FILLER_6_195
*1572 FILLER_6_197
*1573 FILLER_6_209
*1574 FILLER_6_221
*1575 FILLER_6_233
*1576 FILLER_6_245
*1577 FILLER_6_251
*1578 FILLER_6_253
*1579 FILLER_6_27
*1580 FILLER_6_29
*1581 FILLER_6_3
*1582 FILLER_6_41
*1583 FILLER_6_53
*1584 FILLER_6_65
*1585 FILLER_6_77
*1586 FILLER_6_83
*1587 FILLER_6_85
*1588 FILLER_6_97
*1589 FILLER_7_105
*1590 FILLER_7_111
*1591 FILLER_7_113
*1592 FILLER_7_125
*1593 FILLER_7_137
*1594 FILLER_7_149
*1595 FILLER_7_15
*1596 FILLER_7_161
*1597 FILLER_7_167
*1598 FILLER_7_169
*1599 FILLER_7_181
*1600 FILLER_7_193
*1601 FILLER_7_205
*1602 FILLER_7_217
*1603 FILLER_7_223
*1604 FILLER_7_225
*1605 FILLER_7_237
*1606 FILLER_7_249
*1607 FILLER_7_257
*1608 FILLER_7_27
*1609 FILLER_7_3
*1610 FILLER_7_39
*1611 FILLER_7_51
*1612 FILLER_7_55
*1613 FILLER_7_57
*1614 FILLER_7_69
*1615 FILLER_7_81
*1616 FILLER_7_93
*1617 FILLER_8_109
*1618 FILLER_8_121
*1619 FILLER_8_133
*1620 FILLER_8_139
*1621 FILLER_8_141
*1622 FILLER_8_15
*1623 FILLER_8_153
*1624 FILLER_8_165
*1625 FILLER_8_177
*1626 FILLER_8_189
*1627 FILLER_8_195
*1628 FILLER_8_197
*1629 FILLER_8_209
*1630 FILLER_8_221
*1631 FILLER_8_233
*1632 FILLER_8_245
*1633 FILLER_8_251
*1634 FILLER_8_253
*1635 FILLER_8_27
*1636 FILLER_8_29
*1637 FILLER_8_3
*1638 FILLER_8_41
*1639 FILLER_8_53
*1640 FILLER_8_65
*1641 FILLER_8_77
*1642 FILLER_8_83
*1643 FILLER_8_85
*1644 FILLER_8_97
*1645 FILLER_9_105
*1646 FILLER_9_111
*1647 FILLER_9_113
*1648 FILLER_9_125
*1649 FILLER_9_137
*1650 FILLER_9_149
*1651 FILLER_9_15
*1652 FILLER_9_161
*1653 FILLER_9_167
*1654 FILLER_9_169
*1655 FILLER_9_181
*1656 FILLER_9_193
*1657 FILLER_9_205
*1658 FILLER_9_217
*1659 FILLER_9_223
*1660 FILLER_9_225
*1661 FILLER_9_237
*1662 FILLER_9_249
*1663 FILLER_9_257
*1664 FILLER_9_27
*1665 FILLER_9_3
*1666 FILLER_9_39
*1667 FILLER_9_51
*1668 FILLER_9_55
*1669 FILLER_9_57
*1670 FILLER_9_69
*1671 FILLER_9_81
*1672 FILLER_9_93
*1673 PHY_EDGE_ROW_0_Left_44
*1674 PHY_EDGE_ROW_0_Right_0
*1675 PHY_EDGE_ROW_10_Left_54
*1676 PHY_EDGE_ROW_10_Right_10
*1677 PHY_EDGE_ROW_11_Left_55
*1678 PHY_EDGE_ROW_11_Right_11
*1679 PHY_EDGE_ROW_12_Left_56
*1680 PHY_EDGE_ROW_12_Right_12
*1681 PHY_EDGE_ROW_13_Left_57
*1682 PHY_EDGE_ROW_13_Right_13
*1683 PHY_EDGE_ROW_14_Left_58
*1684 PHY_EDGE_ROW_14_Right_14
*1685 PHY_EDGE_ROW_15_Left_59
*1686 PHY_EDGE_ROW_15_Right_15
*1687 PHY_EDGE_ROW_16_Left_60
*1688 PHY_EDGE_ROW_16_Right_16
*1689 PHY_EDGE_ROW_17_Left_61
*1690 PHY_EDGE_ROW_17_Right_17
*1691 PHY_EDGE_ROW_18_Left_62
*1692 PHY_EDGE_ROW_18_Right_18
*1693 PHY_EDGE_ROW_19_Left_63
*1694 PHY_EDGE_ROW_19_Right_19
*1695 PHY_EDGE_ROW_1_Left_45
*1696 PHY_EDGE_ROW_1_Right_1
*1697 PHY_EDGE_ROW_20_Left_64
*1698 PHY_EDGE_ROW_20_Right_20
*1699 PHY_EDGE_ROW_21_Left_65
*1700 PHY_EDGE_ROW_21_Right_21
*1701 PHY_EDGE_ROW_22_Left_66
*1702 PHY_EDGE_ROW_22_Right_22
*1703 PHY_EDGE_ROW_23_Left_67
*1704 PHY_EDGE_ROW_23_Right_23
*1705 PHY_EDGE_ROW_24_Left_68
*1706 PHY_EDGE_ROW_24_Right_24
*1707 PHY_EDGE_ROW_25_Left_69
*1708 PHY_EDGE_ROW_25_Right_25
*1709 PHY_EDGE_ROW_26_Left_70
*1710 PHY_EDGE_ROW_26_Right_26
*1711 PHY_EDGE_ROW_27_Left_71
*1712 PHY_EDGE_ROW_27_Right_27
*1713 PHY_EDGE_ROW_28_Left_72
*1714 PHY_EDGE_ROW_28_Right_28
*1715 PHY_EDGE_ROW_29_Left_73
*1716 PHY_EDGE_ROW_29_Right_29
*1717 PHY_EDGE_ROW_2_Left_46
*1718 PHY_EDGE_ROW_2_Right_2
*1719 PHY_EDGE_ROW_30_Left_74
*1720 PHY_EDGE_ROW_30_Right_30
*1721 PHY_EDGE_ROW_31_Left_75
*1722 PHY_EDGE_ROW_31_Right_31
*1723 PHY_EDGE_ROW_32_Left_76
*1724 PHY_EDGE_ROW_32_Right_32
*1725 PHY_EDGE_ROW_33_Left_77
*1726 PHY_EDGE_ROW_33_Right_33
*1727 PHY_EDGE_ROW_34_Left_78
*1728 PHY_EDGE_ROW_34_Right_34
*1729 PHY_EDGE_ROW_35_Left_79
*1730 PHY_EDGE_ROW_35_Right_35
*1731 PHY_EDGE_ROW_36_Left_80
*1732 PHY_EDGE_ROW_36_Right_36
*1733 PHY_EDGE_ROW_37_Left_81
*1734 PHY_EDGE_ROW_37_Right_37
*1735 PHY_EDGE_ROW_38_Left_82
*1736 PHY_EDGE_ROW_38_Right_38
*1737 PHY_EDGE_ROW_39_Left_83
*1738 PHY_EDGE_ROW_39_Right_39
*1739 PHY_EDGE_ROW_3_Left_47
*1740 PHY_EDGE_ROW_3_Right_3
*1741 PHY_EDGE_ROW_40_Left_84
*1742 PHY_EDGE_ROW_40_Right_40
*1743 PHY_EDGE_ROW_41_Left_85
*1744 PHY_EDGE_ROW_41_Right_41
*1745 PHY_EDGE_ROW_42_Left_86
*1746 PHY_EDGE_ROW_42_Right_42
*1747 PHY_EDGE_ROW_43_Left_87
*1748 PHY_EDGE_ROW_43_Right_43
*1749 PHY_EDGE_ROW_4_Left_48
*1750 PHY_EDGE_ROW_4_Right_4
*1751 PHY_EDGE_ROW_5_Left_49
*1752 PHY_EDGE_ROW_5_Right_5
*1753 PHY_EDGE_ROW_6_Left_50
*1754 PHY_EDGE_ROW_6_Right_6
*1755 PHY_EDGE_ROW_7_Left_51
*1756 PHY_EDGE_ROW_7_Right_7
*1757 PHY_EDGE_ROW_8_Left_52
*1758 PHY_EDGE_ROW_8_Right_8
*1759 PHY_EDGE_ROW_9_Left_53
*1760 PHY_EDGE_ROW_9_Right_9
*1761 TAP_TAPCELL_ROW_0_88
*1762 TAP_TAPCELL_ROW_0_89
*1763 TAP_TAPCELL_ROW_0_90
*1764 TAP_TAPCELL_ROW_0_91
*1765 TAP_TAPCELL_ROW_0_92
*1766 TAP_TAPCELL_ROW_0_93
*1767 TAP_TAPCELL_ROW_0_94
*1768 TAP_TAPCELL_ROW_0_95
*1769 TAP_TAPCELL_ROW_0_96
*1770 TAP_TAPCELL_ROW_10_137
*1771 TAP_TAPCELL_ROW_10_138
*1772 TAP_TAPCELL_ROW_10_139
*1773 TAP_TAPCELL_ROW_10_140
*1774 TAP_TAPCELL_ROW_10_141
*1775 TAP_TAPCELL_ROW_11_142
*1776 TAP_TAPCELL_ROW_11_143
*1777 TAP_TAPCELL_ROW_11_144
*1778 TAP_TAPCELL_ROW_11_145
*1779 TAP_TAPCELL_ROW_12_146
*1780 TAP_TAPCELL_ROW_12_147
*1781 TAP_TAPCELL_ROW_12_148
*1782 TAP_TAPCELL_ROW_12_149
*1783 TAP_TAPCELL_ROW_12_150
*1784 TAP_TAPCELL_ROW_13_151
*1785 TAP_TAPCELL_ROW_13_152
*1786 TAP_TAPCELL_ROW_13_153
*1787 TAP_TAPCELL_ROW_13_154
*1788 TAP_TAPCELL_ROW_14_155
*1789 TAP_TAPCELL_ROW_14_156
*1790 TAP_TAPCELL_ROW_14_157
*1791 TAP_TAPCELL_ROW_14_158
*1792 TAP_TAPCELL_ROW_14_159
*1793 TAP_TAPCELL_ROW_15_160
*1794 TAP_TAPCELL_ROW_15_161
*1795 TAP_TAPCELL_ROW_15_162
*1796 TAP_TAPCELL_ROW_15_163
*1797 TAP_TAPCELL_ROW_16_164
*1798 TAP_TAPCELL_ROW_16_165
*1799 TAP_TAPCELL_ROW_16_166
*1800 TAP_TAPCELL_ROW_16_167
*1801 TAP_TAPCELL_ROW_16_168
*1802 TAP_TAPCELL_ROW_17_169
*1803 TAP_TAPCELL_ROW_17_170
*1804 TAP_TAPCELL_ROW_17_171
*1805 TAP_TAPCELL_ROW_17_172
*1806 TAP_TAPCELL_ROW_18_173
*1807 TAP_TAPCELL_ROW_18_174
*1808 TAP_TAPCELL_ROW_18_175
*1809 TAP_TAPCELL_ROW_18_176
*1810 TAP_TAPCELL_ROW_18_177
*1811 TAP_TAPCELL_ROW_19_178
*1812 TAP_TAPCELL_ROW_19_179
*1813 TAP_TAPCELL_ROW_19_180
*1814 TAP_TAPCELL_ROW_19_181
*1815 TAP_TAPCELL_ROW_1_100
*1816 TAP_TAPCELL_ROW_1_97
*1817 TAP_TAPCELL_ROW_1_98
*1818 TAP_TAPCELL_ROW_1_99
*1819 TAP_TAPCELL_ROW_20_182
*1820 TAP_TAPCELL_ROW_20_183
*1821 TAP_TAPCELL_ROW_20_184
*1822 TAP_TAPCELL_ROW_20_185
*1823 TAP_TAPCELL_ROW_20_186
*1824 TAP_TAPCELL_ROW_21_187
*1825 TAP_TAPCELL_ROW_21_188
*1826 TAP_TAPCELL_ROW_21_189
*1827 TAP_TAPCELL_ROW_21_190
*1828 TAP_TAPCELL_ROW_22_191
*1829 TAP_TAPCELL_ROW_22_192
*1830 TAP_TAPCELL_ROW_22_193
*1831 TAP_TAPCELL_ROW_22_194
*1832 TAP_TAPCELL_ROW_22_195
*1833 TAP_TAPCELL_ROW_23_196
*1834 TAP_TAPCELL_ROW_23_197
*1835 TAP_TAPCELL_ROW_23_198
*1836 TAP_TAPCELL_ROW_23_199
*1837 TAP_TAPCELL_ROW_24_200
*1838 TAP_TAPCELL_ROW_24_201
*1839 TAP_TAPCELL_ROW_24_202
*1840 TAP_TAPCELL_ROW_24_203
*1841 TAP_TAPCELL_ROW_24_204
*1842 TAP_TAPCELL_ROW_25_205
*1843 TAP_TAPCELL_ROW_25_206
*1844 TAP_TAPCELL_ROW_25_207
*1845 TAP_TAPCELL_ROW_25_208
*1846 TAP_TAPCELL_ROW_26_209
*1847 TAP_TAPCELL_ROW_26_210
*1848 TAP_TAPCELL_ROW_26_211
*1849 TAP_TAPCELL_ROW_26_212
*1850 TAP_TAPCELL_ROW_26_213
*1851 TAP_TAPCELL_ROW_27_214
*1852 TAP_TAPCELL_ROW_27_215
*1853 TAP_TAPCELL_ROW_27_216
*1854 TAP_TAPCELL_ROW_27_217
*1855 TAP_TAPCELL_ROW_28_218
*1856 TAP_TAPCELL_ROW_28_219
*1857 TAP_TAPCELL_ROW_28_220
*1858 TAP_TAPCELL_ROW_28_221
*1859 TAP_TAPCELL_ROW_28_222
*1860 TAP_TAPCELL_ROW_29_223
*1861 TAP_TAPCELL_ROW_29_224
*1862 TAP_TAPCELL_ROW_29_225
*1863 TAP_TAPCELL_ROW_29_226
*1864 TAP_TAPCELL_ROW_2_101
*1865 TAP_TAPCELL_ROW_2_102
*1866 TAP_TAPCELL_ROW_2_103
*1867 TAP_TAPCELL_ROW_2_104
*1868 TAP_TAPCELL_ROW_2_105
*1869 TAP_TAPCELL_ROW_30_227
*1870 TAP_TAPCELL_ROW_30_228
*1871 TAP_TAPCELL_ROW_30_229
*1872 TAP_TAPCELL_ROW_30_230
*1873 TAP_TAPCELL_ROW_30_231
*1874 TAP_TAPCELL_ROW_31_232
*1875 TAP_TAPCELL_ROW_31_233
*1876 TAP_TAPCELL_ROW_31_234
*1877 TAP_TAPCELL_ROW_31_235
*1878 TAP_TAPCELL_ROW_32_236
*1879 TAP_TAPCELL_ROW_32_237
*1880 TAP_TAPCELL_ROW_32_238
*1881 TAP_TAPCELL_ROW_32_239
*1882 TAP_TAPCELL_ROW_32_240
*1883 TAP_TAPCELL_ROW_33_241
*1884 TAP_TAPCELL_ROW_33_242
*1885 TAP_TAPCELL_ROW_33_243
*1886 TAP_TAPCELL_ROW_33_244
*1887 TAP_TAPCELL_ROW_34_245
*1888 TAP_TAPCELL_ROW_34_246
*1889 TAP_TAPCELL_ROW_34_247
*1890 TAP_TAPCELL_ROW_34_248
*1891 TAP_TAPCELL_ROW_34_249
*1892 TAP_TAPCELL_ROW_35_250
*1893 TAP_TAPCELL_ROW_35_251
*1894 TAP_TAPCELL_ROW_35_252
*1895 TAP_TAPCELL_ROW_35_253
*1896 TAP_TAPCELL_ROW_36_254
*1897 TAP_TAPCELL_ROW_36_255
*1898 TAP_TAPCELL_ROW_36_256
*1899 TAP_TAPCELL_ROW_36_257
*1900 TAP_TAPCELL_ROW_36_258
*1901 TAP_TAPCELL_ROW_37_259
*1902 TAP_TAPCELL_ROW_37_260
*1903 TAP_TAPCELL_ROW_37_261
*1904 TAP_TAPCELL_ROW_37_262
*1905 TAP_TAPCELL_ROW_38_263
*1906 TAP_TAPCELL_ROW_38_264
*1907 TAP_TAPCELL_ROW_38_265
*1908 TAP_TAPCELL_ROW_38_266
*1909 TAP_TAPCELL_ROW_38_267
*1910 TAP_TAPCELL_ROW_39_268
*1911 TAP_TAPCELL_ROW_39_269
*1912 TAP_TAPCELL_ROW_39_270
*1913 TAP_TAPCELL_ROW_39_271
*1914 TAP_TAPCELL_ROW_3_106
*1915 TAP_TAPCELL_ROW_3_107
*1916 TAP_TAPCELL_ROW_3_108
*1917 TAP_TAPCELL_ROW_3_109
*1918 TAP_TAPCELL_ROW_40_272
*1919 TAP_TAPCELL_ROW_40_273
*1920 TAP_TAPCELL_ROW_40_274
*1921 TAP_TAPCELL_ROW_40_275
*1922 TAP_TAPCELL_ROW_40_276
*1923 TAP_TAPCELL_ROW_41_277
*1924 TAP_TAPCELL_ROW_41_278
*1925 TAP_TAPCELL_ROW_41_279
*1926 TAP_TAPCELL_ROW_41_280
*1927 TAP_TAPCELL_ROW_42_281
*1928 TAP_TAPCELL_ROW_42_282
*1929 TAP_TAPCELL_ROW_42_283
*1930 TAP_TAPCELL_ROW_42_284
*1931 TAP_TAPCELL_ROW_42_285
*1932 TAP_TAPCELL_ROW_43_286
*1933 TAP_TAPCELL_ROW_43_287
*1934 TAP_TAPCELL_ROW_43_288
*1935 TAP_TAPCELL_ROW_43_289
*1936 TAP_TAPCELL_ROW_43_290
*1937 TAP_TAPCELL_ROW_43_291
*1938 TAP_TAPCELL_ROW_43_292
*1939 TAP_TAPCELL_ROW_43_293
*1940 TAP_TAPCELL_ROW_43_294
*1941 TAP_TAPCELL_ROW_4_110
*1942 TAP_TAPCELL_ROW_4_111
*1943 TAP_TAPCELL_ROW_4_112
*1944 TAP_TAPCELL_ROW_4_113
*1945 TAP_TAPCELL_ROW_4_114
*1946 TAP_TAPCELL_ROW_5_115
*1947 TAP_TAPCELL_ROW_5_116
*1948 TAP_TAPCELL_ROW_5_117
*1949 TAP_TAPCELL_ROW_5_118
*1950 TAP_TAPCELL_ROW_6_119
*1951 TAP_TAPCELL_ROW_6_120
*1952 TAP_TAPCELL_ROW_6_121
*1953 TAP_TAPCELL_ROW_6_122
*1954 TAP_TAPCELL_ROW_6_123
*1955 TAP_TAPCELL_ROW_7_124
*1956 TAP_TAPCELL_ROW_7_125
*1957 TAP_TAPCELL_ROW_7_126
*1958 TAP_TAPCELL_ROW_7_127
*1959 TAP_TAPCELL_ROW_8_128
*1960 TAP_TAPCELL_ROW_8_129
*1961 TAP_TAPCELL_ROW_8_130
*1962 TAP_TAPCELL_ROW_8_131
*1963 TAP_TAPCELL_ROW_8_132
*1964 TAP_TAPCELL_ROW_9_133
*1965 TAP_TAPCELL_ROW_9_134
*1966 TAP_TAPCELL_ROW_9_135
*1967 TAP_TAPCELL_ROW_9_136
*1968 _458_
*1969 _459_
*1970 _460_
*1971 _461_
*1972 _462_
*1973 _463_
*1974 _464_
*1975 _465_
*1976 _466_
*1977 _467_
*1978 _468_
*1979 _469_
*1980 _470_
*1981 _471_
*1982 _472_
*1983 _473_
*1984 _474_
*1985 _475_
*1986 _476_
*1987 _477_
*1988 _478_
*1989 _479_
*1990 _480_
*1991 _481_
*1992 _482_
*1993 _483_
*1994 _484_
*1995 _485_
*1996 _486_
*1997 _487_
*1998 _488_
*1999 _489_
*2000 _490_
*2001 _491_
*2002 _492_
*2003 _493_
*2004 _494_
*2005 _495_
*2006 _496_
*2007 _497_
*2008 _498_
*2009 _499_
*2010 _500_
*2011 _501_
*2012 _502_
*2013 _503_
*2014 _504_
*2015 _505_
*2016 _506_
*2017 _507_
*2018 _508_
*2019 _509_
*2020 _510_
*2021 _511_
*2022 _512_
*2023 _513_
*2024 _514_
*2025 _515_
*2026 _516_
*2027 _517_
*2028 _518_
*2029 _519_
*2030 _520_
*2031 _521_
*2032 _522_
*2033 _523_
*2034 _524_
*2035 _525_
*2036 _526_
*2037 _527_
*2038 _528_
*2039 _529_
*2040 _530_
*2041 _531_
*2042 _532_
*2043 _533_
*2044 _534_
*2045 _535_
*2046 _536_
*2047 _537_
*2048 _538_
*2049 _539_
*2050 _540_
*2051 _541_
*2052 _542_
*2053 _543_
*2054 _544_
*2055 _545_
*2056 _546_
*2057 _547_
*2058 _548_
*2059 _549_
*2060 _550_
*2061 _551_
*2062 _552_
*2063 _553_
*2064 _554_
*2065 _555_
*2066 _556_
*2067 _557_
*2068 _558_
*2069 _559_
*2070 _560_
*2071 _561_
*2072 _562_
*2073 _563_
*2074 _564_
*2075 _565_
*2076 _566_
*2077 _567_
*2078 _568_
*2079 _569_
*2080 _570_
*2081 _571_
*2082 _572_
*2083 _573_
*2084 _574_
*2085 _575_
*2086 _576_
*2087 _577_
*2088 _578_
*2089 _579_
*2090 _580_
*2091 _581_
*2092 _582_
*2093 _583_
*2094 _584_
*2095 _585_
*2096 _586_
*2097 _587_
*2098 _588_
*2099 _589_
*2100 _590_
*2101 _591_
*2102 _592_
*2103 _593_
*2104 _594_
*2105 _595_
*2106 _596_
*2107 _597_
*2108 _598_
*2109 _599_
*2110 _600_
*2111 _601_
*2112 _602_
*2113 _603_
*2114 _604_
*2115 _605_
*2116 _606_
*2117 _607_
*2118 _608_
*2119 _609_
*2120 _610_
*2121 _611_
*2122 _612_
*2123 _613_
*2124 _614_
*2125 _615_
*2126 _616_
*2127 _617_
*2128 _618_
*2129 _619_
*2130 _620_
*2131 _621_
*2132 _622_
*2133 _623_
*2134 _624_
*2135 _625_
*2136 _626_
*2137 _627_
*2138 _628_
*2139 _629_
*2140 _630_
*2141 _631_
*2142 _632_
*2143 _633_
*2144 _634_
*2145 _635_
*2146 _636_
*2147 _637_
*2148 _638_
*2149 _639_
*2150 _640_
*2151 _641_
*2152 _642_
*2153 _643_
*2154 _644_
*2155 _645_
*2156 _646_
*2157 _647_
*2158 _648_
*2159 _649_
*2160 _650_
*2161 _651_
*2162 _652_
*2163 _653_
*2164 _654_
*2165 _655_
*2166 _656_
*2167 _657_
*2168 _658_
*2169 _659_
*2170 _660_
*2171 _661_
*2172 _662_
*2173 _663_
*2174 _664_
*2175 _665_
*2176 _666_
*2177 _667_
*2178 _668_
*2179 _669_
*2180 _670_
*2181 _671_
*2182 _672_
*2183 _673_
*2184 _674_
*2185 _675_
*2186 _676_
*2187 _677_
*2188 _678_
*2189 _679_
*2190 _680_
*2191 _681_
*2192 _682_
*2193 _683_
*2194 _684_
*2195 _685_
*2196 _686_
*2197 _687_
*2198 _688_
*2199 _689_
*2200 _690_
*2201 _691_
*2202 _692_
*2203 _693_
*2204 _694_
*2205 _695_
*2206 _696_
*2207 _697_
*2208 _698_
*2209 _699_
*2210 _700_
*2211 _701_
*2212 _702_
*2213 _703_
*2214 _704_
*2215 _705_
*2216 _706_
*2217 _707_
*2218 _708_
*2219 _709_
*2220 _710_
*2221 _711_
*2222 _712_
*2223 _713_
*2224 _714_
*2225 _715_
*2226 _716_
*2227 _717_
*2228 _718_
*2229 _719_
*2230 _720_
*2231 _721_
*2232 _722_
*2233 _723_
*2234 _724_
*2235 _725_
*2236 _726_
*2237 _727_
*2238 _728_
*2239 _729_
*2240 _730_
*2241 _731_
*2242 _732_
*2243 _733_
*2244 _734_
*2245 _735_
*2246 _736_
*2247 _737_
*2248 _738_
*2249 _739_
*2250 _740_
*2251 _741_
*2252 _742_
*2253 _743_
*2254 _744_
*2255 _745_
*2256 _746_
*2257 _747_
*2258 _748_
*2259 _749_
*2260 _750_
*2261 _751_
*2262 _752_
*2263 _753_
*2264 _754_
*2265 _755_
*2266 _756_
*2267 _757_
*2268 _758_
*2269 _759_
*2270 _760_
*2271 _761_
*2272 _762_
*2273 _763_
*2274 _764_
*2275 _765_
*2276 _766_
*2277 _767_
*2278 _768_
*2279 _769_
*2280 _770_
*2281 _771_
*2282 _772_
*2283 _773_
*2284 _774_
*2285 _775_
*2286 _776_
*2287 _777_
*2288 _778_
*2289 _779_
*2290 _780_
*2291 _781_
*2292 _782_
*2293 _783_
*2294 _784_
*2295 _785_
*2296 _786_
*2297 _787_
*2298 _788_
*2299 _789_
*2300 _790_
*2301 _791_
*2302 _792_
*2303 _793_
*2304 _794_
*2305 _795_
*2306 _796_
*2307 _797_
*2308 _798_
*2309 _799_
*2310 _800_
*2311 _801_
*2312 _802_
*2313 _803_
*2314 _804_
*2315 _805_
*2316 _806_
*2317 _807_
*2318 _808_
*2319 _809_
*2320 _810_
*2321 _811_
*2322 _812_
*2323 _813_
*2324 _814_
*2325 _815_
*2326 _816_
*2327 _817_
*2328 _818_
*2329 _819_
*2330 _820_
*2331 _821_
*2332 _822_
*2333 _823_
*2334 _824_
*2335 _825_
*2336 _826_
*2337 _827_
*2338 _828_
*2339 _829_
*2340 _830_
*2341 _831_
*2342 _832_
*2343 _833_
*2344 _834_
*2345 _835_
*2346 _836_
*2347 _837_
*2348 _838_
*2349 _839_
*2350 _840_
*2351 _841_
*2352 _842_
*2353 _843_
*2354 _844_
*2355 _845_
*2356 _846_
*2357 _847_
*2358 _848_
*2359 _849_
*2360 _850_
*2361 _851_
*2362 _852_
*2363 _853_
*2364 _854_
*2365 _855_
*2366 _856_
*2367 _857_
*2368 _858_
*2369 _859_
*2370 _860_
*2371 _861_
*2372 _862_
*2373 _863_
*2374 _864_
*2375 _865_
*2376 _866_
*2377 _867_
*2378 _868_
*2379 _869_
*2380 _870_
*2381 _871_
*2382 _872_
*2383 _873_
*2384 _874_
*2385 _875_
*2386 _876_
*2387 _877_
*2388 _878_
*2389 _879_
*2390 _880_
*2391 _881_
*2392 _882_
*2393 _883_
*2394 _884_
*2395 _885_
*2396 _886_
*2397 _887_
*2398 _888_
*2399 _889_
*2400 _890_
*2401 _891_
*2402 _892_
*2403 _893_
*2404 _894_
*2405 _895_
*2406 _896_
*2407 _897_
*2408 _898_
*2409 _899_
*2410 _900_
*2411 _901_
*2412 _902_
*2413 _903_
*2414 _904_
*2415 _905_
*2416 _906_
*2417 _907_
*2418 _908_
*2419 _909_
*2420 _910_
*2421 _911_
*2422 _912_
*2423 _913_
*2424 _914_
*2425 _915_
*2426 _916_
*2427 _917_
*2428 _918_
*2429 _919_
*2430 _920_
*2431 _921_
*2432 _922_
*2433 _923_
*2434 fanout29
*2435 fanout34
*2436 fanout35
*2437 fanout36
*2438 fanout37
*2439 fanout38
*2440 fanout39
*2441 fanout40
*2442 fanout41
*2443 fanout42
*2444 fanout43
*2445 fanout44
*2446 fanout45
*2447 fanout46
*2448 fanout47
*2449 fanout48
*2450 fanout49
*2451 fanout50
*2452 fanout51
*2453 fanout52
*2454 fanout53
*2455 fanout54
*2456 fanout55
*2457 fanout56
*2458 fanout57
*2459 fanout58
*2460 fanout59
*2461 fanout60
*2462 fanout61
*2463 fanout62
*2464 fanout63
*2465 fanout64
*2466 fanout65
*2467 fanout66
*2468 fanout67
*2469 fanout68
*2470 fanout69
*2471 input1
*2472 input10
*2473 input11
*2474 input12
*2475 input13
*2476 input14
*2477 input15
*2478 input16
*2479 input17
*2480 input18
*2481 input19
*2482 input2
*2483 input20
*2484 input3
*2485 input4
*2486 input5
*2487 input6
*2488 input7
*2489 input8
*2490 input9
*2491 max_cap30
*2492 max_cap31
*2493 max_cap32
*2494 output21
*2495 output22
*2496 output23
*2497 output24
*2498 output25
*2499 output26
*2500 output27
*2501 output28
*2502 rebuffer1
*2503 wire33

*PORTS
inst[0] I
inst[1] I
inst[2] I
inst[3] I
op_a[0] I
op_a[1] I
op_a[2] I
op_a[3] I
op_a[4] I
op_a[5] I
op_a[6] I
op_a[7] I
op_b[0] I
op_b[1] I
op_b[2] I
op_b[3] I
op_b[4] I
op_b[5] I
op_b[6] I
op_b[7] I
op_out[0] O
op_out[1] O
op_out[2] O
op_out[3] O
op_out[4] O
op_out[5] O
op_out[6] O
op_out[7] O

*D_NET *3 0.00100057
*CONN
*P inst[0] I
*I *2471:A I *D sky130_fd_sc_hd__dlymetal6s2s_1
*CAP
1 inst[0] 0.000500285
2 *2471:A 0.000500285
3 *2471:A *2482:A 0
4 *2471:A *5:11 0
*RES
1 inst[0] *2471:A 48.73 
*END

*D_NET *4 0.00104163
*CONN
*P inst[1] I
*I *2482:A I *D sky130_fd_sc_hd__buf_1
*CAP
1 inst[1] 0.000520816
2 *2482:A 0.000520816
3 *2482:A *2485:A 0
4 *2471:A *2482:A 0
*RES
1 inst[1] *2482:A 49.2064 
*END

*D_NET *5 0.00124379
*CONN
*P inst[2] I
*I *2484:A I *D sky130_fd_sc_hd__clkbuf_2
*CAP
1 inst[2] 0.000610381
2 *2484:A 0
3 *5:11 0.000610381
4 *5:11 *511:10 2.30292e-05
5 *2471:A *5:11 0
*RES
1 inst[2] *5:11 27.905 
2 *5:11 *2484:A 23 
*END

*D_NET *6 0.000980979
*CONN
*P inst[3] I
*I *2485:A I *D sky130_fd_sc_hd__clkbuf_1
*CAP
1 inst[3] 0.000488381
2 *2485:A 0.000488381
3 *2485:A op_out[0] 0
4 *2485:A *489:18 4.21594e-06
5 *2482:A *2485:A 0
*RES
1 inst[3] *2485:A 48.73 
*END

*D_NET *7 0.000507812
*CONN
*P op_a[0] I
*I *2486:A I *D sky130_fd_sc_hd__clkbuf_1
*CAP
1 op_a[0] 0.000164645
2 *2486:A 0.000164645
3 *2486:A *2487:A 7.20676e-05
4 *2486:A *2488:A 7.82427e-05
5 *2486:A *544:8 2.82105e-05
*RES
1 op_a[0] *2486:A 47.4311 
*END

*D_NET *8 0.000533574
*CONN
*P op_a[1] I
*I *2487:A I *D sky130_fd_sc_hd__buf_1
*CAP
1 op_a[1] 0.000185318
2 *2487:A 0.000185318
3 *2487:A *2475:A 8.06147e-05
4 *2487:A *493:46 1.02561e-05
5 *2486:A *2487:A 7.20676e-05
*RES
1 op_a[1] *2487:A 47.7832 
*END

*D_NET *9 0.000705299
*CONN
*P op_a[2] I
*I *2488:A I *D sky130_fd_sc_hd__dlymetal6s2s_1
*CAP
1 op_a[2] 0.000225727
2 *2488:A 0.000225727
3 *2488:A *2476:A 8.06147e-05
4 *2488:A *544:8 9.4987e-05
5 *2486:A *2488:A 7.82427e-05
*RES
1 op_a[2] *2488:A 49.1918 
*END

*D_NET *10 0.000684013
*CONN
*P op_a[3] I
*I *2489:A I *D sky130_fd_sc_hd__buf_1
*CAP
1 op_a[3] 0.00023071
2 *2489:A 0.00023071
3 *2489:A *2472:A 8.06147e-05
4 *2489:A *2475:A 7.82427e-05
5 *2489:A *490:8 6.37358e-05
*RES
1 op_a[3] *2489:A 49.1918 
*END

*D_NET *11 0.00057343
*CONN
*P op_a[4] I
*I *2490:A I *D sky130_fd_sc_hd__clkbuf_1
*CAP
1 op_a[4] 0.000250681
2 *2490:A 0.000250681
3 *2490:A *2472:A 7.20676e-05
*RES
1 op_a[4] *2490:A 48.1354 
*END

*D_NET *12 0.00052836
*CONN
*P op_a[5] I
*I *2472:A I *D sky130_fd_sc_hd__clkbuf_2
*CAP
1 op_a[5] 0.000187839
2 *2472:A 0.000187839
3 *2472:A *2475:A 0
4 *2489:A *2472:A 8.06147e-05
5 *2490:A *2472:A 7.20676e-05
*RES
1 op_a[5] *2472:A 47.1648 
*END

*D_NET *13 0.000980411
*CONN
*P op_a[6] I
*I *2473:A I *D sky130_fd_sc_hd__buf_1
*CAP
1 op_a[6] 0.000490205
2 *2473:A 0.000490205
3 *2473:A op_out[4] 0
4 *2473:A op_out[5] 0
5 *2473:A *502:10 0
6 *2473:A *507:12 0
*RES
1 op_a[6] *2473:A 48.73 
*END

*D_NET *14 0.00147899
*CONN
*P op_a[7] I
*I *2474:A I *D sky130_fd_sc_hd__clkbuf_4
*CAP
1 op_a[7] 0.000552351
2 *2474:A 0
3 *14:11 0.000552351
4 *14:11 op_out[5] 0
5 *14:11 *1977:B 5.50049e-05
6 *14:11 *2494:A 0.000228909
7 *14:11 *491:6 1.76557e-05
8 *14:11 *500:32 7.27182e-05
9 *14:11 *502:10 0
*RES
1 op_a[7] *14:11 28.3814 
2 *14:11 *2474:A 23 
*END

*D_NET *15 0.000726129
*CONN
*P op_b[0] I
*I *2475:A I *D sky130_fd_sc_hd__clkbuf_2
*CAP
1 op_b[0] 0.000242467
2 *2475:A 0.000242467
3 *2475:A *490:8 8.02307e-05
4 *2475:A *493:24 2.10772e-06
5 *2472:A *2475:A 0
6 *2487:A *2475:A 8.06147e-05
7 *2489:A *2475:A 7.82427e-05
*RES
1 op_b[0] *2475:A 48.9255 
*END

*D_NET *16 0.000607717
*CONN
*P op_b[1] I
*I *2476:A I *D sky130_fd_sc_hd__clkbuf_1
*CAP
1 op_b[1] 0.000263551
2 *2476:A 0.000263551
3 *2488:A *2476:A 8.06147e-05
*RES
1 op_b[1] *2476:A 48.4875 
*END

*D_NET *17 0.000627035
*CONN
*P op_b[2] I
*I *2477:A I *D sky130_fd_sc_hd__clkbuf_1
*CAP
1 op_b[2] 0.000297359
2 *2477:A 0.000297359
3 *2477:A *18:17 3.23168e-05
*RES
1 op_b[2] *2477:A 49.8062 
*END

*D_NET *18 0.000743987
*CONN
*P op_b[3] I
*I *2478:A I *D sky130_fd_sc_hd__clkbuf_1
*CAP
1 op_b[3] 0.000355835
2 *2478:A 0
3 *18:17 0.000355835
4 *18:17 *536:14 0
5 *2477:A *18:17 3.23168e-05
*RES
1 op_b[3] *18:17 27.8627 
2 *18:17 *2478:A 23 
*END

*D_NET *19 0.000794446
*CONN
*P op_b[4] I
*I *2479:A I *D sky130_fd_sc_hd__clkbuf_2
*CAP
1 op_b[4] 0.0003866
2 *2479:A 0
3 *19:17 0.0003866
4 *19:17 *2483:A 2.12457e-05
*RES
1 op_b[4] *19:17 28.3391 
2 *19:17 *2479:A 23 
*END

*D_NET *20 0.000715072
*CONN
*P op_b[5] I
*I *2480:A I *D sky130_fd_sc_hd__buf_1
*CAP
1 op_b[5] 0.000333847
2 *2480:A 0
3 *20:17 0.000333847
4 *20:17 *2481:A 2.61329e-05
5 *20:17 *2483:A 2.12457e-05
*RES
1 op_b[5] *20:17 27.8627 
2 *20:17 *2480:A 23 
*END

*D_NET *21 0.00062916
*CONN
*P op_b[6] I
*I *2481:A I *D sky130_fd_sc_hd__buf_1
*CAP
1 op_b[6] 0.000301514
2 *2481:A 0.000301514
3 *20:17 *2481:A 2.61329e-05
*RES
1 op_b[6] *2481:A 49.8062 
*END

*D_NET *22 0.000671744
*CONN
*P op_b[7] I
*I *2483:A I *D sky130_fd_sc_hd__clkbuf_1
*CAP
1 op_b[7] 0.000314626
2 *2483:A 0.000314626
3 *2483:A *539:18 0
4 *19:17 *2483:A 2.12457e-05
5 *20:17 *2483:A 2.12457e-05
*RES
1 op_b[7] *2483:A 49.1918 
*END

*D_NET *23 0.00100219
*CONN
*P op_out[0] O
*I *2494:X O *D sky130_fd_sc_hd__buf_2
*CAP
1 op_out[0] 0.000501094
2 *2494:X 0.000501094
3 *2485:A op_out[0] 0
*RES
1 *2494:X op_out[0] 48.9786 
*END

*D_NET *24 0.00112264
*CONN
*P op_out[1] O
*I *2495:X O *D sky130_fd_sc_hd__buf_2
*CAP
1 op_out[1] 0.00054663
2 *2495:X 0.00054663
3 op_out[1] op_out[2] 0
4 op_out[1] *2495:A 2.93747e-05
*RES
1 *2495:X op_out[1] 49.1236 
*END

*D_NET *25 0.000960449
*CONN
*P op_out[2] O
*I *2496:X O *D sky130_fd_sc_hd__buf_2
*CAP
1 op_out[2] 0.000480224
2 *2496:X 0.000480224
3 op_out[1] op_out[2] 0
*RES
1 *2496:X op_out[2] 48.5021 
*END

*D_NET *26 0.00108006
*CONN
*P op_out[3] O
*I *2497:X O *D sky130_fd_sc_hd__buf_2
*CAP
1 op_out[3] 0.000528515
2 *2497:X 0.000528515
3 op_out[3] op_out[4] 0
4 op_out[3] *506:16 2.30292e-05
*RES
1 *2497:X op_out[3] 49.1236 
*END

*D_NET *27 0.00100932
*CONN
*P op_out[4] O
*I *2498:X O *D sky130_fd_sc_hd__buf_2
*CAP
1 op_out[4] 0.000504662
2 *2498:X 0.000504662
3 op_out[3] op_out[4] 0
4 *2473:A op_out[4] 0
*RES
1 *2498:X op_out[4] 48.9786 
*END

*D_NET *28 0.00100885
*CONN
*P op_out[5] O
*I *2499:X O *D sky130_fd_sc_hd__buf_2
*CAP
1 op_out[5] 0.000498703
2 *2499:X 0.000498703
3 op_out[5] *502:10 1.14452e-05
4 *2473:A op_out[5] 0
5 *14:11 op_out[5] 0
*RES
1 *2499:X op_out[5] 48.9786 
*END

*D_NET *29 0.000959495
*CONN
*P op_out[6] O
*I *2500:X O *D sky130_fd_sc_hd__buf_2
*CAP
1 op_out[6] 0.000172592
2 *2500:X 0.000183573
3 *29:12 0.000356165
4 op_out[6] op_out[7] 8.06147e-05
5 *29:12 *432:8 0.000133652
6 *29:12 *508:10 3.28979e-05
*RES
1 *2500:X *29:12 49.7596 
2 *29:12 op_out[6] 0.757867 
*END

*D_NET *30 0.000533075
*CONN
*P op_out[7] O
*I *2501:X O *D sky130_fd_sc_hd__buf_2
*CAP
1 op_out[7] 0.00022623
2 *2501:X 0.00022623
3 op_out[7] *431:10 0
4 op_out[6] op_out[7] 8.06147e-05
*RES
1 *2501:X op_out[7] 47.1648 
*END

*D_NET *31 0.00321903
*CONN
*I *2041:B1 I *D sky130_fd_sc_hd__o21ai_1
*I *2042:B1 I *D sky130_fd_sc_hd__o211a_1
*I *2039:X O *D sky130_fd_sc_hd__a211o_1
*CAP
1 *2041:B1 0.000227085
2 *2042:B1 0.000106208
3 *2039:X 0.000341161
4 *31:8 0.000674454
5 *2041:B1 *2041:A1 0.000312348
6 *2041:B1 *477:14 0.00044107
7 *2041:B1 *516:84 0.000167452
8 *2041:B1 *518:119 0.00012083
9 *2041:B1 *542:54 0.000104127
10 *2042:B1 *516:84 0.000246748
11 *2042:B1 *518:119 0.000125915
12 *31:8 *2009:A 1.76557e-05
13 *31:8 *2009:C 2.25517e-05
14 *31:8 *2027:A0 2.02872e-05
15 *31:8 *459:8 5.67058e-05
16 *31:8 *475:27 9.67842e-05
17 *31:8 *475:31 0.000137651
*RES
1 *2039:X *31:8 43.8621 
2 *31:8 *2042:B1 41.3143 
3 *31:8 *2041:B1 46.5964 
*END

*D_NET *32 0.00313319
*CONN
*I *2043:B1 I *D sky130_fd_sc_hd__o211ai_2
*I *2040:X O *D sky130_fd_sc_hd__a211o_1
*CAP
1 *2043:B1 0
2 *2040:X 0.000772271
3 *32:12 0.00020524
4 *32:6 0.000977511
5 *32:6 *2019:B1 0.000185428
6 *32:6 *294:20 0.000699309
7 *32:6 *459:14 9.84851e-05
8 *32:12 *475:43 0.000162126
9 *32:12 *475:67 1.83667e-05
10 *32:12 *517:62 0
11 *32:12 *547:36 4.21594e-06
12 *32:12 *547:42 1.02387e-05
*RES
1 *2040:X *32:6 35.0557 
2 *32:6 *32:12 34.7229 
3 *32:12 *2043:B1 23 
*END

*D_NET *33 0.00266016
*CONN
*I *2089:B1 I *D sky130_fd_sc_hd__a21o_1
*I *2041:Y O *D sky130_fd_sc_hd__o21ai_1
*CAP
1 *2089:B1 0
2 *2041:Y 0.000181548
3 *33:14 0.0009325
4 *33:8 0.00111405
5 *33:8 *2409:C 4.58924e-05
6 *33:8 *547:36 0.000170909
7 *33:8 *550:116 5.3656e-05
8 *33:14 *46:14 4.21281e-05
9 *33:14 *46:16 6.9805e-05
10 *33:14 *46:18 4.96717e-05
*RES
1 *2041:Y *33:8 42.7229 
2 *33:8 *33:14 30.4114 
3 *33:14 *2089:B1 23 
*END

*D_NET *34 0.0047781
*CONN
*I *2049:C1 I *D sky130_fd_sc_hd__a221o_1
*I *2048:B1 I *D sky130_fd_sc_hd__a21oi_1
*I *2044:A_N I *D sky130_fd_sc_hd__and2b_1
*I *2042:X O *D sky130_fd_sc_hd__o211a_1
*CAP
1 *2049:C1 0
2 *2048:B1 0
3 *2044:A_N 0.000286396
4 *2042:X 0.00152934
5 *34:36 0.000107378
6 *34:12 0.000592973
7 *34:6 0.0019433
8 *2044:A_N *2044:B 2.05898e-05
9 *2044:A_N *2080:A 0.000119004
10 *2044:A_N *72:10 3.22879e-05
11 *34:12 *2044:B 4.6595e-05
12 *34:12 *2080:A 1.32314e-05
13 *34:12 *72:10 1.76557e-05
14 *34:36 *2053:A2 0
15 *34:36 *294:35 0
16 *34:36 *485:10 0
17 *34:36 *543:26 6.93449e-05
*RES
1 *2042:X *34:6 42.2021 
2 *34:6 *34:12 6.13143 
3 *34:12 *2044:A_N 28.9243 
4 *34:12 *2048:B1 23 
5 *34:6 *34:36 31.9057 
6 *34:36 *2049:C1 23 
*END

*D_NET *35 0.00499922
*CONN
*I *2049:B1 I *D sky130_fd_sc_hd__a221o_1
*I *2048:A1 I *D sky130_fd_sc_hd__a21oi_1
*I *2044:B I *D sky130_fd_sc_hd__and2b_1
*I *2043:Y O *D sky130_fd_sc_hd__o211ai_2
*CAP
1 *2049:B1 2.34823e-05
2 *2048:A1 0
3 *2044:B 0.000571212
4 *2043:Y 0.000964181
5 *35:14 0.000965594
6 *35:8 0.00138205
7 *2044:B *2080:A 0.000228001
8 *2044:B *39:29 6.70363e-05
9 *2044:B *71:10 0
10 *2044:B *72:10 1.01436e-05
11 *2044:B *543:26 0
12 *2049:B1 *2054:A2 0
13 *35:8 *2049:A2 5.16667e-05
14 *35:8 *2054:A2 0.000313255
15 *35:8 *2054:B1 3.22879e-05
16 *35:8 *479:38 1.40958e-05
17 *35:14 *2049:B2 7.80291e-06
18 *35:14 *2088:B 1.59094e-05
19 *35:14 *39:14 1.74638e-05
20 *35:14 *39:16 0.000105437
21 *35:14 *39:29 8.62783e-05
22 *35:14 *72:10 7.6144e-05
23 *2044:A_N *2044:B 2.05898e-05
24 *34:12 *2044:B 4.6595e-05
*RES
1 *2043:Y *35:8 36.5057 
2 *35:8 *35:14 21.1107 
3 *35:14 *2044:B 47.2179 
4 *35:14 *2048:A1 38 
5 *35:8 *2049:B1 23.4971 
*END

*D_NET *36 0.000320973
*CONN
*I *2088:A I *D sky130_fd_sc_hd__xnor2_1
*I *2044:X O *D sky130_fd_sc_hd__and2b_1
*CAP
1 *2088:A 0
2 *2044:X 0.000160487
3 *36:10 0.000160487
*RES
1 *2044:X *36:10 40.5271 
2 *36:10 *2088:A 38 
*END

*D_NET *37 0.000487404
*CONN
*I *2059:A I *D sky130_fd_sc_hd__or4_1
*I *2045:Y O *D sky130_fd_sc_hd__nor2_1
*CAP
1 *2059:A 0.00012442
2 *2045:Y 0.00012442
3 *2059:A *43:12 0.000126847
4 *2059:A *51:10 5.67058e-05
5 *2059:A *550:104 5.50106e-05
*RES
1 *2045:Y *2059:A 49.0243 
*END

*D_NET *38 0.0088899
*CONN
*I *2059:B I *D sky130_fd_sc_hd__or4_1
*I *2264:B1 I *D sky130_fd_sc_hd__a21oi_1
*I *2263:C I *D sky130_fd_sc_hd__and3_1
*I *2290:C I *D sky130_fd_sc_hd__and3_1
*I *2046:Y O *D sky130_fd_sc_hd__nor2_1
*CAP
1 *2059:B 0.000253115
2 *2264:B1 0.000244704
3 *2263:C 0
4 *2290:C 0.000144606
5 *2046:Y 0
6 *38:31 0.000405455
7 *38:14 0.00275436
8 *38:6 0.00270212
9 *2059:B *43:12 0.000148688
10 *2059:B *517:58 2.54046e-05
11 *2059:B *550:116 3.47776e-05
12 *2264:B1 *2264:A2 2.18409e-05
13 *2264:B1 *523:73 0.000213983
14 *2290:C *286:10 0.000164191
15 *2290:C *524:14 4.09742e-05
16 *2290:C *548:18 6.35797e-06
17 *38:14 *497:48 0.000225124
18 *38:14 *497:69 5.13952e-05
19 *38:14 *516:76 0.000158983
20 *38:14 *516:91 0.000288887
21 *38:14 *516:108 0.000206309
22 *38:14 *517:58 1.23662e-05
23 *38:14 *536:104 0
24 *38:14 *540:93 0.000302497
25 *38:14 *542:33 0
26 *38:14 *550:116 2.39911e-05
27 *38:31 *286:10 0.000334548
28 *38:31 *523:73 1.95448e-05
29 *38:31 *524:14 0.000105669
*RES
1 *2046:Y *38:6 38 
2 *38:6 *38:14 23.6844 
3 *38:14 *2290:C 40.6618 
4 *38:14 *38:31 19.7746 
5 *38:31 *2263:C 23 
6 *38:31 *2264:B1 26.4179 
7 *38:6 *2059:B 42.205 
*END

*D_NET *39 0.00356423
*CONN
*I *2049:B2 I *D sky130_fd_sc_hd__a221o_1
*I *2048:A2 I *D sky130_fd_sc_hd__a21oi_1
*I *2088:B I *D sky130_fd_sc_hd__xnor2_1
*I *2047:Y O *D sky130_fd_sc_hd__nand2_1
*CAP
1 *2049:B2 2.55072e-05
2 *2048:A2 0
3 *2088:B 0.000415764
4 *2047:Y 0.000596955
5 *39:29 0.000120051
6 *39:16 0.000699414
7 *39:14 0.000215802
8 *39:10 0.000623652
9 *2049:B2 *2049:A2 0
10 *39:10 *2053:A2 0
11 *39:10 *45:8 4.13358e-05
12 *39:10 *479:21 4.55577e-05
13 *39:10 *484:31 0.000438474
14 *39:10 *543:26 0
15 *39:29 *72:10 4.17929e-05
16 *39:29 *543:26 0
17 *2044:B *39:29 6.70363e-05
18 *35:14 *2049:B2 7.80291e-06
19 *35:14 *2088:B 1.59094e-05
20 *35:14 *39:14 1.74638e-05
21 *35:14 *39:16 0.000105437
22 *35:14 *39:29 8.62783e-05
*RES
1 *2047:Y *39:10 47.6321 
2 *39:10 *39:14 15.6214 
3 *39:14 *39:16 3.48 
4 *39:16 *2088:B 30.2914 
5 *39:16 *39:29 32.9621 
6 *39:29 *2048:A2 23 
7 *39:14 *2049:B2 23.6473 
*END

*D_NET *40 0.000536564
*CONN
*I *2080:A I *D sky130_fd_sc_hd__xnor2_1
*I *2048:Y O *D sky130_fd_sc_hd__a21oi_1
*CAP
1 *2080:A 8.81637e-05
2 *2048:Y 8.81637e-05
3 *2044:A_N *2080:A 0.000119004
4 *2044:B *2080:A 0.000228001
5 *34:12 *2080:A 1.32314e-05
*RES
1 *2048:Y *2080:A 49.3764 
*END

*D_NET *41 0.00127604
*CONN
*I *2053:A3 I *D sky130_fd_sc_hd__a311oi_2
*I *2054:A3 I *D sky130_fd_sc_hd__a311o_1
*I *2050:B I *D sky130_fd_sc_hd__nand2_1
*I *2049:X O *D sky130_fd_sc_hd__a221o_1
*CAP
1 *2053:A3 6.20326e-05
2 *2054:A3 3.66196e-05
3 *2050:B 0
4 *2049:X 0
5 *41:16 0.000146893
6 *41:6 0.000172306
7 *2053:A3 *2053:A2 0.000154147
8 *2053:A3 *42:10 0.000165593
9 *2054:A3 *2049:A2 4.95081e-05
10 *2054:A3 *2054:A2 0.000171296
11 *2054:A3 *479:38 9.75779e-05
12 *41:16 *2049:A2 2.93845e-05
13 *41:16 *2053:A2 0.000102471
14 *41:16 *2054:A2 5.67058e-05
15 *41:16 *42:10 1.14452e-05
16 *41:16 *479:38 8.61037e-06
17 *41:16 *484:10 0
18 *41:16 *485:10 1.14452e-05
*RES
1 *2049:X *41:6 38 
2 *41:6 *41:16 18.0657 
3 *41:16 *2050:B 23 
4 *41:16 *2054:A3 25.0507 
5 *41:6 *2053:A3 40.2579 
*END

*D_NET *42 0.0011183
*CONN
*I *2070:B I *D sky130_fd_sc_hd__xnor2_1
*I *2050:Y O *D sky130_fd_sc_hd__nand2_1
*CAP
1 *2070:B 4.70042e-05
2 *2050:Y 0.000253684
3 *42:10 0.000300688
4 *2070:B *49:16 7.53384e-06
5 *2070:B *484:31 5.41288e-05
6 *42:10 *2049:A2 5.50049e-05
7 *42:10 *2081:A2 0
8 *42:10 *46:10 0.000172667
9 *42:10 *479:21 5.05552e-05
10 *2053:A3 *42:10 0.000165593
11 *41:16 *42:10 1.14452e-05
*RES
1 *2050:Y *42:10 43.6964 
2 *42:10 *2070:B 39.0979 
*END

*D_NET *43 0.00425652
*CONN
*I *2052:A2 I *D sky130_fd_sc_hd__a21oi_1
*I *2055:C I *D sky130_fd_sc_hd__and3_1
*I *2075:B1 I *D sky130_fd_sc_hd__a21o_1
*I *2051:X O *D sky130_fd_sc_hd__or2_1
*CAP
1 *2052:A2 3.40935e-05
2 *2055:C 0
3 *2075:B1 0
4 *2051:X 0.000669324
5 *43:33 0.000159252
6 *43:18 0.000686538
7 *43:12 0.0012307
8 *2052:A2 *2072:A1 2.2617e-05
9 *43:12 *2059:D 0.000164364
10 *43:12 *2072:A1 0.000250955
11 *43:12 *45:57 5.50049e-05
12 *43:12 *520:84 0.0002263
13 *43:12 *550:104 1.22822e-05
14 *43:18 *2072:A1 7.43025e-06
15 *43:18 *2072:A2 0.000103647
16 *43:18 *2075:A2 4.00259e-06
17 *43:18 *49:34 2.03764e-06
18 *43:18 *64:10 0.000262858
19 *43:33 *2057:D 9.70259e-06
20 *43:33 *2075:A2 5.50049e-05
21 *43:33 *46:46 1.86973e-05
22 *43:33 *48:10 0
23 *43:33 *49:10 0
24 *43:33 *64:10 6.17437e-06
25 *2059:A *43:12 0.000126847
26 *2059:B *43:12 0.000148688
*RES
1 *2051:X *43:12 37.6243 
2 *43:12 *43:18 8.03714 
3 *43:18 *2075:B1 23 
4 *43:18 *43:33 32.755 
5 *43:33 *2055:C 23 
6 *43:12 *2052:A2 23.8493 
*END

*D_NET *44 0.00395371
*CONN
*I *2053:B1 I *D sky130_fd_sc_hd__a311oi_2
*I *2054:B1 I *D sky130_fd_sc_hd__a311o_1
*I *2052:Y O *D sky130_fd_sc_hd__a21oi_1
*CAP
1 *2053:B1 0.000450029
2 *2054:B1 9.78926e-05
3 *2052:Y 0.000369497
4 *44:8 0.000917419
5 *2053:B1 *2053:A1 9.58444e-05
6 *2053:B1 *2053:C1 0.000132453
7 *2053:B1 *477:24 0.000139346
8 *2053:B1 *479:6 0.000207853
9 *2053:B1 *479:38 8.43466e-05
10 *2054:B1 *478:29 9.74235e-05
11 *2054:B1 *516:52 0.000194318
12 *44:8 *2029:A 2.33476e-05
13 *44:8 *45:36 0.000110922
14 *44:8 *478:29 2.84016e-05
15 *44:8 *516:52 0.000805885
16 *44:8 *539:94 0.000166446
17 *35:8 *2054:B1 3.22879e-05
*RES
1 *2052:Y *44:8 49.0614 
2 *44:8 *2054:B1 41.2314 
3 *44:8 *2053:B1 46.7621 
*END

*D_NET *45 0.00594921
*CONN
*I *2059:C I *D sky130_fd_sc_hd__or4_1
*I *2058:A I *D sky130_fd_sc_hd__nor2_1
*I *2082:A I *D sky130_fd_sc_hd__or3_1
*I *2090:A I *D sky130_fd_sc_hd__or3_1
*I *2053:Y O *D sky130_fd_sc_hd__a311oi_2
*CAP
1 *2059:C 0
2 *2058:A 0
3 *2082:A 0
4 *2090:A 7.08664e-05
5 *2053:Y 0.000193179
6 *45:57 0.000389287
7 *45:36 0.00110767
8 *45:14 0.000267342
9 *45:8 0.00110804
10 *2090:A *2090:B 4.95081e-05
11 *2090:A *2090:C 3.22879e-05
12 *2090:A *49:16 2.4754e-05
13 *2090:A *74:6 0.00010018
14 *45:8 *2081:A2 0
15 *45:8 *46:28 0
16 *45:8 *479:21 0
17 *45:8 *543:26 0.000245818
18 *45:14 *46:28 5.90675e-06
19 *45:14 *49:16 0.000193729
20 *45:14 *484:31 6.17437e-06
21 *45:36 *2052:B1 1.14452e-05
22 *45:36 *2060:A2 2.4754e-05
23 *45:36 *46:28 0
24 *45:36 *46:46 0
25 *45:36 *52:10 5.3304e-05
26 *45:36 *63:10 0.000138444
27 *45:36 *64:22 0.00014196
28 *45:36 *283:10 0
29 *45:36 *471:8 0.000180224
30 *45:36 *471:22 0.000268074
31 *45:36 *513:8 6.48142e-05
32 *45:36 *513:12 0.000125488
33 *45:36 *513:16 0
34 *45:36 *513:36 6.99589e-05
35 *45:36 *516:52 3.11878e-05
36 *45:36 *539:94 0.000186451
37 *45:36 *543:26 0.000312358
38 *45:57 *2052:B1 1.38978e-05
39 *45:57 *516:76 0
40 *45:57 *539:94 2.33476e-05
41 *45:57 *542:33 0.000280381
42 *45:57 *547:36 2.11157e-05
43 *39:10 *45:8 4.13358e-05
44 *43:12 *45:57 5.50049e-05
45 *44:8 *45:36 0.000110922
*RES
1 *2053:Y *45:8 41.3143 
2 *45:8 *45:14 19.4536 
3 *45:14 *2090:A 25.5271 
4 *45:14 *2082:A 23 
5 *45:8 *45:36 47.5864 
6 *45:36 *2058:A 38 
7 *45:36 *45:57 33.2641 
8 *45:57 *2059:C 23 
*END

*D_NET *46 0.00499662
*CONN
*I *2060:A1 I *D sky130_fd_sc_hd__a21o_1
*I *2071:A1 I *D sky130_fd_sc_hd__a21oi_1
*I *2075:A1 I *D sky130_fd_sc_hd__a21o_1
*I *2089:A1 I *D sky130_fd_sc_hd__a21o_1
*I *2081:A1 I *D sky130_fd_sc_hd__a21o_1
*I *2054:X O *D sky130_fd_sc_hd__a311o_1
*CAP
1 *2060:A1 0.000167556
2 *2071:A1 0
3 *2075:A1 0
4 *2089:A1 0
5 *2081:A1 0
6 *2054:X 0.000427099
7 *46:57 0.000220556
8 *46:46 0.000299181
9 *46:28 0.000189494
10 *46:18 0.00026415
11 *46:16 0.000461824
12 *46:14 0.000214493
13 *46:10 0.000500605
14 *2060:A1 *2060:A2 4.21378e-05
15 *2060:A1 *477:24 0.000143655
16 *46:10 *2049:A2 9.84794e-05
17 *46:10 *2081:A2 0
18 *46:10 *62:8 0.000222113
19 *46:10 *477:24 0
20 *46:10 *479:38 6.4393e-05
21 *46:10 *484:31 5.05552e-05
22 *46:28 *2081:A2 0.000275668
23 *46:28 *49:16 5.41288e-05
24 *46:28 *484:31 3.06608e-05
25 *46:28 *513:16 2.55642e-05
26 *46:46 *2075:A2 5.67058e-05
27 *46:46 *49:16 0.000454264
28 *46:46 *64:10 3.95226e-05
29 *46:46 *283:10 0
30 *46:46 *513:8 0
31 *46:46 *513:16 0.000167452
32 *46:57 *49:16 5.56306e-05
33 *46:57 *62:8 0.000111852
34 *33:14 *46:14 4.21281e-05
35 *33:14 *46:16 6.9805e-05
36 *33:14 *46:18 4.96717e-05
37 *42:10 *46:10 0.000172667
38 *43:33 *46:46 1.86973e-05
39 *45:8 *46:28 0
40 *45:14 *46:28 5.90675e-06
41 *45:36 *46:28 0
42 *45:36 *46:46 0
*RES
1 *2054:X *46:10 47.3421 
2 *46:10 *46:14 16.0979 
3 *46:14 *46:16 1.57429 
4 *46:16 *46:18 1.09786 
5 *46:18 *46:28 34.9093 
6 *46:28 *2081:A1 23 
7 *46:18 *2089:A1 23 
8 *46:16 *46:46 37.2293 
9 *46:46 *2075:A1 23 
10 *46:14 *46:57 31.5536 
11 *46:57 *2071:A1 23 
12 *46:57 *2060:A1 25.5271 
*END

*D_NET *47 0.00062315
*CONN
*I *2057:D I *D sky130_fd_sc_hd__or4_1
*I *2056:D I *D sky130_fd_sc_hd__nor4_1
*I *2055:X O *D sky130_fd_sc_hd__and3_1
*CAP
1 *2057:D 7.00499e-05
2 *2056:D 2.10467e-05
3 *2055:X 3.34936e-05
4 *47:6 0.00012459
5 *2056:D *2056:C 5.67058e-05
6 *2057:D *2055:A 5.67058e-05
7 *2057:D *2056:C 0.000230604
8 *47:6 *2056:A 2.02517e-05
9 *47:6 *2056:B 0
10 *47:6 *539:60 0
11 *43:33 *2057:D 9.70259e-06
*RES
1 *2055:X *47:6 23.8493 
2 *47:6 *2056:D 23.6214 
3 *47:6 *2057:D 25.5271 
*END

*D_NET *48 0.00128793
*CONN
*I *2075:A2 I *D sky130_fd_sc_hd__a21o_1
*I *2492:A I *D sky130_fd_sc_hd__buf_1
*I *2056:Y O *D sky130_fd_sc_hd__nor4_1
*CAP
1 *2075:A2 0.000227661
2 *2492:A 0
3 *2056:Y 0.000181341
4 *48:12 0.000227661
5 *48:10 0.000181341
6 *2075:A2 *2072:A1 0
7 *2075:A2 *64:10 3.34247e-05
8 *2075:A2 *67:14 5.83407e-05
9 *48:10 *2056:A 9.5877e-05
10 *48:10 *283:10 0.00014411
11 *48:10 *542:33 2.24608e-05
12 *43:18 *2075:A2 4.00259e-06
13 *43:33 *2075:A2 5.50049e-05
14 *43:33 *48:10 0
15 *46:46 *2075:A2 5.67058e-05
*RES
1 *2056:Y *48:10 41.0036 
2 *48:10 *48:12 15 
3 *48:12 *2492:A 23 
4 *48:12 *2075:A2 27.9507 
*END

*D_NET *49 0.00576522
*CONN
*I *2059:D I *D sky130_fd_sc_hd__or4_1
*I *2058:B I *D sky130_fd_sc_hd__nor2_1
*I *2082:B I *D sky130_fd_sc_hd__or3_1
*I *2090:B I *D sky130_fd_sc_hd__or3_1
*I *2057:X O *D sky130_fd_sc_hd__or4_1
*CAP
1 *2059:D 0.000174194
2 *2058:B 0
3 *2082:B 0
4 *2090:B 9.14211e-05
5 *2057:X 0.000216589
6 *49:34 0.000710148
7 *49:16 0.000905556
8 *49:10 0.00156668
9 *2059:D *2072:A1 5.50106e-05
10 *2090:B *74:6 5.67058e-05
11 *49:10 *2055:A 5.3304e-05
12 *49:10 *471:22 3.92285e-05
13 *49:10 *539:73 0.000126914
14 *49:16 *2081:A2 9.57314e-05
15 *49:16 *62:8 8.05971e-05
16 *49:16 *63:10 0.000137788
17 *49:16 *471:22 6.78081e-05
18 *49:16 *484:31 3.80629e-05
19 *49:16 *513:16 1.37246e-05
20 *49:34 *2072:A1 0.00027945
21 *49:34 *2072:A2 3.17634e-05
22 *49:34 *64:10 1.85916e-05
23 *2070:B *49:16 7.53384e-06
24 *2090:A *2090:B 4.95081e-05
25 *2090:A *49:16 2.4754e-05
26 *43:12 *2059:D 0.000164364
27 *43:18 *49:34 2.03764e-06
28 *43:33 *49:10 0
29 *45:14 *49:16 0.000193729
30 *46:28 *49:16 5.41288e-05
31 *46:46 *49:16 0.000454264
32 *46:57 *49:16 5.56306e-05
*RES
1 *2057:X *49:10 41.2521 
2 *49:10 *49:16 31.3643 
3 *49:16 *2090:B 24.5743 
4 *49:16 *2082:B 23 
5 *49:10 *49:34 22.6643 
6 *49:34 *2058:B 23 
7 *49:34 *2059:D 26.9564 
*END

*D_NET *50 0.0132532
*CONN
*I *2072:A1 I *D sky130_fd_sc_hd__a21oi_2
*I *2279:A2 I *D sky130_fd_sc_hd__a211o_1
*I *2058:Y O *D sky130_fd_sc_hd__nor2_1
*CAP
1 *2072:A1 0.000276114
2 *2279:A2 0
3 *2058:Y 0
4 *50:24 0.00232198
5 *50:18 0.00232198
6 *50:16 0.00135896
7 *50:6 0.00163508
8 *2072:A1 *2072:A2 5.70419e-05
9 *2072:A1 *516:76 2.96051e-05
10 *2072:A1 *539:94 5.01986e-05
11 *50:16 *52:10 0.000226306
12 *50:16 *443:6 4.37586e-06
13 *50:16 *443:14 8.20126e-06
14 *50:16 *456:10 5.67058e-05
15 *50:16 *471:6 0.000164508
16 *50:16 *471:8 0.00133491
17 *50:16 *516:76 5.21127e-05
18 *50:16 *539:94 0.000113153
19 *50:16 *552:100 5.78583e-05
20 *50:24 *2345:B 0.000154036
21 *50:24 *2351:A1 0.000221174
22 *50:24 *245:12 0
23 *50:24 *326:20 0.000160191
24 *50:24 *326:65 0.000448914
25 *50:24 *326:67 0.000179693
26 *50:24 *341:10 9.74235e-05
27 *50:24 *342:10 3.27534e-05
28 *50:24 *353:10 7.02881e-05
29 *50:24 *423:10 0
30 *50:24 *423:14 0
31 *50:24 *434:8 0.000223679
32 *50:24 *434:14 6.6869e-05
33 *50:24 *434:45 0.000585179
34 *50:24 *439:10 0
35 *50:24 *451:8 8.62876e-05
36 *50:24 *454:19 2.29895e-05
37 *50:24 *499:31 0
38 *50:24 *534:92 5.02657e-05
39 *50:24 *542:69 0.000168873
40 *2052:A2 *2072:A1 2.2617e-05
41 *2059:D *2072:A1 5.50106e-05
42 *2075:A2 *2072:A1 0
43 *43:12 *2072:A1 0.000250955
44 *43:18 *2072:A1 7.43025e-06
45 *49:34 *2072:A1 0.00027945
*RES
1 *2058:Y *50:6 38 
2 *50:6 *50:16 40.6857 
3 *50:16 *50:18 15 
4 *50:18 *50:24 49.0514 
5 *50:24 *2279:A2 38 
6 *50:6 *2072:A1 45.8714 
*END

*D_NET *51 0.00128979
*CONN
*I *2065:B I *D sky130_fd_sc_hd__and3_1
*I *2061:A I *D sky130_fd_sc_hd__nand2_1
*I *2064:A1 I *D sky130_fd_sc_hd__a21o_1
*I *2059:X O *D sky130_fd_sc_hd__or4_1
*CAP
1 *2065:B 0.000149846
2 *2061:A 0.000121465
3 *2064:A1 0
4 *2059:X 0.000130348
5 *51:19 0.00028419
6 *51:12 1.2878e-05
7 *51:10 0.000130348
8 *2061:A *53:12 0.000123934
9 *2061:A *56:10 3.22879e-05
10 *2065:B *53:12 8.15453e-05
11 *2065:B *547:18 1.00493e-05
12 *51:10 *52:20 6.01895e-05
13 *51:10 *547:30 2.99477e-05
14 *51:10 *547:88 5.99806e-05
15 *51:10 *547:105 6.07611e-06
16 *51:19 *53:12 0
17 *51:19 *547:18 0
18 *2059:A *51:10 5.67058e-05
*RES
1 *2059:X *51:10 40.5271 
2 *51:10 *51:12 15 
3 *51:12 *2064:A1 23 
4 *51:12 *51:19 0.497143 
5 *51:19 *2061:A 26.0243 
6 *51:19 *2065:B 26.045 
*END

*D_NET *52 0.00281994
*CONN
*I *2061:B I *D sky130_fd_sc_hd__nand2_1
*I *2065:C I *D sky130_fd_sc_hd__and3_1
*I *2064:A2 I *D sky130_fd_sc_hd__a21o_1
*I *2060:X O *D sky130_fd_sc_hd__a21o_1
*CAP
1 *2061:B 3.43759e-05
2 *2065:C 8.93803e-05
3 *2064:A2 0
4 *2060:X 0.00051011
5 *52:20 4.38959e-05
6 *52:14 0.000400369
7 *52:10 0.000811579
8 *2061:B *516:76 1.9446e-05
9 *2061:B *547:88 0
10 *2065:C *53:12 0.000127065
11 *52:10 *471:8 3.75171e-05
12 *52:10 *516:76 8.22624e-05
13 *52:10 *547:36 0
14 *52:10 *547:88 0
15 *52:14 *53:12 0.000310641
16 *52:20 *53:12 4.21594e-06
17 *52:20 *517:58 0
18 *52:20 *547:30 9.28078e-06
19 *45:36 *52:10 5.3304e-05
20 *50:16 *52:10 0.000226306
21 *51:10 *52:20 6.01895e-05
*RES
1 *2060:X *52:10 45.975 
2 *52:10 *52:14 18.9564 
3 *52:14 *52:20 30.8493 
4 *52:20 *2064:A2 23 
5 *52:14 *2065:C 24.4396 
6 *52:10 *2061:B 38.8493 
*END

*D_NET *53 0.00323143
*CONN
*I *2062:A I *D sky130_fd_sc_hd__inv_2
*I *2063:B I *D sky130_fd_sc_hd__and2_1
*I *2061:Y O *D sky130_fd_sc_hd__nand2_1
*CAP
1 *2062:A 0.000172129
2 *2063:B 0.000323668
3 *2061:Y 0.000326768
4 *53:12 0.000822565
5 *2062:A *54:8 1.14452e-05
6 *2062:A *57:10 7.70737e-05
7 *2062:A *57:29 1.27508e-05
8 *2062:A *219:14 0.000104569
9 *2062:A *517:10 6.85654e-05
10 *2062:A *547:30 0
11 *2063:B *55:10 3.40181e-05
12 *2063:B *59:8 0.000265472
13 *2063:B *61:6 7.05498e-05
14 *2063:B *517:10 5.50106e-05
15 *2063:B *517:52 9.58714e-05
16 *53:12 *56:10 1.32939e-05
17 *53:12 *57:10 0.000104515
18 *53:12 *517:56 0
19 *53:12 *517:58 0
20 *53:12 *547:18 1.4345e-05
21 *53:12 *547:30 1.14154e-05
22 *53:12 *547:105 0
23 *2061:A *53:12 0.000123934
24 *2065:B *53:12 8.15453e-05
25 *2065:C *53:12 0.000127065
26 *51:19 *53:12 0
27 *52:14 *53:12 0.000310641
28 *52:20 *53:12 4.21594e-06
*RES
1 *2061:Y *53:12 46.0164 
2 *53:12 *2063:B 45.1879 
3 *53:12 *2062:A 42.0807 
*END

*D_NET *54 0.000858415
*CONN
*I *2105:A0 I *D sky130_fd_sc_hd__mux2_1
*I *2062:Y O *D sky130_fd_sc_hd__inv_2
*CAP
1 *2105:A0 0.000121949
2 *2062:Y 0.000130058
3 *54:8 0.000252006
4 *2105:A0 *2105:A1 5.50049e-05
5 *2105:A0 *512:42 2.32101e-05
6 *2105:A0 *531:73 2.62931e-05
7 *54:8 *2104:B 0.000188916
8 *54:8 *57:29 6.07611e-06
9 *54:8 *219:23 0
10 *54:8 *517:10 1.52259e-05
11 *54:8 *524:40 2.82307e-05
12 *2062:A *54:8 1.14452e-05
*RES
1 *2062:Y *54:8 41.3143 
2 *54:8 *2105:A0 40.0507 
*END

*D_NET *55 0.00182437
*CONN
*I *2066:A I *D sky130_fd_sc_hd__nor2_1
*I *2063:X O *D sky130_fd_sc_hd__and2_1
*CAP
1 *2066:A 0
2 *2063:X 0.000600548
3 *55:10 0.000600548
4 *55:10 *2069:A1 0.000139352
5 *55:10 *57:29 0.000135037
6 *55:10 *59:8 4.40457e-05
7 *55:10 *61:6 0.00010018
8 *55:10 *219:23 0
9 *55:10 *524:30 1.32314e-05
10 *55:10 *524:40 0.000157407
11 *2063:B *55:10 3.40181e-05
*RES
1 *2063:X *55:10 47.1971 
2 *55:10 *2066:A 38 
*END

*D_NET *56 0.000485774
*CONN
*I *2069:B1 I *D sky130_fd_sc_hd__o21ai_2
*I *2064:X O *D sky130_fd_sc_hd__a21o_1
*CAP
1 *2069:B1 0
2 *2064:X 0.000220096
3 *56:10 0.000220096
4 *56:10 *516:46 0
5 *56:10 *516:76 0
6 *56:10 *547:105 0
7 *2061:A *56:10 3.22879e-05
8 *53:12 *56:10 1.32939e-05
*RES
1 *2064:X *56:10 41.3557 
2 *56:10 *2069:B1 38 
*END

*D_NET *57 0.00168897
*CONN
*I *2066:B I *D sky130_fd_sc_hd__nor2_1
*I *2069:A1 I *D sky130_fd_sc_hd__o21ai_2
*I *2065:X O *D sky130_fd_sc_hd__and3_1
*CAP
1 *2066:B 0
2 *2069:A1 6.7115e-05
3 *2065:X 0.000167691
4 *57:29 0.00013445
5 *57:12 0.000201565
6 *57:10 0.000167691
7 *2069:A1 *59:8 8.03325e-05
8 *57:10 *517:10 5.10859e-05
9 *57:10 *547:30 7.11195e-06
10 *57:10 *547:105 0
11 *57:29 *59:8 6.82514e-05
12 *57:29 *219:14 0.000108681
13 *57:29 *524:40 0.000160191
14 *2062:A *57:10 7.70737e-05
15 *2062:A *57:29 1.27508e-05
16 *53:12 *57:10 0.000104515
17 *54:8 *57:29 6.07611e-06
18 *55:10 *2069:A1 0.000139352
19 *55:10 *57:29 0.000135037
*RES
1 *2065:X *57:10 41.2314 
2 *57:10 *57:12 15 
3 *57:12 *2069:A1 25.0714 
4 *57:12 *57:29 33.8321 
5 *57:29 *2066:B 23 
*END

*D_NET *58 0.000607967
*CONN
*I *2104:A I *D sky130_fd_sc_hd__xnor2_1
*I *2066:Y O *D sky130_fd_sc_hd__nor2_1
*CAP
1 *2104:A 0.000213004
2 *2066:Y 0.000213004
3 *2104:A *2104:B 3.3577e-05
4 *2104:A *219:14 9.41704e-05
5 *2104:A *524:40 5.42115e-05
*RES
1 *2066:Y *2104:A 49.9771 
*END

*D_NET *59 0.00100019
*CONN
*I *2069:A2 I *D sky130_fd_sc_hd__o21ai_2
*I *2067:Y O *D sky130_fd_sc_hd__nor2_1
*CAP
1 *2069:A2 0
2 *2067:Y 0.00015777
3 *59:8 0.00015777
4 *59:8 *2067:A 5.67058e-05
5 *59:8 *517:52 8.83847e-05
6 *59:8 *524:30 2.4754e-05
7 *59:8 *524:40 5.67058e-05
8 *2063:B *59:8 0.000265472
9 *2069:A1 *59:8 8.03325e-05
10 *55:10 *59:8 4.40457e-05
11 *57:29 *59:8 6.82514e-05
*RES
1 *2067:Y *59:8 28.8829 
2 *59:8 *2069:A2 23 
*END

*D_NET *60 0.00167762
*CONN
*I *2110:A I *D sky130_fd_sc_hd__nand2_1
*I *2104:B I *D sky130_fd_sc_hd__xnor2_1
*I *2068:X O *D sky130_fd_sc_hd__or2_1
*CAP
1 *2110:A 0.000171816
2 *2104:B 0.00024283
3 *2068:X 0
4 *60:6 0.000414646
5 *2104:B *219:23 0
6 *2104:B *512:48 0.000168754
7 *2104:B *517:10 6.74919e-05
8 *2104:B *524:40 9.67842e-05
9 *2110:A *219:23 0
10 *2110:A *512:48 0.000232132
11 *2110:A *512:63 2.96154e-05
12 *2110:A *517:19 2.49836e-05
13 *2110:A *517:21 6.07611e-06
14 *2104:A *2104:B 3.3577e-05
15 *54:8 *2104:B 0.000188916
*RES
1 *2068:X *60:6 38 
2 *60:6 *2104:B 43.9657 
3 *60:6 *2110:A 42.0186 
*END

*D_NET *61 0.00580575
*CONN
*I *2123:A1 I *D sky130_fd_sc_hd__a21o_1
*I *2101:A1 I *D sky130_fd_sc_hd__a31o_1
*I *2096:D_N I *D sky130_fd_sc_hd__or4b_1
*I *2128:A I *D sky130_fd_sc_hd__xnor2_1
*I *2069:Y O *D sky130_fd_sc_hd__o21ai_2
*CAP
1 *2123:A1 0
2 *2101:A1 1.72917e-05
3 *2096:D_N 7.81281e-05
4 *2128:A 7.07523e-05
5 *2069:Y 0.00124324
6 *61:27 0.000240779
7 *61:23 0.000368077
8 *61:6 0.00153671
9 *2096:D_N *2096:C 0.000100061
10 *2096:D_N *2098:C_N 0.000224662
11 *2096:D_N *86:19 4.96303e-05
12 *2096:D_N *539:60 8.48502e-06
13 *2128:A *116:10 0.000145236
14 *2128:A *534:48 6.95513e-05
15 *61:6 *283:8 5.50106e-05
16 *61:6 *516:61 0.000128401
17 *61:6 *516:76 2.93747e-05
18 *61:6 *531:56 0.000309975
19 *61:6 *534:48 0.00022167
20 *61:6 *542:16 0.000181125
21 *61:6 *542:33 9.67842e-05
22 *61:23 *2123:B1 6.07611e-06
23 *61:23 *543:12 7.52589e-05
24 *61:27 *2098:C_N 4.19304e-05
25 *61:27 *2123:A2 0.00013058
26 *61:27 *86:19 5.25022e-05
27 *61:27 *89:12 0.000141294
28 *61:27 *531:34 1.24376e-05
29 *2063:B *61:6 7.05498e-05
30 *55:10 *61:6 0.00010018
*RES
1 *2069:Y *61:6 47.9193 
2 *61:6 *2128:A 25.5479 
3 *61:6 *61:23 33.8114 
4 *61:23 *61:27 3.97714 
5 *61:27 *2096:D_N 25.5271 
6 *61:27 *2101:A1 23.4971 
7 *61:23 *2123:A1 23 
*END

*D_NET *62 0.00156797
*CONN
*I *2072:A2 I *D sky130_fd_sc_hd__a21oi_2
*I *2070:Y O *D sky130_fd_sc_hd__xnor2_1
*CAP
1 *2072:A2 4.64419e-05
2 *2070:Y 0.000341621
3 *62:8 0.000388063
4 *62:8 *2081:A2 0
5 *62:8 *241:29 0
6 *62:8 *471:22 0.000184825
7 *62:8 *471:124 0
8 *62:8 *477:24 0
9 *2072:A1 *2072:A2 5.70419e-05
10 *43:18 *2072:A2 0.000103647
11 *46:10 *62:8 0.000222113
12 *46:57 *62:8 0.000111852
13 *49:16 *62:8 8.05971e-05
14 *49:34 *2072:A2 3.17634e-05
*RES
1 *2070:Y *62:8 45.8921 
2 *62:8 *2072:A2 40.0507 
*END

*D_NET *63 0.000766434
*CONN
*I *2072:B1 I *D sky130_fd_sc_hd__a21oi_2
*I *2071:Y O *D sky130_fd_sc_hd__a21oi_1
*CAP
1 *2072:B1 0
2 *2071:Y 0.000177323
3 *63:10 0.000177323
4 *63:10 *471:22 0.000135557
5 *45:36 *63:10 0.000138444
6 *49:16 *63:10 0.000137788
*RES
1 *2071:Y *63:10 41.48 
2 *63:10 *2072:B1 38 
*END

*D_NET *64 0.00949167
*CONN
*I *2073:B I *D sky130_fd_sc_hd__or2_1
*I *2103:A0 I *D sky130_fd_sc_hd__mux2_1
*I *2074:B I *D sky130_fd_sc_hd__xnor2_1
*I *2072:Y O *D sky130_fd_sc_hd__a21oi_2
*CAP
1 *2073:B 0
2 *2103:A0 0.000364592
3 *2074:B 0.000487515
4 *2072:Y 0.000223361
5 *64:34 0.00114676
6 *64:28 0.000909692
7 *64:22 0.00175348
8 *64:10 0.00136181
9 *2074:B *2098:C_N 0.000223687
10 *2074:B *66:6 6.22199e-05
11 *2074:B *66:25 6.51477e-06
12 *2103:A0 *2073:A 5.09885e-05
13 *2103:A0 *2103:A1 5.67058e-05
14 *2103:A0 *65:10 9.03157e-05
15 *2103:A0 *70:18 0.000126343
16 *2103:A0 *90:8 1.01436e-05
17 *2103:A0 *94:8 4.58924e-05
18 *2103:A0 *471:40 0.000515248
19 *2103:A0 *496:6 5.41288e-05
20 *2103:A0 *539:24 0
21 *2103:A0 *539:43 4.24364e-05
22 *64:10 *283:10 0
23 *64:10 *513:8 0
24 *64:22 *2095:D 1.13013e-05
25 *64:22 *2097:A2 0.000185434
26 *64:22 *76:20 2.18286e-05
27 *64:22 *77:10 3.85802e-05
28 *64:22 *83:10 5.50106e-05
29 *64:22 *84:14 0.000138607
30 *64:22 *84:22 3.64246e-05
31 *64:22 *87:12 4.21594e-06
32 *64:22 *513:12 1.21972e-05
33 *64:22 *543:20 0.000136242
34 *64:28 *2087:A 0.000229879
35 *64:28 *76:20 2.14462e-05
36 *64:34 *2073:A 0.000175492
37 *64:34 *65:10 5.62433e-05
38 *64:34 *67:39 2.8241e-05
39 *64:34 *70:18 0.000167443
40 *64:34 *90:8 0.000138718
41 *64:34 *471:74 0
42 *2075:A2 *64:10 3.34247e-05
43 *43:18 *64:10 0.000262858
44 *43:33 *64:10 6.17437e-06
45 *45:36 *64:22 0.00014196
46 *46:46 *64:10 3.95226e-05
47 *49:34 *64:10 1.85916e-05
*RES
1 *2072:Y *64:10 42.5571 
2 *64:10 *64:22 48.0629 
3 *64:22 *64:28 23.7414 
4 *64:28 *64:34 22.0014 
5 *64:34 *2074:B 45.685 
6 *64:34 *2103:A0 48.7507 
7 *64:28 *2073:B 23 
*END

*D_NET *65 0.00194712
*CONN
*I *2099:A1 I *D sky130_fd_sc_hd__a21o_1
*I *2073:X O *D sky130_fd_sc_hd__or2_1
*CAP
1 *2099:A1 0.000229044
2 *2073:X 0.000383306
3 *65:10 0.00061235
4 *2099:A1 *539:32 7.91871e-05
5 *2099:A1 *539:43 5.12328e-05
6 *65:10 *66:12 0
7 *65:10 *67:39 0.000116286
8 *65:10 *69:10 0
9 *65:10 *70:10 0
10 *65:10 *70:18 0.000299187
11 *65:10 *91:8 0
12 *65:10 *539:24 2.99716e-05
13 *2103:A0 *65:10 9.03157e-05
14 *64:34 *65:10 5.62433e-05
*RES
1 *2073:X *65:10 46.8657 
2 *65:10 *2099:A1 41.9564 
*END

*D_NET *66 0.00265599
*CONN
*I *2096:A I *D sky130_fd_sc_hd__or4b_1
*I *2098:A I *D sky130_fd_sc_hd__or3b_1
*I *2102:A I *D sky130_fd_sc_hd__xor2_1
*I *2074:Y O *D sky130_fd_sc_hd__xnor2_1
*CAP
1 *2096:A 0.00016163
2 *2098:A 0
3 *2102:A 0
4 *2074:Y 0.000156915
5 *66:25 0.000418173
6 *66:12 0.000178415
7 *66:6 0.000591873
8 *2096:A *2096:B 3.83498e-05
9 *2096:A *2098:C_N 0.000431551
10 *2096:A *539:60 0.000161605
11 *66:12 *68:25 0.000166522
12 *66:12 *91:8 8.62876e-05
13 *66:12 *536:14 0
14 *66:12 *539:24 0.000122407
15 *66:25 *2096:B 1.24376e-05
16 *66:25 *2098:C_N 6.10849e-05
17 *2074:B *66:6 6.22199e-05
18 *2074:B *66:25 6.51477e-06
19 *65:10 *66:12 0
*RES
1 *2074:Y *66:6 25.0507 
2 *66:6 *66:12 34.7229 
3 *66:12 *2102:A 23 
4 *66:6 *66:25 4.495 
5 *66:25 *2098:A 23 
6 *66:25 *2096:A 27.9093 
*END

*D_NET *67 0.0133982
*CONN
*I *2144:A I *D sky130_fd_sc_hd__or3_1
*I *2121:A1 I *D sky130_fd_sc_hd__o21ai_1
*I *2077:A2 I *D sky130_fd_sc_hd__a21o_1
*I *2076:C I *D sky130_fd_sc_hd__and3_1
*I *2075:X O *D sky130_fd_sc_hd__a21o_1
*CAP
1 *2144:A 0.00013199
2 *2121:A1 0
3 *2077:A2 0
4 *2076:C 0.000221197
5 *2075:X 0.00118673
6 *67:63 0.000782791
7 *67:48 0.00126704
8 *67:39 0.000110022
9 *67:16 0.000439394
10 *67:14 0.00191115
11 *2076:C *2076:B 0.000312339
12 *2076:C *2078:B 1.28818e-05
13 *2076:C *68:6 5.50049e-05
14 *2076:C *68:25 0.00014457
15 *2076:C *70:18 0.000185428
16 *2076:C *471:53 5.3304e-05
17 *2144:A *111:8 0.000244526
18 *2144:A *497:22 1.59094e-05
19 *2144:A *501:6 5.3304e-05
20 *2144:A *512:18 0.000119931
21 *67:14 *2092:A1 0.000149066
22 *67:14 *2093:A 3.22879e-05
23 *67:14 *2093:B 0.000194184
24 *67:14 *2093:C 1.78948e-05
25 *67:14 *2100:A2 4.39607e-05
26 *67:14 *2100:B1 5.67058e-05
27 *67:14 *84:8 0.000185434
28 *67:14 *84:22 5.56279e-05
29 *67:14 *471:53 4.17736e-05
30 *67:14 *531:34 0.000209062
31 *67:14 *543:35 2.18409e-05
32 *67:16 *2100:A2 6.34418e-05
33 *67:16 *70:18 9.5877e-05
34 *67:16 *471:53 0.000295607
35 *67:39 *70:10 0
36 *67:39 *471:74 0.000177199
37 *67:48 *2073:A 0.000145946
38 *67:48 *2100:B1 0
39 *67:48 *2139:B 0.000197479
40 *67:48 *92:27 0.000644742
41 *67:48 *132:16 1.42006e-05
42 *67:48 *471:40 0.000146697
43 *67:48 *471:53 0.000395503
44 *67:48 *534:33 0.000430264
45 *67:48 *539:43 6.08751e-05
46 *67:63 *2139:B 0.000247434
47 *67:63 *2142:A1 0.000229793
48 *67:63 *117:47 7.20415e-05
49 *67:63 *119:21 0.000106619
50 *67:63 *124:10 0
51 *67:63 *131:8 0.000101564
52 *67:63 *132:16 0.000139977
53 *67:63 *283:99 0.000195805
54 *67:63 *497:12 0
55 *67:63 *498:14 0
56 *67:63 *499:23 0.000950532
57 *67:63 *510:10 0.000228386
58 *2075:A2 *67:14 5.83407e-05
59 *64:34 *67:39 2.8241e-05
60 *65:10 *67:39 0.000116286
*RES
1 *2075:X *67:14 46.345 
2 *67:14 *67:16 3.48 
3 *67:16 *2076:C 30.3329 
4 *67:16 *67:39 33.2314 
5 *67:39 *2077:A2 23 
6 *67:14 *67:48 35.2171 
7 *67:48 *2121:A1 38 
8 *67:48 *67:63 49.2229 
9 *67:63 *2144:A 41.9357 
*END

*D_NET *68 0.00151403
*CONN
*I *2099:B1 I *D sky130_fd_sc_hd__a21o_1
*I *2078:A_N I *D sky130_fd_sc_hd__nand2b_1
*I *2076:X O *D sky130_fd_sc_hd__and3_1
*CAP
1 *2099:B1 0
2 *2078:A_N 0
3 *2076:X 4.25104e-05
4 *68:25 0.000353815
5 *68:12 3.45684e-05
6 *68:6 0.000430894
7 *68:12 *2077:B1 0
8 *68:12 *2099:A2 5.01986e-05
9 *68:12 *69:10 1.14452e-05
10 *68:12 *536:14 0
11 *68:25 *2099:A2 0.000120467
12 *68:25 *91:8 0.00010403
13 *2076:C *68:6 5.50049e-05
14 *2076:C *68:25 0.00014457
15 *66:12 *68:25 0.000166522
*RES
1 *2076:X *68:6 23.6214 
2 *68:6 *68:12 30.8493 
3 *68:12 *2078:A_N 23 
4 *68:6 *68:25 37.1257 
5 *68:25 *2099:B1 23 
*END

*D_NET *69 0.00140536
*CONN
*I *2099:A2 I *D sky130_fd_sc_hd__a21o_1
*I *2078:B I *D sky130_fd_sc_hd__nand2b_1
*I *2077:X O *D sky130_fd_sc_hd__a21o_1
*CAP
1 *2099:A2 0.000244065
2 *2078:B 6.69944e-06
3 *2077:X 0.000248097
4 *69:10 0.000498861
5 *2078:B *2076:B 6.39489e-06
6 *2099:A2 *536:14 0
7 *2099:A2 *539:32 6.63698e-05
8 *69:10 *2077:B1 7.59964e-05
9 *69:10 *70:10 6.38845e-05
10 *69:10 *471:74 0
11 *2076:C *2078:B 1.28818e-05
12 *65:10 *69:10 0
13 *68:12 *2099:A2 5.01986e-05
14 *68:12 *69:10 1.14452e-05
15 *68:25 *2099:A2 0.000120467
*RES
1 *2077:X *69:10 42.3086 
2 *69:10 *2078:B 38.1502 
3 *69:10 *2099:A2 43.7793 
*END

*D_NET *70 0.00296701
*CONN
*I *2096:B I *D sky130_fd_sc_hd__or4b_1
*I *2098:B I *D sky130_fd_sc_hd__or3b_1
*I *2078:Y O *D sky130_fd_sc_hd__nand2b_1
*CAP
1 *2096:B 0.000359805
2 *2098:B 0
3 *2078:Y 0.000206307
4 *70:20 0.000359805
5 *70:18 0.000269746
6 *70:10 0.000476053
7 *2096:B *539:60 0.000306338
8 *70:10 *471:74 0
9 *2076:C *70:18 0.000185428
10 *2096:A *2096:B 3.83498e-05
11 *2103:A0 *70:18 0.000126343
12 *64:34 *70:18 0.000167443
13 *65:10 *70:10 0
14 *65:10 *70:18 0.000299187
15 *66:25 *2096:B 1.24376e-05
16 *67:16 *70:18 9.5877e-05
17 *67:39 *70:10 0
18 *69:10 *70:10 6.38845e-05
*RES
1 *2078:Y *70:10 40.4236 
2 *70:10 *70:18 37.0221 
3 *70:18 *70:20 15 
4 *70:20 *2098:B 23 
5 *70:20 *2096:B 27.9093 
*END

*D_NET *71 0.000729864
*CONN
*I *2080:B I *D sky130_fd_sc_hd__xnor2_1
*I *2079:Y O *D sky130_fd_sc_hd__xnor2_1
*CAP
1 *2080:B 0
2 *2079:Y 0.000364932
3 *71:10 0.000364932
4 *2044:B *71:10 0
*RES
1 *2079:Y *71:10 42.9093 
2 *71:10 *2080:B 38 
*END

*D_NET *72 0.00107597
*CONN
*I *2082:C I *D sky130_fd_sc_hd__or3_1
*I *2080:Y O *D sky130_fd_sc_hd__xnor2_1
*CAP
1 *2082:C 0
2 *2080:Y 0.000424785
3 *72:10 0.000424785
4 *72:10 *80:8 0
5 *72:10 *283:20 4.83778e-05
6 *72:10 *543:26 0
7 *2044:A_N *72:10 3.22879e-05
8 *2044:B *72:10 1.01436e-05
9 *34:12 *72:10 1.76557e-05
10 *35:14 *72:10 7.6144e-05
11 *39:29 *72:10 4.17929e-05
*RES
1 *2080:Y *72:10 46.6379 
2 *72:10 *2082:C 38 
*END

*D_NET *73 0.00348185
*CONN
*I *2083:A I *D sky130_fd_sc_hd__nand2_1
*I *2084:B I *D sky130_fd_sc_hd__and3_1
*I *2085:A1 I *D sky130_fd_sc_hd__a21oi_1
*I *2086:A1 I *D sky130_fd_sc_hd__a21o_1
*I *2081:X O *D sky130_fd_sc_hd__a21o_1
*CAP
1 *2083:A 0
2 *2084:B 0
3 *2085:A1 0.000134045
4 *2086:A1 0
5 *2081:X 6.05068e-05
6 *73:47 0.000126857
7 *73:22 0.00043458
8 *73:14 0.000438685
9 *73:12 0.000732463
10 *73:8 0.000527962
11 *2085:A1 *2086:A2 4.37821e-05
12 *2085:A1 *283:75 1.89075e-05
13 *73:8 *283:20 5.21024e-05
14 *73:8 *543:26 0.000110913
15 *73:12 *2084:C 3.3577e-05
16 *73:12 *81:10 8.08139e-06
17 *73:12 *283:52 0.000127725
18 *73:14 *2084:C 6.69899e-05
19 *73:22 *2084:C 8.44405e-06
20 *73:22 *74:16 2.94915e-05
21 *73:22 *283:65 7.33086e-05
22 *73:22 *283:75 0.000128951
23 *73:47 *2083:B 8.47345e-05
24 *73:47 *74:36 4.54033e-05
25 *73:47 *81:10 0.000138718
26 *73:47 *81:19 1.14452e-05
27 *73:47 *82:10 4.41722e-05
*RES
1 *2081:X *73:8 39.5536 
2 *73:8 *73:12 21.815 
3 *73:12 *73:14 2.05071 
4 *73:14 *73:22 35.0336 
5 *73:22 *2086:A1 23 
6 *73:22 *2085:A1 25.0714 
7 *73:14 *2084:B 23 
8 *73:12 *73:47 33.6664 
9 *73:47 *2083:A 23 
*END

*D_NET *74 0.00302299
*CONN
*I *2083:B I *D sky130_fd_sc_hd__nand2_1
*I *2084:C I *D sky130_fd_sc_hd__and3_1
*I *2086:A2 I *D sky130_fd_sc_hd__a21o_1
*I *2085:A2 I *D sky130_fd_sc_hd__a21oi_1
*I *2082:X O *D sky130_fd_sc_hd__or3_1
*CAP
1 *2083:B 0.00013685
2 *2084:C 0.000112242
3 *2086:A2 2.87272e-05
4 *2085:A2 0
5 *2082:X 4.91169e-05
6 *74:36 0.000395811
7 *74:16 0.000568683
8 *74:6 0.000735791
9 *2083:B *283:10 0
10 *2084:C *283:52 0.000182826
11 *2084:C *283:65 9.88123e-05
12 *2086:A2 *283:75 2.29883e-05
13 *74:6 *2090:C 1.22822e-05
14 *74:16 *2090:C 5.47927e-05
15 *74:16 *82:10 0.000143655
16 *74:16 *283:75 1.11037e-05
17 *74:36 *283:20 0
18 *2085:A1 *2086:A2 4.37821e-05
19 *2090:A *74:6 0.00010018
20 *2090:B *74:6 5.67058e-05
21 *73:12 *2084:C 3.3577e-05
22 *73:14 *2084:C 6.69899e-05
23 *73:22 *2084:C 8.44405e-06
24 *73:22 *74:16 2.94915e-05
25 *73:47 *2083:B 8.47345e-05
26 *73:47 *74:36 4.54033e-05
*RES
1 *2082:X *74:6 24.5743 
2 *74:6 *74:16 40.1604 
3 *74:16 *2085:A2 23 
4 *74:16 *2086:A2 24.0357 
5 *74:6 *74:36 17.61 
6 *74:36 *2084:C 41.5836 
7 *74:36 *2083:B 40.61 
*END

*D_NET *75 0.00267319
*CONN
*I *2125:A0 I *D sky130_fd_sc_hd__mux2_1
*I *2083:Y O *D sky130_fd_sc_hd__nand2_1
*CAP
1 *2125:A0 0
2 *2083:Y 0
3 *75:12 0.000923353
4 *75:6 0.000923353
5 *75:12 *2092:A1 2.71291e-05
6 *75:12 *2491:A 0.000394982
7 *75:12 *81:19 4.08537e-05
8 *75:12 *82:21 0
9 *75:12 *83:10 0
10 *75:12 *92:36 4.21378e-05
11 *75:12 *100:64 4.6318e-06
12 *75:12 *496:6 0.000260621
13 *75:12 *512:33 5.61311e-05
14 *75:12 *531:18 0
15 *75:12 *531:22 0
*RES
1 *2083:Y *75:6 38 
2 *75:6 *75:12 33.9121 
3 *75:12 *2125:A0 23 
*END

*D_NET *76 0.00149083
*CONN
*I *2097:B1 I *D sky130_fd_sc_hd__a21o_1
*I *2095:A I *D sky130_fd_sc_hd__or4_1
*I *2087:A I *D sky130_fd_sc_hd__nor2_1
*I *2084:X O *D sky130_fd_sc_hd__and3_1
*CAP
1 *2097:B1 1.39944e-05
2 *2095:A 0
3 *2087:A 9.0486e-05
4 *2084:X 5.13246e-05
5 *76:20 0.000244476
6 *76:14 0.000259715
7 *76:8 0.000143056
8 *2087:A *2087:B 6.36112e-05
9 *2087:A *2095:B 1.56542e-05
10 *2097:B1 *2097:A2 4.00259e-06
11 *76:8 *78:8 8.85189e-05
12 *76:8 *82:10 2.36844e-05
13 *76:8 *543:20 1.14452e-05
14 *76:14 *2097:A2 8.1796e-05
15 *76:20 *2095:B 1.3523e-05
16 *76:20 *2097:A2 2.4754e-05
17 *76:20 *84:14 8.76364e-05
18 *64:22 *76:20 2.18286e-05
19 *64:28 *2087:A 0.000229879
20 *64:28 *76:20 2.14462e-05
*RES
1 *2084:X *76:8 39.2014 
2 *76:8 *76:14 17.0714 
3 *76:14 *76:20 3.64571 
4 *76:20 *2087:A 26.5214 
5 *76:20 *2095:A 23 
6 *76:14 *2097:B1 23.4971 
*END

*D_NET *77 0.000819346
*CONN
*I *2095:B I *D sky130_fd_sc_hd__or4_1
*I *2087:B I *D sky130_fd_sc_hd__nor2_1
*I *2085:Y O *D sky130_fd_sc_hd__a21oi_1
*CAP
1 *2095:B 6.24228e-05
2 *2087:B 4.69359e-05
3 *2085:Y 0.000197063
4 *77:12 0.000109359
5 *77:10 0.000197063
6 *2087:B *79:10 5.41288e-05
7 *2095:B *79:10 6.17437e-06
8 *77:10 *283:75 1.48306e-05
9 *2087:A *2087:B 6.36112e-05
10 *2087:A *2095:B 1.56542e-05
11 *64:22 *77:10 3.85802e-05
12 *76:20 *2095:B 1.3523e-05
*RES
1 *2085:Y *77:10 40.9104 
2 *77:10 *77:12 15 
3 *77:12 *2087:B 24.595 
4 *77:12 *2095:B 24.4707 
*END

*D_NET *78 0.000211103
*CONN
*I *2097:A1 I *D sky130_fd_sc_hd__a21o_1
*I *2086:X O *D sky130_fd_sc_hd__a21o_1
*CAP
1 *2097:A1 0
2 *2086:X 6.12921e-05
3 *78:8 6.12921e-05
4 *76:8 *78:8 8.85189e-05
*RES
1 *2086:X *78:8 39.2014 
2 *78:8 *2097:A1 38 
*END

*D_NET *79 0.00170777
*CONN
*I *2124:A I *D sky130_fd_sc_hd__xnor2_1
*I *2101:A2 I *D sky130_fd_sc_hd__a31o_1
*I *2087:Y O *D sky130_fd_sc_hd__nor2_1
*CAP
1 *2124:A 0.000244973
2 *2101:A2 0
3 *2087:Y 0.000290486
4 *79:10 0.000535459
5 *2124:A *86:10 2.55642e-05
6 *2124:A *86:25 4.2289e-05
7 *2124:A *89:31 5.58975e-06
8 *2124:A *92:8 0
9 *2124:A *115:10 6.33614e-05
10 *2124:A *534:48 7.43845e-05
11 *79:10 *84:22 4.22374e-05
12 *79:10 *86:10 0.000135557
13 *79:10 *87:12 0.000160282
14 *79:10 *89:31 2.72882e-05
15 *2087:B *79:10 5.41288e-05
16 *2095:B *79:10 6.17437e-06
*RES
1 *2087:Y *79:10 43.8207 
2 *79:10 *2101:A2 38 
3 *79:10 *2124:A 42.8886 
*END

*D_NET *80 0.000895291
*CONN
*I *2090:C I *D sky130_fd_sc_hd__or3_1
*I *2088:Y O *D sky130_fd_sc_hd__xnor2_1
*CAP
1 *2090:C 0.000143569
2 *2088:Y 0.000254395
3 *80:8 0.000397964
4 *2090:A *2090:C 3.22879e-05
5 *72:10 *80:8 0
6 *74:6 *2090:C 1.22822e-05
7 *74:16 *2090:C 5.47927e-05
*RES
1 *2088:Y *80:8 42.7229 
2 *80:8 *2090:C 41.0243 
*END

*D_NET *81 0.00372748
*CONN
*I *2092:A1 I *D sky130_fd_sc_hd__a21oi_1
*I *2093:B I *D sky130_fd_sc_hd__and3_1
*I *2091:A I *D sky130_fd_sc_hd__and2_1
*I *2089:X O *D sky130_fd_sc_hd__a21o_1
*CAP
1 *2092:A1 0.000129925
2 *2093:B 0.000266565
3 *2091:A 0
4 *2089:X 0.000631293
5 *81:19 0.000490977
6 *81:10 0.000725779
7 *2092:A1 *2093:C 2.73248e-05
8 *2092:A1 *82:21 2.24973e-05
9 *2093:B *84:8 0.000143655
10 *81:10 *82:10 6.6869e-05
11 *81:10 *82:21 6.07611e-06
12 *81:10 *283:52 0.000571494
13 *81:19 *82:21 7.55491e-05
14 *67:14 *2092:A1 0.000149066
15 *67:14 *2093:B 0.000194184
16 *73:12 *81:10 8.08139e-06
17 *73:47 *81:10 0.000138718
18 *73:47 *81:19 1.14452e-05
19 *75:12 *2092:A1 2.71291e-05
20 *75:12 *81:19 4.08537e-05
*RES
1 *2089:X *81:10 48.15 
2 *81:10 *2091:A 38 
3 *81:10 *81:19 2.25786 
4 *81:19 *2093:B 41.9564 
5 *81:19 *2092:A1 40.9207 
*END

*D_NET *82 0.00227847
*CONN
*I *2093:C I *D sky130_fd_sc_hd__and3_1
*I *2092:A2 I *D sky130_fd_sc_hd__a21oi_1
*I *2091:B I *D sky130_fd_sc_hd__and2_1
*I *2090:X O *D sky130_fd_sc_hd__or3_1
*CAP
1 *2093:C 0.000261373
2 *2092:A2 0
3 *2091:B 0
4 *2090:X 0.000338136
5 *82:21 0.000386613
6 *82:10 0.000463377
7 *2093:C *2093:A 5.67058e-05
8 *2093:C *531:34 6.25657e-05
9 *2093:C *543:35 5.50049e-05
10 *82:10 *283:75 0
11 *82:10 *543:20 3.3123e-05
12 *82:21 *83:10 0.000160191
13 *82:21 *543:20 3.36534e-05
14 *2092:A1 *2093:C 2.73248e-05
15 *2092:A1 *82:21 2.24973e-05
16 *67:14 *2093:C 1.78948e-05
17 *73:47 *82:10 4.41722e-05
18 *74:16 *82:10 0.000143655
19 *75:12 *82:21 0
20 *76:8 *82:10 2.36844e-05
21 *81:10 *82:10 6.6869e-05
22 *81:10 *82:21 6.07611e-06
23 *81:19 *82:21 7.55491e-05
*RES
1 *2090:X *82:10 44.2971 
2 *82:10 *2091:B 38 
3 *82:10 *82:21 18.3143 
4 *82:21 *2092:A2 23 
5 *82:21 *2093:C 26.9357 
*END

*D_NET *83 0.00207491
*CONN
*I *2129:A0 I *D sky130_fd_sc_hd__mux2_2
*I *2091:X O *D sky130_fd_sc_hd__and2_1
*CAP
1 *2129:A0 0
2 *2091:X 0.000530209
3 *83:10 0.000530209
4 *83:10 *512:33 6.07611e-06
5 *83:10 *543:12 0.000607464
6 *83:10 *543:20 0.000185755
7 *64:22 *83:10 5.50106e-05
8 *75:12 *83:10 0
9 *82:21 *83:10 0.000160191
*RES
1 *2091:X *83:10 49.3307 
2 *83:10 *2129:A0 38 
*END

*D_NET *84 0.0027088
*CONN
*I *2123:B1 I *D sky130_fd_sc_hd__a21o_1
*I *2097:A2 I *D sky130_fd_sc_hd__a21o_1
*I *2095:C I *D sky130_fd_sc_hd__or4_1
*I *2094:A I *D sky130_fd_sc_hd__nor2_1
*I *2092:Y O *D sky130_fd_sc_hd__a21oi_1
*CAP
1 *2123:B1 0.000149768
2 *2097:A2 5.34953e-05
3 *2095:C 0
4 *2094:A 0
5 *2092:Y 4.40776e-05
6 *84:22 0.000147094
7 *84:14 0.000184723
8 *84:12 0.000200163
9 *84:8 0.000302885
10 *2123:B1 *89:8 0.000173926
11 *2123:B1 *89:31 0
12 *2123:B1 *531:34 5.56306e-05
13 *2123:B1 *543:12 0
14 *2123:B1 *543:20 0
15 *84:12 *2095:D 2.16985e-05
16 *84:12 *89:8 0.000114566
17 *84:12 *543:20 0
18 *84:22 *2095:D 0.000213463
19 *84:22 *87:12 0
20 *84:22 *531:34 5.56279e-05
21 *2093:B *84:8 0.000143655
22 *2097:B1 *2097:A2 4.00259e-06
23 *61:23 *2123:B1 6.07611e-06
24 *64:22 *2097:A2 0.000185434
25 *64:22 *84:14 0.000138607
26 *64:22 *84:22 3.64246e-05
27 *67:14 *84:8 0.000185434
28 *67:14 *84:22 5.56279e-05
29 *76:14 *2097:A2 8.1796e-05
30 *76:20 *2097:A2 2.4754e-05
31 *76:20 *84:14 8.76364e-05
32 *79:10 *84:22 4.22374e-05
*RES
1 *2092:Y *84:8 40.0507 
2 *84:8 *84:12 17.2579 
3 *84:12 *84:14 1.57429 
4 *84:14 *84:22 33.5836 
5 *84:22 *2094:A 23 
6 *84:14 *2095:C 23 
7 *84:12 *2097:A2 25.5479 
8 *84:8 *2123:B1 41.3143 
*END

*D_NET *85 0.000931634
*CONN
*I *2094:B I *D sky130_fd_sc_hd__nor2_1
*I *2095:D I *D sky130_fd_sc_hd__or4_1
*I *2093:X O *D sky130_fd_sc_hd__and3_1
*CAP
1 *2094:B 0
2 *2095:D 0.00011338
3 *2093:X 8.9742e-05
4 *85:10 0.000203122
5 *2095:D *89:8 0.000166129
6 *85:10 *89:8 5.94936e-05
7 *85:10 *531:34 5.3304e-05
8 *64:22 *2095:D 1.13013e-05
9 *84:12 *2095:D 2.16985e-05
10 *84:22 *2095:D 0.000213463
*RES
1 *2093:X *85:10 39.4707 
2 *85:10 *2095:D 41.3143 
3 *85:10 *2094:B 38 
*END

*D_NET *86 0.00230112
*CONN
*I *2123:A2 I *D sky130_fd_sc_hd__a21o_1
*I *2128:B I *D sky130_fd_sc_hd__xnor2_1
*I *2101:A3 I *D sky130_fd_sc_hd__a31o_1
*I *2094:Y O *D sky130_fd_sc_hd__nor2_1
*CAP
1 *2123:A2 8.58928e-05
2 *2128:B 0
3 *2101:A3 0
4 *2094:Y 0.000215371
5 *86:25 0.000166528
6 *86:19 0.000320568
7 *86:12 6.81466e-05
8 *86:10 0.000215371
9 *2123:A2 *531:34 1.5769e-05
10 *2123:A2 *539:60 0.000271695
11 *86:10 *87:12 0.000135547
12 *86:10 *92:8 0
13 *86:10 *531:34 0.000187069
14 *86:19 *539:60 0.00018304
15 *2096:D_N *86:19 4.96303e-05
16 *2124:A *86:10 2.55642e-05
17 *2124:A *86:25 4.2289e-05
18 *61:27 *2123:A2 0.00013058
19 *61:27 *86:19 5.25022e-05
20 *79:10 *86:10 0.000135557
*RES
1 *2094:Y *86:10 42.3086 
2 *86:10 *86:12 15 
3 *86:12 *2101:A3 23 
4 *86:12 *86:19 2.05071 
5 *86:19 *86:25 32.61 
6 *86:25 *2128:B 23 
7 *86:19 *2123:A2 26.5007 
*END

*D_NET *87 0.00130847
*CONN
*I *2096:C I *D sky130_fd_sc_hd__or4b_1
*I *2095:X O *D sky130_fd_sc_hd__or4_1
*CAP
1 *2096:C 5.00836e-05
2 *2095:X 0.000280267
3 *87:12 0.000330351
4 *2096:C *2098:C_N 0.000119565
5 *2096:C *539:60 0.000128096
6 *87:12 *2100:B1 0
7 *87:12 *92:8 0
8 *2096:D_N *2096:C 0.000100061
9 *64:22 *87:12 4.21594e-06
10 *79:10 *87:12 0.000160282
11 *84:22 *87:12 0
12 *86:10 *87:12 0.000135547
*RES
1 *2095:X *87:12 43.8414 
2 *87:12 *2096:C 40.5271 
*END

*D_NET *88 0.000879666
*CONN
*I *2100:A2 I *D sky130_fd_sc_hd__a311oi_4
*I *2096:X O *D sky130_fd_sc_hd__or4b_1
*CAP
1 *2100:A2 0.000247907
2 *2096:X 4.95964e-05
3 *88:8 0.000297503
4 *2100:A2 *2100:B1 7.53384e-06
5 *88:8 *2100:B1 0.000114092
6 *88:8 *471:53 5.56306e-05
7 *67:14 *2100:A2 4.39607e-05
8 *67:16 *2100:A2 6.34418e-05
*RES
1 *2096:X *88:8 39.5536 
2 *88:8 *2100:A2 41.9771 
*END

*D_NET *89 0.00383908
*CONN
*I *2101:B1 I *D sky130_fd_sc_hd__a31o_1
*I *2098:C_N I *D sky130_fd_sc_hd__or3b_1
*I *2097:X O *D sky130_fd_sc_hd__a21o_1
*CAP
1 *2101:B1 0
2 *2098:C_N 0.00069787
3 *2097:X 0.000145557
4 *89:31 6.10732e-05
5 *89:12 0.000865751
6 *89:8 0.000252365
7 *2098:C_N *539:60 2.56944e-05
8 *2074:B *2098:C_N 0.000223687
9 *2095:D *89:8 0.000166129
10 *2096:A *2098:C_N 0.000431551
11 *2096:C *2098:C_N 0.000119565
12 *2096:D_N *2098:C_N 0.000224662
13 *2123:B1 *89:8 0.000173926
14 *2123:B1 *89:31 0
15 *2124:A *89:31 5.58975e-06
16 *61:27 *2098:C_N 4.19304e-05
17 *61:27 *89:12 0.000141294
18 *66:25 *2098:C_N 6.10849e-05
19 *79:10 *89:31 2.72882e-05
20 *84:12 *89:8 0.000114566
21 *85:10 *89:8 5.94936e-05
*RES
1 *2097:X *89:8 42.0186 
2 *89:8 *89:12 16.5743 
3 *89:12 *2098:C_N 36.195 
4 *89:12 *89:31 30.8493 
5 *89:31 *2101:B1 23 
*END

*D_NET *90 0.000400951
*CONN
*I *2100:A1 I *D sky130_fd_sc_hd__a311oi_4
*I *2098:X O *D sky130_fd_sc_hd__or3b_1
*CAP
1 *2100:A1 0
2 *2098:X 5.55658e-05
3 *90:8 5.55658e-05
4 *90:8 *2073:A 0.000140958
5 *2103:A0 *90:8 1.01436e-05
6 *64:34 *90:8 0.000138718
*RES
1 *2098:X *90:8 39.9057 
2 *90:8 *2100:A1 38 
*END

*D_NET *91 0.000689986
*CONN
*I *2100:A3 I *D sky130_fd_sc_hd__a311oi_4
*I *2099:X O *D sky130_fd_sc_hd__a21o_1
*CAP
1 *2100:A3 0
2 *2099:X 0.000249834
3 *91:8 0.000249834
4 *65:10 *91:8 0
5 *66:12 *91:8 8.62876e-05
6 *68:25 *91:8 0.00010403
*RES
1 *2099:X *91:8 42.7229 
2 *91:8 *2100:A3 38 
*END

*D_NET *92 0.00597738
*CONN
*I *2491:A I *D sky130_fd_sc_hd__buf_6
*I *2125:S I *D sky130_fd_sc_hd__mux2_1
*I *2121:A2 I *D sky130_fd_sc_hd__o21ai_1
*I *2103:S I *D sky130_fd_sc_hd__mux2_1
*I *2100:Y O *D sky130_fd_sc_hd__a311oi_4
*CAP
1 *2491:A 0.00015555
2 *2125:S 0
3 *2121:A2 0
4 *2103:S 5.4561e-05
5 *2100:Y 0.000408537
6 *92:36 0.000586618
7 *92:27 0.00023057
8 *92:14 0.000486692
9 *92:10 0.000632628
10 *92:8 0.000408537
11 *2103:S *496:6 3.3577e-05
12 *2491:A *496:6 1.5769e-05
13 *2491:A *512:6 0
14 *2491:A *512:8 0.000182832
15 *2491:A *512:18 0.000181125
16 *92:8 *2100:B1 0.000342125
17 *92:8 *93:16 0.000228859
18 *92:8 *117:12 0
19 *92:8 *534:33 0.000140249
20 *92:14 *496:6 6.59263e-05
21 *92:27 *131:8 0.00014411
22 *92:27 *471:40 0.000249874
23 *92:36 *117:12 0.000187976
24 *92:36 *496:6 0.000159408
25 *2124:A *92:8 0
26 *67:48 *92:27 0.000644742
27 *75:12 *2491:A 0.000394982
28 *75:12 *92:36 4.21378e-05
29 *86:10 *92:8 0
30 *87:12 *92:8 0
*RES
1 *2100:Y *92:8 48.3571 
2 *92:8 *92:10 15 
3 *92:10 *92:14 3.50071 
4 *92:14 *2103:S 24.0979 
5 *92:14 *92:27 38.5964 
6 *92:27 *2121:A2 23 
7 *92:10 *92:36 8.74143 
8 *92:36 *2125:S 23 
9 *92:36 *2491:A 28.4064 
*END

*D_NET *93 0.00243775
*CONN
*I *2102:B I *D sky130_fd_sc_hd__xor2_1
*I *2101:X O *D sky130_fd_sc_hd__a31o_1
*CAP
1 *2102:B 0.000404426
2 *2101:X 0.000410823
3 *93:16 0.000815249
4 *2102:B *495:10 0.000387136
5 *93:16 *539:60 0.000191255
6 *92:8 *93:16 0.000228859
*RES
1 *2101:X *93:16 46.5136 
2 *93:16 *2102:B 46.2443 
*END

*D_NET *94 0.000413142
*CONN
*I *2103:A1 I *D sky130_fd_sc_hd__mux2_1
*I *2102:X O *D sky130_fd_sc_hd__xor2_1
*CAP
1 *2103:A1 4.97669e-05
2 *2102:X 6.20246e-05
3 *94:8 0.000111792
4 *2103:A1 *496:6 1.41077e-05
5 *94:8 *539:24 7.28526e-05
6 *2103:A0 *2103:A1 5.67058e-05
7 *2103:A0 *94:8 4.58924e-05
*RES
1 *2102:X *94:8 39.9057 
2 *94:8 *2103:A1 39.0979 
*END

*D_NET *95 0.00262551
*CONN
*I *2120:B I *D sky130_fd_sc_hd__xor2_1
*I *2135:B1_N I *D sky130_fd_sc_hd__o21bai_1
*I *2139:A I *D sky130_fd_sc_hd__nor2_1
*I *2103:X O *D sky130_fd_sc_hd__mux2_1
*CAP
1 *2120:B 0.000151084
2 *2135:B1_N 0.00020515
3 *2139:A 0.000146759
4 *2103:X 0.000267371
5 *95:19 0.000464805
6 *95:8 0.000522702
7 *2120:B *2135:A1 7.59794e-05
8 *2120:B *112:14 6.17437e-06
9 *2120:B *113:20 1.83564e-05
10 *2120:B *304:6 6.17437e-06
11 *2120:B *304:14 1.97329e-05
12 *2120:B *471:40 0
13 *2120:B *539:18 0
14 *2135:B1_N *2135:A1 6.09174e-05
15 *2135:B1_N *113:8 5.69698e-05
16 *2135:B1_N *113:20 3.79854e-05
17 *2139:A *534:29 0.000174996
18 *95:8 *471:40 0
19 *95:8 *539:18 0
20 *95:8 *539:24 0.000410351
21 *95:19 *471:40 0
22 *95:19 *539:18 0
*RES
1 *2103:X *95:8 44.4836 
2 *95:8 *2139:A 41.48 
3 *95:8 *95:19 1.90571 
4 *95:19 *2135:B1_N 42.1429 
5 *95:19 *2120:B 40.7757 
*END

*D_NET *96 0.00075602
*CONN
*I *2105:A1 I *D sky130_fd_sc_hd__mux2_1
*I *2104:Y O *D sky130_fd_sc_hd__xnor2_1
*CAP
1 *2105:A1 9.31734e-05
2 *2104:Y 9.84458e-05
3 *96:8 0.000191619
4 *2105:A1 *97:10 3.7122e-06
5 *2105:A1 *512:42 0.000178517
6 *96:8 *547:105 0.000135547
7 *2105:A0 *2105:A1 5.50049e-05
*RES
1 *2104:Y *96:8 39.9057 
2 *96:8 *2105:A1 40.0507 
*END

*D_NET *97 0.00957566
*CONN
*I *2106:A I *D sky130_fd_sc_hd__inv_2
*I *2168:A I *D sky130_fd_sc_hd__nor2_1
*I *2108:B I *D sky130_fd_sc_hd__and2_1
*I *2107:B I *D sky130_fd_sc_hd__nor2_1
*I *2105:X O *D sky130_fd_sc_hd__mux2_1
*CAP
1 *2106:A 0
2 *2168:A 0
3 *2108:B 0.000209717
4 *2107:B 0
5 *2105:X 0.000162239
6 *97:53 0.000674958
7 *97:38 0.00099665
8 *97:18 0.000589574
9 *97:10 0.000863787
10 *2108:B *100:10 4.06849e-05
11 *2108:B *100:64 6.6978e-05
12 *2108:B *543:8 0.00023481
13 *2108:B *543:54 0.000166079
14 *2108:B *543:71 8.17328e-05
15 *2108:B *546:25 8.56254e-05
16 *97:10 *512:42 1.14762e-05
17 *97:10 *516:38 9.48381e-06
18 *97:10 *547:105 0.000192087
19 *97:18 *2166:A 7.28721e-05
20 *97:18 *105:8 0.000484545
21 *97:18 *516:42 0.000446275
22 *97:18 *543:71 0.000699814
23 *97:18 *543:101 0.000862584
24 *97:18 *546:25 0.000356158
25 *97:38 *516:38 6.25844e-05
26 *97:38 *524:61 0.000296721
27 *97:38 *526:86 4.06408e-05
28 *97:38 *547:105 0.000666206
29 *97:53 *2168:B 0.00105524
30 *97:53 *160:10 9.41704e-05
31 *97:53 *510:75 2.13733e-05
32 *97:53 *536:142 2.68774e-05
33 *97:53 *543:75 0
34 *97:53 *543:90 0
35 *2105:A1 *97:10 3.7122e-06
*RES
1 *2105:X *97:10 41.2314 
2 *97:10 *97:18 34.2436 
3 *97:18 *2107:B 23 
4 *97:18 *2108:B 29.38 
5 *97:10 *97:38 25.7093 
6 *97:38 *2168:A 23 
7 *97:38 *97:53 44.2307 
8 *97:53 *2106:A 23 
*END

*D_NET *98 0.000480095
*CONN
*I *2170:A1 I *D sky130_fd_sc_hd__o211a_1
*I *2106:Y O *D sky130_fd_sc_hd__inv_2
*CAP
1 *2170:A1 3.21736e-05
2 *2106:Y 9.81512e-05
3 *98:8 0.000130325
4 *2170:A1 *283:131 2.64616e-05
5 *2170:A1 *499:23 2.64616e-05
6 *98:8 *536:142 0.000166522
7 *98:8 *543:90 0
*RES
1 *2106:Y *98:8 40.2579 
2 *98:8 *2170:A1 38.6214 
*END

*D_NET *99 0.00162106
*CONN
*I *2118:B1 I *D sky130_fd_sc_hd__a211oi_2
*I *2165:A I *D sky130_fd_sc_hd__or2_1
*I *2107:Y O *D sky130_fd_sc_hd__nor2_1
*CAP
1 *2118:B1 0.000143831
2 *2165:A 0.000183242
3 *2107:Y 0
4 *99:6 0.000327073
5 *2118:B1 *105:20 5.3304e-05
6 *2118:B1 *471:87 5.3304e-05
7 *2118:B1 *531:18 0.000111709
8 *2118:B1 *542:16 0.000292865
9 *2118:B1 *543:60 6.16439e-05
10 *2165:A *100:64 0.000138444
11 *2165:A *512:42 3.17516e-05
12 *2165:A *531:18 0.000109795
13 *2165:A *542:16 0.000114092
*RES
1 *2107:Y *99:6 38 
2 *99:6 *2165:A 42.0807 
3 *99:6 *2118:B1 42.64 
*END

*D_NET *100 0.00511999
*CONN
*I *2165:B I *D sky130_fd_sc_hd__or2_1
*I *2119:A I *D sky130_fd_sc_hd__nor2_1
*I *2149:A1 I *D sky130_fd_sc_hd__o32a_1
*I *2137:A1 I *D sky130_fd_sc_hd__o31a_1
*I *2140:A1 I *D sky130_fd_sc_hd__o31a_1
*I *2108:X O *D sky130_fd_sc_hd__and2_1
*CAP
1 *2165:B 0
2 *2119:A 2.16778e-05
3 *2149:A1 0.000372142
4 *2137:A1 3.39642e-05
5 *2140:A1 0
6 *2108:X 0
7 *100:64 0.000371028
8 *100:34 0.000469683
9 *100:23 0.000362737
10 *100:10 0.000626491
11 *100:4 0.000744609
12 *2119:A *110:21 2.3087e-05
13 *2119:A *512:18 6.48142e-05
14 *2137:A1 *2137:A2 6.17437e-06
15 *2137:A1 *130:16 2.64616e-05
16 *2137:A1 *536:64 1.21972e-05
17 *2149:A1 *2149:B1 6.39489e-06
18 *2149:A1 *123:30 3.39646e-05
19 *2149:A1 *510:32 2.23611e-05
20 *100:10 *110:10 6.48142e-05
21 *100:10 *121:10 0.000121252
22 *100:10 *495:18 0.000302339
23 *100:10 *543:8 2.3191e-05
24 *100:23 *2137:A3 3.76959e-05
25 *100:23 *110:10 0.000341557
26 *100:23 *110:21 1.22906e-05
27 *100:23 *495:18 1.14452e-05
28 *100:23 *512:18 0.000254101
29 *100:34 *2137:A3 1.28035e-05
30 *100:34 *110:21 4.83008e-05
31 *100:34 *512:18 0.000136486
32 *100:64 *496:12 8.4047e-05
33 *100:64 *512:8 7.88828e-05
34 *100:64 *512:42 9.47227e-05
35 *100:64 *531:18 4.75381e-05
36 *100:64 *543:12 0
37 *2108:B *100:10 4.06849e-05
38 *2108:B *100:64 6.6978e-05
39 *2165:A *100:64 0.000138444
40 *75:12 *100:64 4.6318e-06
*RES
1 *2108:X *100:4 23 
2 *100:4 *100:10 22.4986 
3 *100:10 *2140:A1 38 
4 *100:10 *100:23 6.54571 
5 *100:23 *2137:A1 38.6214 
6 *100:23 *100:34 1.90571 
7 *100:34 *2149:A1 42.8057 
8 *100:34 *2119:A 38.8493 
9 *100:4 *100:64 37.4364 
10 *100:64 *2165:B 23 
*END

*D_NET *101 0.000449877
*CONN
*I *2110:B I *D sky130_fd_sc_hd__nand2_1
*I *2109:Y O *D sky130_fd_sc_hd__nand2_1
*CAP
1 *2110:B 0.000112673
2 *2109:Y 0.000112673
3 *2110:B *2109:B 0
4 *2110:B *2111:A1 3.3577e-05
5 *2110:B *2111:S 5.3304e-05
6 *2110:B *512:63 0.000137651
*RES
1 *2109:Y *2110:B 48.5479 
*END

*D_NET *102 0.000640206
*CONN
*I *2111:A1 I *D sky130_fd_sc_hd__mux2_2
*I *2110:Y O *D sky130_fd_sc_hd__nand2_1
*CAP
1 *2111:A1 0.000225009
2 *2110:Y 0.000225009
3 *2111:A1 *2109:B 5.50106e-05
4 *2111:A1 *2111:S 7.43025e-06
5 *2111:A1 *524:57 9.41704e-05
6 *2110:B *2111:A1 3.3577e-05
*RES
1 *2110:Y *2111:A1 49.0036 
*END

*D_NET *103 0.00211666
*CONN
*I *2112:A I *D sky130_fd_sc_hd__inv_2
*I *2114:B I *D sky130_fd_sc_hd__xnor2_2
*I *2164:A1 I *D sky130_fd_sc_hd__o211a_1
*I *2113:B I *D sky130_fd_sc_hd__and2_1
*I *2111:X O *D sky130_fd_sc_hd__mux2_2
*CAP
1 *2112:A 0
2 *2114:B 0
3 *2164:A1 0.000195409
4 *2113:B 0.000215251
5 *2111:X 3.64088e-05
6 *103:43 0.000148661
7 *103:12 0.00041066
8 *103:10 0.000207404
9 *103:6 0.000392474
10 *2113:B *2117:A2 0
11 *2113:B *516:46 6.07611e-06
12 *2113:B *543:75 0
13 *2113:B *549:91 0
14 *2164:A1 *2164:A2 1.01436e-05
15 *2164:A1 *107:12 5.3304e-05
16 *2164:A1 *543:75 0
17 *2164:A1 *549:91 0
18 *2164:A1 *549:106 0
19 *103:6 *549:89 8.6949e-05
20 *103:10 *2114:A 0.000128391
21 *103:10 *549:89 9.84851e-05
22 *103:43 *516:38 0
23 *103:43 *549:91 3.0647e-05
24 *103:43 *549:106 9.63918e-05
*RES
1 *2111:X *103:6 24.0979 
2 *103:6 *103:10 4.45357 
3 *103:10 *103:12 15 
4 *103:12 *2113:B 40.9621 
5 *103:12 *2164:A1 41.5836 
6 *103:10 *2114:B 23 
7 *103:6 *103:43 33.3143 
8 *103:43 *2112:A 23 
*END

*D_NET *104 0.00130014
*CONN
*I *2163:A1 I *D sky130_fd_sc_hd__o211a_1
*I *2112:Y O *D sky130_fd_sc_hd__inv_2
*CAP
1 *2163:A1 4.72393e-05
2 *2112:Y 0.00018048
3 *104:8 0.000227719
4 *2163:A1 *2168:B 0.000216844
5 *2163:A1 *510:67 0.000216844
6 *104:8 *158:27 5.94125e-05
7 *104:8 *516:38 0
8 *104:8 *549:106 0.000351599
*RES
1 *2112:Y *104:8 42.7229 
2 *104:8 *2163:A1 40.4236 
*END

*D_NET *105 0.00254919
*CONN
*I *2117:B1 I *D sky130_fd_sc_hd__a21o_1
*I *2118:C1 I *D sky130_fd_sc_hd__a211oi_2
*I *2113:X O *D sky130_fd_sc_hd__and2_1
*CAP
1 *2117:B1 0
2 *2118:C1 0
3 *2113:X 0.000115357
4 *105:20 0.000459789
5 *105:8 0.000575146
6 *105:8 *106:43 5.50106e-05
7 *105:8 *546:25 0.00024754
8 *105:20 *2118:A1 0.000147993
9 *105:20 *106:8 0
10 *105:20 *106:12 4.21281e-05
11 *105:20 *106:43 0.000187986
12 *105:20 *110:6 5.50049e-05
13 *105:20 *471:87 4.34876e-05
14 *105:20 *536:70 8.18929e-05
15 *2118:B1 *105:20 5.3304e-05
16 *97:18 *105:8 0.000484545
*RES
1 *2113:X *105:8 28.8829 
2 *105:8 *105:20 39.1143 
3 *105:20 *2118:C1 23 
4 *105:8 *2117:B1 23 
*END

*D_NET *106 0.00220406
*CONN
*I *2117:A1 I *D sky130_fd_sc_hd__a21o_1
*I *2159:A I *D sky130_fd_sc_hd__or2_1
*I *2116:A I *D sky130_fd_sc_hd__nand2_1
*I *2118:A1 I *D sky130_fd_sc_hd__a211oi_2
*I *2114:Y O *D sky130_fd_sc_hd__xnor2_2
*CAP
1 *2117:A1 0
2 *2159:A 0
3 *2116:A 0
4 *2118:A1 6.76172e-05
5 *2114:Y 0.000144334
6 *106:43 0.000160246
7 *106:25 8.16591e-05
8 *106:12 0.000187398
9 *106:10 6.03556e-05
10 *106:8 0.000326813
11 *2118:A1 *107:35 5.3304e-05
12 *2118:A1 *151:10 2.32004e-05
13 *106:8 *107:35 2.32101e-05
14 *106:10 *107:35 5.50049e-05
15 *106:12 *107:35 9.5877e-05
16 *106:25 *107:35 3.47781e-05
17 *106:25 *151:10 7.03766e-05
18 *106:25 *283:89 0
19 *106:25 *536:70 0.000191148
20 *106:43 *2117:A2 0.000112895
21 *106:43 *536:70 2.60152e-05
22 *106:43 *546:25 5.67058e-05
23 *105:8 *106:43 5.50106e-05
24 *105:20 *2118:A1 0.000147993
25 *105:20 *106:8 0
26 *105:20 *106:12 4.21281e-05
27 *105:20 *106:43 0.000187986
*RES
1 *2114:Y *106:8 25.5479 
2 *106:8 *106:10 0.621429 
3 *106:10 *106:12 1.09786 
4 *106:12 *2118:A1 25.0507 
5 *106:12 *106:25 32.61 
6 *106:25 *2116:A 23 
7 *106:10 *2159:A 23 
8 *106:8 *106:43 33.9357 
9 *106:43 *2117:A1 23 
*END

*D_NET *107 0.00464658
*CONN
*I *2174:A I *D sky130_fd_sc_hd__nand2_1
*I *2117:A2 I *D sky130_fd_sc_hd__a21o_1
*I *2159:B I *D sky130_fd_sc_hd__or2_1
*I *2118:A2 I *D sky130_fd_sc_hd__a211oi_2
*I *2116:B I *D sky130_fd_sc_hd__nand2_1
*I *2115:X O *D sky130_fd_sc_hd__or2_2
*CAP
1 *2174:A 0
2 *2117:A2 0.000220365
3 *2159:B 0
4 *2118:A2 0
5 *2116:B 7.83039e-05
6 *2115:X 0
7 *107:66 0.000178842
8 *107:35 0.000169517
9 *107:27 0.000169517
10 *107:25 0.000310787
11 *107:12 0.000996449
12 *107:4 0.00100657
13 *2116:B *2160:A 1.40958e-05
14 *2116:B *2160:B 4.37033e-05
15 *2117:A2 *543:75 0
16 *107:12 *2160:A 1.94812e-05
17 *107:12 *294:70 0.000195378
18 *107:25 *536:70 4.59027e-05
19 *107:25 *543:75 0
20 *107:35 *151:10 5.3304e-05
21 *107:35 *283:89 1.86973e-05
22 *107:35 *536:70 1.37246e-05
23 *107:66 *2115:B 0
24 *107:66 *2173:A 0.000112673
25 *107:66 *2173:B 5.50106e-05
26 *107:66 *2174:B 1.33484e-05
27 *107:66 *166:10 3.7122e-06
28 *107:66 *526:86 3.70094e-05
29 *107:66 *547:105 0.000461817
30 *2113:B *2117:A2 0
31 *2118:A1 *107:35 5.3304e-05
32 *2164:A1 *107:12 5.3304e-05
33 *106:8 *107:35 2.32101e-05
34 *106:10 *107:35 5.50049e-05
35 *106:12 *107:35 9.5877e-05
36 *106:25 *107:35 3.47781e-05
37 *106:43 *2117:A2 0.000112895
*RES
1 *2115:X *107:4 23 
2 *107:4 *107:12 14.9764 
3 *107:12 *2116:B 24.595 
4 *107:12 *107:25 16.9057 
5 *107:25 *107:27 15 
6 *107:27 *107:35 33.3764 
7 *107:35 *2118:A2 23 
8 *107:27 *2159:B 23 
9 *107:25 *2117:A2 42.2879 
10 *107:4 *107:66 35.9864 
11 *107:66 *2174:A 23 
*END

*D_NET *108 0.00138206
*CONN
*I *2160:A I *D sky130_fd_sc_hd__nand2_1
*I *2161:B2 I *D sky130_fd_sc_hd__a221o_1
*I *2116:Y O *D sky130_fd_sc_hd__nand2_1
*CAP
1 *2160:A 0.000154683
2 *2161:B2 0
3 *2116:Y 0
4 *108:14 0.000233504
5 *108:4 0.000388187
6 *2160:A *2160:B 0.000118737
7 *108:14 *2160:B 6.9805e-05
8 *108:14 *2161:B1 0.000161121
9 *108:14 *2162:C1 2.84288e-05
10 *108:14 *129:23 2.84288e-05
11 *108:14 *283:89 0.000165593
12 *2116:B *2160:A 1.40958e-05
13 *107:12 *2160:A 1.94812e-05
*RES
1 *2116:Y *108:4 23 
2 *108:4 *108:14 34.64 
3 *108:14 *2161:B2 23 
4 *108:4 *2160:A 26.3971 
*END

*D_NET *109 0.000313024
*CONN
*I *2166:A I *D sky130_fd_sc_hd__xnor2_1
*I *2117:X O *D sky130_fd_sc_hd__a21o_1
*CAP
1 *2166:A 5.08537e-05
2 *2117:X 5.08537e-05
3 *2166:A *546:25 0.000138444
4 *97:18 *2166:A 7.28721e-05
*RES
1 *2117:X *2166:A 47.5743 
*END

*D_NET *110 0.00395734
*CONN
*I *2140:A2 I *D sky130_fd_sc_hd__o31a_1
*I *2149:A2 I *D sky130_fd_sc_hd__o32a_1
*I *2119:B I *D sky130_fd_sc_hd__nor2_1
*I *2137:A2 I *D sky130_fd_sc_hd__o31a_1
*I *2118:Y O *D sky130_fd_sc_hd__a211oi_2
*CAP
1 *2140:A2 0
2 *2149:A2 0
3 *2119:B 0
4 *2137:A2 3.82539e-05
5 *2118:Y 0.000390518
6 *110:40 0.000267224
7 *110:21 0.000423067
8 *110:10 0.00035224
9 *110:6 0.00054866
10 *2137:A2 *128:12 3.7122e-06
11 *2137:A2 *130:16 1.89178e-05
12 *2137:A2 *536:64 9.67842e-05
13 *110:6 *132:6 0.000136738
14 *110:6 *471:87 4.21471e-05
15 *110:6 *495:18 0.000243247
16 *110:10 *2149:B1 0.000239496
17 *110:10 *121:10 0.000197479
18 *110:21 *2137:A3 4.97925e-05
19 *110:21 *2149:B1 0.000224046
20 *110:40 *2137:A3 3.96065e-05
21 *110:40 *121:37 1.23773e-05
22 *110:40 *510:44 7.12426e-05
23 *110:40 *542:127 1.05658e-05
24 *2119:A *110:21 2.3087e-05
25 *2137:A1 *2137:A2 6.17437e-06
26 *100:10 *110:10 6.48142e-05
27 *100:23 *110:10 0.000341557
28 *100:23 *110:21 1.22906e-05
29 *100:34 *110:21 4.83008e-05
30 *105:20 *110:6 5.50049e-05
*RES
1 *2118:Y *110:6 30.7679 
2 *110:6 *110:10 20.7793 
3 *110:10 *2137:A2 39.0979 
4 *110:10 *110:21 3.31429 
5 *110:21 *2119:B 38 
6 *110:21 *110:40 31.8064 
7 *110:40 *2149:A2 23 
8 *110:6 *2140:A2 23 
*END

*D_NET *111 0.00197125
*CONN
*I *2154:A I *D sky130_fd_sc_hd__xnor2_1
*I *2119:Y O *D sky130_fd_sc_hd__nor2_1
*CAP
1 *2154:A 7.73152e-05
2 *2119:Y 0.000263561
3 *111:8 0.000340876
4 *2154:A *2155:A0 0.000226226
5 *2154:A *2155:S 5.3304e-05
6 *2154:A *498:27 5.8632e-05
7 *111:8 *2151:S 3.47781e-05
8 *111:8 *136:8 4.38375e-05
9 *111:8 *510:111 0.000347536
10 *111:8 *510:120 0.000218952
11 *111:8 *512:18 6.17028e-05
12 *2144:A *111:8 0.000244526
*RES
1 *2119:Y *111:8 45.8921 
2 *111:8 *2154:A 40.5271 
*END

*D_NET *112 0.00491848
*CONN
*I *2142:B1_N I *D sky130_fd_sc_hd__o21bai_1
*I *2134:C_N I *D sky130_fd_sc_hd__or4bb_4
*I *2141:C_N I *D sky130_fd_sc_hd__or3b_1
*I *2132:A I *D sky130_fd_sc_hd__nand4_1
*I *2120:X O *D sky130_fd_sc_hd__xor2_1
*CAP
1 *2142:B1_N 0.000158051
2 *2134:C_N 4.07093e-05
3 *2141:C_N 0.000282742
4 *2132:A 0
5 *2120:X 0.000338671
6 *112:29 0.000464808
7 *112:27 0.000456674
8 *112:18 0.000238162
9 *112:14 0.000419567
10 *2134:C_N *2143:A3 5.56356e-05
11 *2134:C_N *128:12 2.1819e-05
12 *2134:C_N *536:64 4.96305e-05
13 *2141:C_N *2141:A 0.000144494
14 *2141:C_N *117:27 0
15 *2141:C_N *117:43 0.000132025
16 *2141:C_N *132:16 0.000206395
17 *2141:C_N *539:105 2.4732e-05
18 *2141:C_N *539:111 0
19 *2142:B1_N *134:8 0.000133316
20 *2142:B1_N *135:14 0.000123172
21 *2142:B1_N *499:23 9.41704e-05
22 *112:14 *2135:A1 1.14876e-05
23 *112:14 *113:20 0.000185755
24 *112:14 *113:28 0
25 *112:14 *304:14 0
26 *112:14 *497:14 0.000161045
27 *112:14 *534:146 4.21594e-06
28 *112:14 *539:18 0
29 *112:18 *114:10 7.15126e-05
30 *112:18 *141:8 2.93747e-05
31 *112:27 *2132:D 0.000259337
32 *112:27 *114:10 4.79641e-05
33 *112:27 *114:27 4.95081e-05
34 *112:27 *141:8 0.000135143
35 *112:27 *510:10 0.000175903
36 *112:29 *117:43 1.03934e-05
37 *112:29 *132:16 2.42788e-05
38 *112:29 *134:8 0.00020366
39 *112:29 *135:14 0.00015795
40 *2120:B *112:14 6.17437e-06
*RES
1 *2120:X *112:14 44.4629 
2 *112:14 *112:18 16.5743 
3 *112:18 *2132:A 23 
4 *112:18 *112:27 19.9093 
5 *112:27 *112:29 3.31429 
6 *112:29 *2141:C_N 45.4779 
7 *112:29 *2134:C_N 39.0979 
8 *112:27 *2142:B1_N 41.0036 
*END

*D_NET *113 0.00243866
*CONN
*I *2135:A2 I *D sky130_fd_sc_hd__o21bai_1
*I *2136:A2_N I *D sky130_fd_sc_hd__o2bb2a_1
*I *2122:B I *D sky130_fd_sc_hd__xnor2_1
*I *2121:Y O *D sky130_fd_sc_hd__o21ai_1
*CAP
1 *2135:A2 0
2 *2136:A2_N 0
3 *2122:B 0
4 *2121:Y 0.000175703
5 *113:28 0.000260441
6 *113:20 0.000557115
7 *113:8 0.000472377
8 *113:8 *2120:A 0
9 *113:8 *2135:A1 5.90675e-06
10 *113:20 *2136:B1 0.000114185
11 *113:20 *127:8 0.000135547
12 *113:20 *128:12 0.000139346
13 *113:20 *131:8 0
14 *113:20 *304:14 1.37702e-05
15 *113:20 *471:40 0
16 *113:20 *497:12 1.5037e-05
17 *113:20 *497:14 2.31116e-05
18 *113:28 *2122:A 2.93747e-05
19 *113:28 *2451:A 3.70094e-05
20 *113:28 *534:8 9.62764e-05
21 *113:28 *534:146 4.6318e-06
22 *113:28 *539:18 5.97612e-05
23 *2120:B *113:20 1.83564e-05
24 *2135:B1_N *113:8 5.69698e-05
25 *2135:B1_N *113:20 3.79854e-05
26 *112:14 *113:20 0.000185755
27 *112:14 *113:28 0
*RES
1 *2121:Y *113:8 26.3764 
2 *113:8 *113:20 37.3121 
3 *113:20 *113:28 34.785 
4 *113:28 *2122:B 23 
5 *113:20 *2136:A2_N 23 
6 *113:8 *2135:A2 23 
*END

*D_NET *114 0.00289595
*CONN
*I *2134:D_N I *D sky130_fd_sc_hd__or4bb_4
*I *2132:B I *D sky130_fd_sc_hd__nand4_1
*I *2122:Y O *D sky130_fd_sc_hd__xnor2_1
*CAP
1 *2134:D_N 0
2 *2132:B 1.17411e-05
3 *2122:Y 0.000413604
4 *114:27 0.000372346
5 *114:10 0.000797691
6 *114:10 *534:8 0.000187613
7 *114:27 *2132:D 0.000429939
8 *114:27 *117:43 0.000274909
9 *114:27 *123:30 0.00015882
10 *114:27 *128:12 5.56279e-05
11 *114:27 *134:8 5.44889e-06
12 *114:27 *536:64 1.92253e-05
13 *112:18 *114:10 7.15126e-05
14 *112:27 *114:10 4.79641e-05
15 *112:27 *114:27 4.95081e-05
*RES
1 *2122:Y *114:10 29.5043 
2 *114:10 *2132:B 23.4971 
3 *114:10 *114:27 38.7414 
4 *114:27 *2134:D_N 23 
*END

*D_NET *115 0.000944952
*CONN
*I *2124:B I *D sky130_fd_sc_hd__xnor2_1
*I *2123:X O *D sky130_fd_sc_hd__a21o_1
*CAP
1 *2124:B 0
2 *2123:X 0.000305089
3 *115:10 0.000305089
4 *115:10 *539:60 0.000271413
5 *2124:A *115:10 6.33614e-05
*RES
1 *2123:X *115:10 42.9093 
2 *115:10 *2124:B 38 
*END

*D_NET *116 0.00130022
*CONN
*I *2125:A1 I *D sky130_fd_sc_hd__mux2_1
*I *2124:Y O *D sky130_fd_sc_hd__xnor2_1
*CAP
1 *2125:A1 0
2 *2124:Y 0.00038891
3 *116:10 0.00038891
4 *116:10 *120:8 8.62876e-05
5 *116:10 *121:10 0.000138727
6 *116:10 *495:18 0.000122407
7 *116:10 *534:48 2.97422e-05
8 *116:10 *543:12 0
9 *2128:A *116:10 0.000145236
*RES
1 *2124:Y *116:10 45.7264 
2 *116:10 *2125:A1 38 
*END

*D_NET *117 0.00738013
*CONN
*I *2133:A2 I *D sky130_fd_sc_hd__o22a_1
*I *2151:A0 I *D sky130_fd_sc_hd__mux2_1
*I *2127:B I *D sky130_fd_sc_hd__xor2_1
*I *2126:B I *D sky130_fd_sc_hd__and2_1
*I *2125:X O *D sky130_fd_sc_hd__mux2_1
*CAP
1 *2133:A2 0
2 *2151:A0 0.000244942
3 *2127:B 0.000407809
4 *2126:B 3.07388e-05
5 *2125:X 0.000555495
6 *117:47 0.00101965
7 *117:43 0.000937882
8 *117:27 0.000730477
9 *117:12 0.000745729
10 *2126:B *2140:B1 1.24376e-05
11 *2126:B *118:17 5.56279e-05
12 *2127:B *119:8 8.28854e-05
13 *2127:B *119:21 8.10047e-05
14 *2127:B *142:10 0.0002263
15 *2127:B *498:6 3.46673e-05
16 *2151:A0 *2151:S 0.000101764
17 *2151:A0 *2456:A 0
18 *2151:A0 *135:14 0.000116413
19 *2151:A0 *498:14 0
20 *2151:A0 *539:140 0.00022789
21 *117:12 *118:17 3.47781e-05
22 *117:12 *121:10 0
23 *117:12 *132:16 0
24 *117:12 *534:33 0
25 *117:12 *539:111 1.08978e-05
26 *117:27 *2140:B1 0.000220767
27 *117:27 *118:17 2.05952e-05
28 *117:27 *539:111 9.19153e-05
29 *117:43 *2142:A1 0
30 *117:43 *134:8 0.000131563
31 *117:47 *119:21 0
32 *117:47 *132:16 0.000286534
33 *117:47 *135:14 0.000183107
34 *117:47 *510:10 0.000110913
35 *2141:C_N *117:27 0
36 *2141:C_N *117:43 0.000132025
37 *67:63 *117:47 7.20415e-05
38 *92:8 *117:12 0
39 *92:36 *117:12 0.000187976
40 *112:29 *117:43 1.03934e-05
41 *114:27 *117:43 0.000274909
*RES
1 *2125:X *117:12 47.5079 
2 *117:12 *2126:B 38.6214 
3 *117:12 *117:27 19.2879 
4 *117:27 *117:43 39.5079 
5 *117:43 *117:47 23.9486 
6 *117:47 *2127:B 45.7886 
7 *117:47 *2151:A0 43.8414 
8 *117:27 *2133:A2 23 
*END

*D_NET *118 0.00353408
*CONN
*I *2142:A1 I *D sky130_fd_sc_hd__o21bai_1
*I *2134:A I *D sky130_fd_sc_hd__or4bb_4
*I *2141:A I *D sky130_fd_sc_hd__or3b_1
*I *2126:X O *D sky130_fd_sc_hd__and2_1
*CAP
1 *2142:A1 0.000311917
2 *2134:A 0
3 *2141:A 5.00184e-05
4 *2126:X 0
5 *118:17 0.000619498
6 *118:4 0.0003576
7 *2141:A *2126:A 5.56356e-05
8 *2141:A *539:105 0.000144494
9 *2142:A1 *2132:D 0.000235024
10 *2142:A1 *121:37 0.00032552
11 *2142:A1 *123:10 8.62783e-05
12 *2142:A1 *123:30 1.36454e-05
13 *2142:A1 *130:16 5.12605e-05
14 *2142:A1 *283:99 9.64943e-05
15 *118:17 *2126:A 0.000129111
16 *118:17 *2134:B 8.62876e-05
17 *118:17 *2140:B1 0.000242401
18 *118:17 *121:37 0.000243605
19 *118:17 *123:38 0
20 *2126:B *118:17 5.56279e-05
21 *2141:C_N *2141:A 0.000144494
22 *67:63 *2142:A1 0.000229793
23 *117:12 *118:17 3.47781e-05
24 *117:27 *118:17 2.05952e-05
25 *117:43 *2142:A1 0
*RES
1 *2126:X *118:4 23 
2 *118:4 *2141:A 25.0507 
3 *118:4 *118:17 22.3536 
4 *118:17 *2134:A 38 
5 *118:17 *2142:A1 46.6586 
*END

*D_NET *119 0.00180811
*CONN
*I *2132:C I *D sky130_fd_sc_hd__nand4_1
*I *2150:A I *D sky130_fd_sc_hd__xor2_1
*I *2127:X O *D sky130_fd_sc_hd__xor2_1
*CAP
1 *2132:C 0
2 *2150:A 0
3 *2127:X 5.81724e-05
4 *119:21 0.000475406
5 *119:8 0.000533579
6 *119:8 *498:6 7.88828e-05
7 *119:21 *142:10 5.50049e-05
8 *119:21 *498:6 5.12254e-05
9 *119:21 *498:14 0.000215529
10 *119:21 *498:27 6.9805e-05
11 *2127:B *119:8 8.28854e-05
12 *2127:B *119:21 8.10047e-05
13 *67:63 *119:21 0.000106619
14 *117:47 *119:21 0
*RES
1 *2127:X *119:8 25.0714 
2 *119:8 *2150:A 23 
3 *119:8 *119:21 41.4757 
4 *119:21 *2132:C 23 
*END

*D_NET *120 0.000682917
*CONN
*I *2129:A1 I *D sky130_fd_sc_hd__mux2_2
*I *2128:Y O *D sky130_fd_sc_hd__xnor2_1
*CAP
1 *2129:A1 0.000209806
2 *2128:Y 4.83013e-05
3 *120:8 0.000258107
4 *2129:A1 *495:10 5.50106e-05
5 *120:8 *543:12 2.54046e-05
6 *116:10 *120:8 8.62876e-05
*RES
1 *2128:Y *120:8 39.2014 
2 *120:8 *2129:A1 40.5271 
*END

*D_NET *121 0.00865782
*CONN
*I *2149:B1 I *D sky130_fd_sc_hd__o32a_1
*I *2155:A0 I *D sky130_fd_sc_hd__mux2_1
*I *2131:B I *D sky130_fd_sc_hd__xnor2_1
*I *2130:B I *D sky130_fd_sc_hd__xnor2_1
*I *2133:B1 I *D sky130_fd_sc_hd__o22a_1
*I *2129:X O *D sky130_fd_sc_hd__mux2_2
*CAP
1 *2149:B1 0.000256849
2 *2155:A0 0.000179225
3 *2131:B 5.85296e-05
4 *2130:B 2.32701e-05
5 *2133:B1 6.27274e-05
6 *2129:X 0.000483142
7 *121:54 0.000351172
8 *121:41 0.00024946
9 *121:37 0.000705916
10 *121:16 0.000825246
11 *121:10 0.000909366
12 *2130:B *283:99 5.3304e-05
13 *2130:B *501:6 5.3304e-05
14 *2131:B *2154:B 5.3304e-05
15 *2131:B *498:27 4.24205e-05
16 *2131:B *542:146 8.38387e-05
17 *2133:B1 *2133:B2 3.7877e-05
18 *2149:B1 *123:38 0.00027604
19 *2149:B1 *510:32 6.17437e-06
20 *2149:B1 *542:127 0.000118304
21 *2149:B1 *542:146 4.77164e-06
22 *2155:A0 *2154:B 4.78593e-05
23 *2155:A0 *2155:A1 0.000183733
24 *2155:A0 *2155:S 2.32101e-05
25 *2155:A0 *498:27 4.22003e-05
26 *2155:A0 *542:146 0.000277167
27 *121:10 *123:38 0.000191276
28 *121:10 *495:10 2.54193e-05
29 *121:10 *495:18 4.3153e-05
30 *121:16 *2133:B2 4.65192e-05
31 *121:16 *126:12 0.00018536
32 *121:37 *123:10 0.00013449
33 *121:37 *123:20 4.66537e-05
34 *121:37 *126:8 7.41877e-05
35 *121:37 *283:99 9.58714e-05
36 *121:37 *542:127 0
37 *121:37 *542:146 0
38 *121:41 *2132:D 8.62783e-05
39 *121:41 *2154:B 8.62876e-05
40 *121:41 *123:10 0.00015795
41 *121:54 *2154:B 0.000179712
42 *121:54 *123:10 0.000161121
43 *2142:A1 *121:37 0.00032552
44 *2149:A1 *2149:B1 6.39489e-06
45 *2154:A *2155:A0 0.000226226
46 *100:10 *121:10 0.000121252
47 *110:10 *2149:B1 0.000239496
48 *110:10 *121:10 0.000197479
49 *110:21 *2149:B1 0.000224046
50 *110:40 *121:37 1.23773e-05
51 *116:10 *121:10 0.000138727
52 *117:12 *121:10 0
53 *118:17 *121:37 0.000243605
*RES
1 *2129:X *121:10 48.7507 
2 *121:10 *121:16 18.5007 
3 *121:16 *2133:B1 24.1186 
4 *121:16 *121:37 41.8693 
5 *121:37 *121:41 17.2579 
6 *121:41 *2130:B 38.6214 
7 *121:41 *121:54 17.9621 
8 *121:54 *2131:B 25.0714 
9 *121:54 *2155:A0 29.3593 
10 *121:10 *2149:B1 44.6338 
*END

*D_NET *122 0.00337061
*CONN
*I *2154:B I *D sky130_fd_sc_hd__xnor2_1
*I *2132:D I *D sky130_fd_sc_hd__nand4_1
*I *2130:Y O *D sky130_fd_sc_hd__xnor2_1
*CAP
1 *2154:B 0.000204725
2 *2132:D 0.000467453
3 *2130:Y 4.99221e-05
4 *122:8 0.0007221
5 *2132:D *123:10 1.89075e-05
6 *2132:D *123:30 0.000112419
7 *2132:D *135:14 0
8 *2132:D *283:99 0.000110184
9 *2132:D *510:10 9.28372e-05
10 *2132:D *510:32 1.56446e-05
11 *2154:B *123:10 5.3304e-05
12 *2154:B *135:14 0
13 *2154:B *283:99 4.8612e-05
14 *2154:B *498:27 4.34559e-05
15 *122:8 *497:20 5.3304e-05
16 *2131:B *2154:B 5.3304e-05
17 *2142:A1 *2132:D 0.000235024
18 *2155:A0 *2154:B 4.78593e-05
19 *112:27 *2132:D 0.000259337
20 *114:27 *2132:D 0.000429939
21 *121:41 *2132:D 8.62783e-05
22 *121:41 *2154:B 8.62876e-05
23 *121:54 *2154:B 0.000179712
*RES
1 *2130:Y *122:8 38.6214 
2 *122:8 *2132:D 49.4136 
3 *122:8 *2154:B 43.2407 
*END

*D_NET *123 0.00543448
*CONN
*I *2149:A3 I *D sky130_fd_sc_hd__o32a_1
*I *2140:A3 I *D sky130_fd_sc_hd__o31a_1
*I *2131:Y O *D sky130_fd_sc_hd__xnor2_1
*CAP
1 *2149:A3 0
2 *2140:A3 0
3 *2131:Y 0.000315053
4 *123:38 0.000319155
5 *123:30 0.00069736
6 *123:20 0.000573724
7 *123:10 0.000510573
8 *123:10 *498:27 5.3304e-05
9 *123:20 *499:23 0.000138607
10 *123:20 *542:146 0.00013449
11 *123:30 *128:12 0.000397116
12 *123:30 *130:16 0.000114566
13 *123:30 *510:32 0.000309209
14 *123:30 *536:64 0.000187353
15 *123:38 *2140:B1 3.7122e-06
16 *123:38 *126:8 1.90253e-05
17 *123:38 *132:6 5.56279e-05
18 *123:38 *542:127 0.000160734
19 *2132:D *123:10 1.89075e-05
20 *2132:D *123:30 0.000112419
21 *2142:A1 *123:10 8.62783e-05
22 *2142:A1 *123:30 1.36454e-05
23 *2149:A1 *123:30 3.39646e-05
24 *2149:B1 *123:38 0.00027604
25 *2154:B *123:10 5.3304e-05
26 *114:27 *123:30 0.00015882
27 *118:17 *123:38 0
28 *121:10 *123:38 0.000191276
29 *121:37 *123:10 0.00013449
30 *121:37 *123:20 4.66537e-05
31 *121:41 *123:10 0.00015795
32 *121:54 *123:10 0.000161121
*RES
1 *2131:Y *123:10 44.7529 
2 *123:10 *123:20 48.48 
3 *123:20 *123:30 40.875 
4 *123:30 *123:38 37.105 
5 *123:38 *2140:A3 23 
6 *123:20 *2149:A3 23 
*END

*D_NET *124 0.00302614
*CONN
*I *2137:A3 I *D sky130_fd_sc_hd__o31a_1
*I *2132:Y O *D sky130_fd_sc_hd__nand4_1
*CAP
1 *2137:A3 0.00129434
2 *2132:Y 8.52889e-05
3 *124:10 0.00137963
4 *2137:A3 *510:44 9.81333e-06
5 *124:10 *497:12 5.35396e-06
6 *124:10 *497:14 9.03415e-07
7 *124:10 *498:14 0.000110922
8 *67:63 *124:10 0
9 *100:23 *2137:A3 3.76959e-05
10 *100:34 *2137:A3 1.28035e-05
11 *110:21 *2137:A3 4.97925e-05
12 *110:40 *2137:A3 3.96065e-05
*RES
1 *2132:Y *124:10 47.7296 
2 *124:10 *2137:A3 48.9617 
*END

*D_NET *125 0.00176476
*CONN
*I *2134:B I *D sky130_fd_sc_hd__or4bb_4
*I *2140:B1 I *D sky130_fd_sc_hd__o31a_1
*I *2133:X O *D sky130_fd_sc_hd__o22a_1
*CAP
1 *2134:B 6.20632e-05
2 *2140:B1 0.000338922
3 *2133:X 0.000129954
4 *125:8 0.000530939
5 *2140:B1 *2126:A 1.65153e-05
6 *2140:B1 *132:6 5.08479e-05
7 *125:8 *2133:B2 6.99175e-05
8 *2126:B *2140:B1 1.24376e-05
9 *117:27 *2140:B1 0.000220767
10 *118:17 *2134:B 8.62876e-05
11 *118:17 *2140:B1 0.000242401
12 *123:38 *2140:B1 3.7122e-06
*RES
1 *2133:X *125:8 39.5743 
2 *125:8 *2140:B1 45.4364 
3 *125:8 *2134:B 39.2014 
*END

*D_NET *126 0.00576522
*CONN
*I *2167:A1 I *D sky130_fd_sc_hd__a211o_1
*I *2162:A1 I *D sky130_fd_sc_hd__a211o_1
*I *2161:A1 I *D sky130_fd_sc_hd__a221o_1
*I *2138:A1 I *D sky130_fd_sc_hd__a21oi_4
*I *2134:X O *D sky130_fd_sc_hd__or4bb_4
*CAP
1 *2167:A1 0
2 *2162:A1 0
3 *2161:A1 0
4 *2138:A1 0
5 *2134:X 0.00014795
6 *126:52 0.000232892
7 *126:39 0.000108169
8 *126:33 0.00040004
9 *126:29 0.000680418
10 *126:12 0.000679649
11 *126:8 0.00020616
12 *126:8 *542:127 3.76854e-05
13 *126:12 *2133:B2 4.29733e-05
14 *126:12 *2138:A2 5.3304e-05
15 *126:12 *542:102 9.77922e-06
16 *126:29 *2138:A2 0.00035587
17 *126:29 *2167:C1 0.000185434
18 *126:29 *129:23 0.000107101
19 *126:29 *130:8 1.22803e-05
20 *126:29 *130:31 0.00077266
21 *126:29 *158:12 1.5769e-05
22 *126:29 *158:27 2.98648e-05
23 *126:29 *512:18 0.000451781
24 *126:29 *531:6 0.000100488
25 *126:29 *531:117 5.50049e-05
26 *126:33 *2167:B1 2.02517e-05
27 *126:33 *130:31 2.62931e-05
28 *126:33 *158:27 9.58714e-05
29 *126:39 *2161:B1 1.14452e-05
30 *126:39 *129:31 0.000108681
31 *126:39 *283:89 1.27508e-05
32 *126:39 *536:142 6.78033e-05
33 *126:52 *2168:B 0.000123934
34 *126:52 *130:31 3.17634e-05
35 *126:52 *152:8 6.07611e-06
36 *126:52 *158:27 0.000296509
37 *126:52 *536:142 0
38 *126:52 *543:75 0
39 *121:16 *126:12 0.00018536
40 *121:37 *126:8 7.41877e-05
41 *123:38 *126:8 1.90253e-05
*RES
1 *2134:X *126:8 40.2579 
2 *126:8 *126:12 17.0507 
3 *126:12 *2138:A1 23 
4 *126:12 *126:29 47.8764 
5 *126:29 *126:33 1.595 
6 *126:33 *126:39 32.2579 
7 *126:39 *2161:A1 23 
8 *126:33 *126:52 35.7379 
9 *126:52 *2162:A1 23 
10 *126:29 *2167:A1 23 
*END

*D_NET *127 0.00135712
*CONN
*I *2136:B1 I *D sky130_fd_sc_hd__o2bb2a_1
*I *2135:Y O *D sky130_fd_sc_hd__o21bai_1
*CAP
1 *2136:B1 0.000195066
2 *2135:Y 8.98929e-05
3 *127:8 0.000284959
4 *2136:B1 *128:12 1.21972e-05
5 *2136:B1 *304:14 1.37702e-05
6 *2136:B1 *497:12 0.000476726
7 *127:8 *131:8 0
8 *127:8 *497:12 3.47781e-05
9 *113:20 *2136:B1 0.000114185
10 *113:20 *127:8 0.000135547
*RES
1 *2135:Y *127:8 39.9057 
2 *127:8 *2136:B1 43.3857 
*END

*D_NET *128 0.00324429
*CONN
*I *2137:B1 I *D sky130_fd_sc_hd__o31a_1
*I *2136:X O *D sky130_fd_sc_hd__o2bb2a_1
*CAP
1 *2137:B1 0
2 *2136:X 0.000920344
3 *128:12 0.000920344
4 *128:12 *2143:A3 0.000137651
5 *128:12 *2143:B1 3.3577e-05
6 *128:12 *130:16 0.000440307
7 *128:12 *135:8 5.50049e-05
8 *128:12 *497:12 5.61255e-06
9 *128:12 *498:14 5.3304e-05
10 *128:12 *536:64 4.83252e-05
11 *2134:C_N *128:12 2.1819e-05
12 *2136:B1 *128:12 1.21972e-05
13 *2137:A2 *128:12 3.7122e-06
14 *113:20 *128:12 0.000139346
15 *114:27 *128:12 5.56279e-05
16 *123:30 *128:12 0.000397116
*RES
1 *2136:X *128:12 39.53 
2 *128:12 *2137:B1 23 
*END

*D_NET *129 0.00412124
*CONN
*I *2161:A2 I *D sky130_fd_sc_hd__a221o_1
*I *2162:A2 I *D sky130_fd_sc_hd__a211o_1
*I *2167:A2 I *D sky130_fd_sc_hd__a211o_1
*I *2138:A2 I *D sky130_fd_sc_hd__a21oi_4
*I *2137:X O *D sky130_fd_sc_hd__o31a_1
*CAP
1 *2161:A2 3.6234e-05
2 *2162:A2 0.000346035
3 *2167:A2 0
4 *2138:A2 0.00020843
5 *2137:X 0
6 *129:31 8.04659e-05
7 *129:25 0.00044792
8 *129:23 0.000536831
9 *129:6 0.000687608
10 *2138:A2 *130:8 0.000113153
11 *2138:A2 *471:91 7.76364e-06
12 *2138:A2 *542:102 0.000152662
13 *2161:A2 *2162:C1 6.9886e-05
14 *2162:A2 *2162:C1 6.74107e-05
15 *2162:A2 *153:10 1.83763e-05
16 *129:23 *2162:C1 4.83025e-05
17 *129:23 *130:8 0.000117244
18 *129:23 *130:16 5.3304e-05
19 *129:23 *531:93 0.000269781
20 *129:23 *536:64 0.000137103
21 *129:31 *283:89 6.93449e-05
22 *129:31 *536:142 0
23 *108:14 *129:23 2.84288e-05
24 *126:12 *2138:A2 5.3304e-05
25 *126:29 *2138:A2 0.00035587
26 *126:29 *129:23 0.000107101
27 *126:39 *129:31 0.000108681
*RES
1 *2137:X *129:6 38 
2 *129:6 *2138:A2 43.3857 
3 *129:6 *129:23 25.2743 
4 *129:23 *129:25 0.497143 
5 *129:25 *129:31 31.9057 
6 *129:31 *2167:A2 23 
7 *129:25 *2162:A2 28.2821 
8 *129:23 *2161:A2 24.7659 
*END

*D_NET *130 0.00785629
*CONN
*I *2168:B I *D sky130_fd_sc_hd__nor2_1
*I *2170:A2 I *D sky130_fd_sc_hd__o211a_1
*I *2434:A I *D sky130_fd_sc_hd__clkbuf_4
*I *2138:Y O *D sky130_fd_sc_hd__a21oi_4
*CAP
1 *2168:B 0.000370742
2 *2170:A2 0
3 *2434:A 0
4 *2138:Y 0.000106194
5 *130:37 0.000124364
6 *130:31 0.00109311
7 *130:16 0.000633225
8 *130:8 0.00133742
9 *2168:B *2163:C1 0.000140259
10 *2168:B *158:27 9.83556e-05
11 *2168:B *283:131 6.26408e-05
12 *2168:B *510:67 8.25497e-05
13 *2168:B *510:75 2.44795e-05
14 *130:8 *471:91 0.000118889
15 *130:16 *536:64 1.01057e-05
16 *130:31 *471:91 8.88852e-05
17 *130:31 *512:18 6.69637e-06
18 *130:37 *159:8 0.000168754
19 *130:37 *283:89 0
20 *130:37 *536:142 0.000215393
21 *2137:A1 *130:16 2.64616e-05
22 *2137:A2 *130:16 1.89178e-05
23 *2138:A2 *130:8 0.000113153
24 *2142:A1 *130:16 5.12605e-05
25 *2163:A1 *2168:B 0.000216844
26 *97:53 *2168:B 0.00105524
27 *123:30 *130:16 0.000114566
28 *126:29 *130:8 1.22803e-05
29 *126:29 *130:31 0.00077266
30 *126:33 *130:31 2.62931e-05
31 *126:52 *2168:B 0.000123934
32 *126:52 *130:31 3.17634e-05
33 *128:12 *130:16 0.000440307
34 *129:23 *130:8 0.000117244
35 *129:23 *130:16 5.3304e-05
*RES
1 *2138:Y *130:8 41.3143 
2 *130:8 *130:16 39.3214 
3 *130:16 *2434:A 38 
4 *130:8 *130:31 27.7807 
5 *130:31 *130:37 32.9621 
6 *130:37 *2170:A2 23 
7 *130:31 *2168:B 36.5057 
*END

*D_NET *131 0.000920254
*CONN
*I *2143:B1 I *D sky130_fd_sc_hd__a31o_1
*I *2139:Y O *D sky130_fd_sc_hd__nor2_1
*CAP
1 *2143:B1 4.30304e-05
2 *2139:Y 0.000165906
3 *131:8 0.000208936
4 *2143:B1 *536:64 5.12254e-05
5 *131:8 *471:40 0.000171906
6 *131:8 *497:12 0
7 *67:63 *131:8 0.000101564
8 *92:27 *131:8 0.00014411
9 *113:20 *131:8 0
10 *127:8 *131:8 0
11 *128:12 *2143:B1 3.3577e-05
*RES
1 *2139:Y *131:8 42.7229 
2 *131:8 *2143:B1 39.0979 
*END

*D_NET *132 0.00467766
*CONN
*I *2141:B I *D sky130_fd_sc_hd__or3b_1
*I *2142:A2 I *D sky130_fd_sc_hd__o21bai_1
*I *2140:X O *D sky130_fd_sc_hd__o31a_1
*CAP
1 *2141:B 0
2 *2142:A2 0
3 *2140:X 0.000634558
4 *132:16 0.000622821
5 *132:6 0.00125738
6 *132:6 *2126:A 0.000216676
7 *132:6 *539:105 0.000189618
8 *132:16 *2139:B 3.95669e-05
9 *132:16 *133:10 0.000354769
10 *132:16 *135:14 0.000355026
11 *132:16 *510:10 5.78739e-05
12 *132:16 *534:33 3.47781e-05
13 *132:16 *539:111 0
14 *2140:B1 *132:6 5.08479e-05
15 *2141:C_N *132:16 0.000206395
16 *67:48 *132:16 1.42006e-05
17 *67:63 *132:16 0.000139977
18 *110:6 *132:6 0.000136738
19 *112:29 *132:16 2.42788e-05
20 *117:12 *132:16 0
21 *117:47 *132:16 0.000286534
22 *123:38 *132:6 5.56279e-05
*RES
1 *2140:X *132:6 32.1971 
2 *132:6 *132:16 45.1421 
3 *132:16 *2142:A2 23 
4 *132:6 *2141:B 23 
*END

*D_NET *133 0.00104279
*CONN
*I *2143:A2 I *D sky130_fd_sc_hd__a31o_1
*I *2141:X O *D sky130_fd_sc_hd__or3b_1
*CAP
1 *2143:A2 0
2 *2141:X 0.000162817
3 *133:10 0.000162817
4 *133:10 *2139:B 0.000357
5 *133:10 *534:29 2.45549e-06
6 *133:10 *539:105 2.92911e-06
7 *132:16 *133:10 0.000354769
*RES
1 *2141:X *133:10 43.3443 
2 *133:10 *2143:A2 38 
*END

*D_NET *134 0.00125118
*CONN
*I *2143:A3 I *D sky130_fd_sc_hd__a31o_1
*I *2142:Y O *D sky130_fd_sc_hd__o21bai_1
*CAP
1 *2143:A3 4.97416e-05
2 *2142:Y 0.000227277
3 *134:8 0.000277019
4 *2143:A3 *536:64 2.98648e-05
5 *2134:C_N *2143:A3 5.56356e-05
6 *2142:B1_N *134:8 0.000133316
7 *112:29 *134:8 0.00020366
8 *114:27 *134:8 5.44889e-06
9 *117:43 *134:8 0.000131563
10 *128:12 *2143:A3 0.000137651
*RES
1 *2142:Y *134:8 42.7229 
2 *134:8 *2143:A3 39.5743 
*END

*D_NET *135 0.00428875
*CONN
*I *2183:A I *D sky130_fd_sc_hd__nor2_1
*I *2147:B I *D sky130_fd_sc_hd__xor2_1
*I *2143:X O *D sky130_fd_sc_hd__a31o_1
*CAP
1 *2183:A 0.000136282
2 *2147:B 0
3 *2143:X 4.5791e-05
4 *135:14 0.00118389
5 *135:8 0.0010934
6 *2183:A *2184:A1 0.000159176
7 *2183:A *139:10 0.000145236
8 *2183:A *534:148 4.40995e-05
9 *135:14 *142:10 8.16356e-05
10 *135:14 *143:8 0
11 *135:14 *283:99 0
12 *135:14 *534:148 0.000408555
13 *2132:D *135:14 0
14 *2142:B1_N *135:14 0.000123172
15 *2151:A0 *135:14 0.000116413
16 *2154:B *135:14 0
17 *112:29 *135:14 0.00015795
18 *117:47 *135:14 0.000183107
19 *128:12 *135:8 5.50049e-05
20 *132:16 *135:14 0.000355026
*RES
1 *2143:X *135:8 38.6214 
2 *135:8 *135:14 38.5936 
3 *135:14 *2147:B 23 
4 *135:14 *2183:A 27.5986 
*END

*D_NET *136 0.00172671
*CONN
*I *2145:A2 I *D sky130_fd_sc_hd__a21oi_1
*I *2146:C I *D sky130_fd_sc_hd__and3_1
*I *2144:X O *D sky130_fd_sc_hd__or3_1
*CAP
1 *2145:A2 0.0001052
2 *2146:C 0
3 *2144:X 0.000461507
4 *136:12 0.000131671
5 *136:8 0.000487978
6 *2145:A2 *2145:A1 4.30938e-05
7 *2145:A2 *2146:A 0.000271033
8 *2145:A2 *2146:B 5.85458e-05
9 *136:8 *2151:S 0
10 *136:8 *138:8 4.26853e-05
11 *136:8 *471:91 0
12 *136:8 *512:18 1.01436e-05
13 *136:12 *2146:A 6.25714e-05
14 *136:12 *2146:B 8.44405e-06
15 *111:8 *136:8 4.38375e-05
*RES
1 *2144:X *136:8 46.2443 
2 *136:8 *136:12 15.7043 
3 *136:12 *2146:C 23 
4 *136:12 *2145:A2 26.4179 
*END

*D_NET *137 0.00171283
*CONN
*I *2183:B I *D sky130_fd_sc_hd__nor2_1
*I *2148:A I *D sky130_fd_sc_hd__or3_1
*I *2145:Y O *D sky130_fd_sc_hd__a21oi_1
*CAP
1 *2183:B 0
2 *2148:A 1.80505e-05
3 *2145:Y 0.000345741
4 *137:31 0.000343983
5 *137:10 0.000707774
6 *2148:A *2184:B1 2.93747e-05
7 *2148:A *175:8 5.50049e-05
8 *137:10 *2145:A1 9.84851e-05
9 *137:10 *2146:A 8.7283e-06
10 *137:10 *138:8 6.33072e-05
11 *137:10 *471:91 3.70094e-05
12 *137:10 *531:125 5.37348e-06
*RES
1 *2145:Y *137:10 43.7171 
2 *137:10 *2148:A 38.6214 
3 *137:10 *137:31 31.9781 
4 *137:31 *2183:B 23 
*END

*D_NET *138 0.00142554
*CONN
*I *2148:B I *D sky130_fd_sc_hd__or3_1
*I *2184:B1 I *D sky130_fd_sc_hd__a21oi_1
*I *2146:X O *D sky130_fd_sc_hd__and3_1
*CAP
1 *2148:B 0
2 *2184:B1 0.000205809
3 *2146:X 0.00028756
4 *138:10 0.000205809
5 *138:8 0.00028756
6 *2184:B1 *2184:A1 1.67818e-05
7 *2184:B1 *139:10 5.50106e-05
8 *2184:B1 *140:12 0.000156166
9 *2184:B1 *175:8 5.71224e-05
10 *138:8 *471:91 1.83564e-05
11 *2148:A *2184:B1 2.93747e-05
12 *136:8 *138:8 4.26853e-05
13 *137:10 *138:8 6.33072e-05
*RES
1 *2146:X *138:8 42.7229 
2 *138:8 *138:10 15 
3 *138:10 *2184:B1 28.4479 
4 *138:10 *2148:B 23 
*END

*D_NET *139 0.000801557
*CONN
*I *2148:C I *D sky130_fd_sc_hd__or3_1
*I *2147:X O *D sky130_fd_sc_hd__xor2_1
*CAP
1 *2148:C 0
2 *2147:X 0.0002059
3 *139:10 0.0002059
4 *139:10 *2184:A1 1.22822e-05
5 *139:10 *175:8 0.000177227
6 *2183:A *139:10 0.000145236
7 *2184:B1 *139:10 5.50106e-05
*RES
1 *2147:X *139:10 29.0279 
2 *139:10 *2148:C 23 
*END

*D_NET *140 0.00251559
*CONN
*I *2185:A1 I *D sky130_fd_sc_hd__o21a_1
*I *2188:A I *D sky130_fd_sc_hd__nor4_1
*I *2148:X O *D sky130_fd_sc_hd__or3_1
*CAP
1 *2185:A1 9.76671e-05
2 *2188:A 0.00023744
3 *2148:X 0.00038985
4 *140:12 0.000724957
5 *2185:A1 *176:10 0.000141879
6 *2185:A1 *543:90 0
7 *2188:A *2188:B 5.83407e-05
8 *2188:A *543:90 0
9 *140:12 *176:10 0.000709296
10 *2184:B1 *140:12 0.000156166
*RES
1 *2148:X *140:12 48.7921 
2 *140:12 *2188:A 42.5364 
3 *140:12 *2185:A1 40.2579 
*END

*D_NET *141 0.00353654
*CONN
*I *2150:B I *D sky130_fd_sc_hd__xor2_1
*I *2149:X O *D sky130_fd_sc_hd__o32a_1
*CAP
1 *2150:B 0.000183674
2 *2149:X 0.000667677
3 *141:8 0.000851351
4 *2150:B *2456:A 0.000246767
5 *2150:B *497:14 0.000326983
6 *2150:B *498:14 0.000561374
7 *141:8 *510:10 0.000348833
8 *141:8 *510:32 0.00018536
9 *112:18 *141:8 2.93747e-05
10 *112:27 *141:8 0.000135143
*RES
1 *2149:X *141:8 47.1971 
2 *141:8 *2150:B 45.54 
*END

*D_NET *142 0.00102673
*CONN
*I *2151:A1 I *D sky130_fd_sc_hd__mux2_1
*I *2150:X O *D sky130_fd_sc_hd__xor2_1
*CAP
1 *2151:A1 0
2 *2150:X 0.000269441
3 *142:10 0.000269441
4 *142:10 *498:27 0.000124906
5 *2127:B *142:10 0.0002263
6 *119:21 *142:10 5.50049e-05
7 *135:14 *142:10 8.16356e-05
*RES
1 *2150:X *142:10 44.6907 
2 *142:10 *2151:A1 38 
*END

*D_NET *143 0.00227544
*CONN
*I *2153:B I *D sky130_fd_sc_hd__nand2_1
*I *2152:B I *D sky130_fd_sc_hd__nor2_1
*I *2151:X O *D sky130_fd_sc_hd__mux2_1
*CAP
1 *2153:B 7.99798e-06
2 *2152:B 0
3 *2151:X 4.55709e-05
4 *143:14 0.000591692
5 *143:8 0.000629265
6 *2153:B *144:6 2.4754e-05
7 *2153:B *539:140 5.67058e-05
8 *143:14 *2151:S 0.000409172
9 *143:14 *144:6 1.32314e-05
10 *143:14 *536:150 5.67058e-05
11 *143:14 *539:140 0.000440344
12 *135:14 *143:8 0
*RES
1 *2151:X *143:8 38.8493 
2 *143:8 *143:14 29.4586 
3 *143:14 *2152:B 23 
4 *143:14 *2153:B 23.6214 
*END

*D_NET *144 0.00165213
*CONN
*I *2182:A1 I *D sky130_fd_sc_hd__o221a_1
*I *2158:A_N I *D sky130_fd_sc_hd__nand4b_1
*I *2152:Y O *D sky130_fd_sc_hd__nor2_1
*CAP
1 *2182:A1 0.00028105
2 *2158:A_N 0
3 *2152:Y 0.00012535
4 *144:12 9.79295e-05
5 *144:6 0.000504329
6 *2182:A1 *2182:A2 5.8936e-05
7 *2182:A1 *145:8 0.000127821
8 *2182:A1 *145:23 2.18409e-05
9 *144:6 *145:8 0.000187129
10 *144:6 *539:140 1.22822e-05
11 *144:12 *2158:D 0.000197479
12 *144:12 *531:125 0
13 *2153:B *144:6 2.4754e-05
14 *143:14 *144:6 1.32314e-05
*RES
1 *2152:Y *144:6 26.0036 
2 *144:6 *144:12 32.61 
3 *144:12 *2158:A_N 23 
4 *144:6 *2182:A1 28.4271 
*END

*D_NET *145 0.00148525
*CONN
*I *2158:B I *D sky130_fd_sc_hd__nand4b_1
*I *2182:C1 I *D sky130_fd_sc_hd__o221a_1
*I *2153:Y O *D sky130_fd_sc_hd__nand2_1
*CAP
1 *2158:B 0
2 *2182:C1 0
3 *2153:Y 8.23171e-05
4 *145:23 0.0001638
5 *145:8 0.000246117
6 *145:8 *2182:A2 1.56762e-05
7 *145:8 *536:142 0.000226295
8 *145:8 *539:140 2.4754e-05
9 *145:23 *2158:D 1.84329e-05
10 *145:23 *2182:A2 5.67058e-05
11 *145:23 *148:8 8.76088e-05
12 *145:23 *150:19 0.000222123
13 *145:23 *536:142 4.6318e-06
14 *145:23 *543:90 0
15 *2182:A1 *145:8 0.000127821
16 *2182:A1 *145:23 2.18409e-05
17 *144:6 *145:8 0.000187129
*RES
1 *2153:Y *145:8 26.9771 
2 *145:8 *2182:C1 23 
3 *145:8 *145:23 34.5571 
4 *145:23 *2158:B 23 
*END

*D_NET *146 0.000444982
*CONN
*I *2155:A1 I *D sky130_fd_sc_hd__mux2_1
*I *2154:Y O *D sky130_fd_sc_hd__xnor2_1
*CAP
1 *2155:A1 0.000130624
2 *2154:Y 0.000130624
3 *2155:A0 *2155:A1 0.000183733
*RES
1 *2154:Y *2155:A1 48.0507 
*END

*D_NET *147 0.00145337
*CONN
*I *2157:B I *D sky130_fd_sc_hd__nand2_1
*I *2156:B I *D sky130_fd_sc_hd__or2_1
*I *2155:X O *D sky130_fd_sc_hd__mux2_1
*CAP
1 *2157:B 6.03212e-05
2 *2156:B 0
3 *2155:X 0.000350596
4 *147:14 0.000137602
5 *147:8 0.000548519
6 *2157:B *149:10 7.53384e-06
7 *2157:B *498:27 5.29672e-05
8 *147:8 *498:27 0.000261215
9 *147:14 *149:10 3.46181e-05
10 *147:14 *531:125 0
11 *147:14 *536:142 0
*RES
1 *2155:X *147:8 31.1407 
2 *147:8 *147:14 32.2579 
3 *147:14 *2156:B 23 
4 *147:8 *2157:B 24.5743 
*END

*D_NET *148 0.000361873
*CONN
*I *2158:C I *D sky130_fd_sc_hd__nand4b_1
*I *2156:X O *D sky130_fd_sc_hd__or2_1
*CAP
1 *2158:C 0
2 *2156:X 5.11793e-05
3 *148:8 5.11793e-05
4 *148:8 *2158:D 0.000171906
5 *145:23 *148:8 8.76088e-05
*RES
1 *2156:X *148:8 40.2579 
2 *148:8 *2158:C 38 
*END

*D_NET *149 0.00165653
*CONN
*I *2158:D I *D sky130_fd_sc_hd__nand4b_1
*I *2182:A2 I *D sky130_fd_sc_hd__o221a_1
*I *2157:Y O *D sky130_fd_sc_hd__nand2_1
*CAP
1 *2158:D 0.000114851
2 *2182:A2 0.000158985
3 *2157:Y 0.000126467
4 *149:10 0.000400303
5 *2158:D *536:142 3.47781e-05
6 *2182:A2 *2156:A 0
7 *2182:A2 *536:142 5.3304e-05
8 *2182:A2 *539:155 9.41704e-05
9 *149:10 *498:27 3.70071e-06
10 *149:10 *536:142 0.000108681
11 *2157:B *149:10 7.53384e-06
12 *2182:A1 *2182:A2 5.8936e-05
13 *144:12 *2158:D 0.000197479
14 *145:8 *2182:A2 1.56762e-05
15 *145:23 *2158:D 1.84329e-05
16 *145:23 *2182:A2 5.67058e-05
17 *147:14 *149:10 3.46181e-05
18 *148:8 *2158:D 0.000171906
*RES
1 *2157:Y *149:10 40.175 
2 *149:10 *2182:A2 41.5007 
3 *149:10 *2158:D 41.6664 
*END

*D_NET *150 0.000917982
*CONN
*I *2182:B1 I *D sky130_fd_sc_hd__o221a_1
*I *2188:B I *D sky130_fd_sc_hd__nor4_1
*I *2158:Y O *D sky130_fd_sc_hd__nand4b_1
*CAP
1 *2182:B1 0
2 *2188:B 0.000165811
3 *2158:Y 0
4 *150:19 0.000147226
5 *150:4 0.000313037
6 *150:19 *173:10 1.14452e-05
7 *150:19 *543:90 0
8 *2188:A *2188:B 5.83407e-05
9 *145:23 *150:19 0.000222123
*RES
1 *2158:Y *150:4 23 
2 *150:4 *2188:B 26.0243 
3 *150:4 *150:19 32.9621 
4 *150:19 *2182:B1 23 
*END

*D_NET *151 0.00147647
*CONN
*I *2161:B1 I *D sky130_fd_sc_hd__a221o_1
*I *2160:B I *D sky130_fd_sc_hd__nand2_1
*I *2159:X O *D sky130_fd_sc_hd__or2_1
*CAP
1 *2161:B1 0.000106618
2 *2160:B 0.000116251
3 *2159:X 0.000149195
4 *151:10 0.000372064
5 *2161:B1 *283:89 2.34364e-05
6 *2161:B1 *536:70 5.0135e-05
7 *2161:B1 *536:142 1.17152e-05
8 *151:10 *283:89 8.76088e-05
9 *151:10 *536:70 7.75329e-06
10 *2116:B *2160:B 4.37033e-05
11 *2118:A1 *151:10 2.32004e-05
12 *2160:A *2160:B 0.000118737
13 *106:25 *151:10 7.03766e-05
14 *107:35 *151:10 5.3304e-05
15 *108:14 *2160:B 6.9805e-05
16 *108:14 *2161:B1 0.000161121
17 *126:39 *2161:B1 1.14452e-05
*RES
1 *2159:X *151:10 41.3557 
2 *151:10 *2160:B 41.0243 
3 *151:10 *2161:B1 40.9621 
*END

*D_NET *152 0.000306337
*CONN
*I *2162:B1 I *D sky130_fd_sc_hd__a211o_1
*I *2160:Y O *D sky130_fd_sc_hd__nand2_1
*CAP
1 *2162:B1 0
2 *2160:Y 0.000125446
3 *152:8 0.000125446
4 *152:8 *536:70 3.31683e-05
5 *152:8 *536:142 1.62015e-05
6 *152:8 *543:75 0
7 *126:52 *152:8 6.07611e-06
*RES
1 *2160:Y *152:8 40.2579 
2 *152:8 *2162:B1 38 
*END

*D_NET *153 0.00159581
*CONN
*I *2164:B1 I *D sky130_fd_sc_hd__o211a_1
*I *2161:X O *D sky130_fd_sc_hd__a221o_1
*CAP
1 *2164:B1 0
2 *2161:X 0.000697589
3 *153:10 0.000697589
4 *153:10 *2162:C1 2.24739e-05
5 *153:10 *2164:A2 7.91493e-05
6 *153:10 *154:10 2.80243e-05
7 *153:10 *549:106 5.26101e-05
8 *2162:A2 *153:10 1.83763e-05
*RES
1 *2161:X *153:10 48.0257 
2 *153:10 *2164:B1 38 
*END

*D_NET *154 0.000887328
*CONN
*I *2163:B1 I *D sky130_fd_sc_hd__o211a_1
*I *2162:X O *D sky130_fd_sc_hd__a211o_1
*CAP
1 *2163:B1 0
2 *2162:X 0.000328097
3 *154:10 0.000328097
4 *154:10 *2164:A2 0.000138718
5 *154:10 *156:8 6.4393e-05
6 *153:10 *154:10 2.80243e-05
*RES
1 *2162:X *154:10 42.9093 
2 *154:10 *2163:B1 38 
*END

*D_NET *155 0.00117515
*CONN
*I *2180:B I *D sky130_fd_sc_hd__nand2b_1
*I *2171:A I *D sky130_fd_sc_hd__or3_1
*I *2163:X O *D sky130_fd_sc_hd__o211a_1
*CAP
1 *2180:B 0
2 *2171:A 5.6265e-05
3 *2163:X 9.96379e-05
4 *155:12 8.16661e-05
5 *155:8 0.000125039
6 *2171:A *2180:A_N 0.000181931
7 *2171:A *162:8 0
8 *2171:A *283:131 3.6862e-05
9 *2171:A *499:23 0.000259902
10 *155:8 *156:8 0
11 *155:8 *161:8 0.000166522
12 *155:8 *543:90 0
13 *155:12 *283:131 0.000112656
14 *155:12 *499:23 5.46669e-05
*RES
1 *2163:X *155:8 40.2579 
2 *155:8 *155:12 16.2532 
3 *155:12 *2171:A 26.3454 
4 *155:12 *2180:B 23 
*END

*D_NET *156 0.000919579
*CONN
*I *2171:B I *D sky130_fd_sc_hd__or3_1
*I *2164:X O *D sky130_fd_sc_hd__o211a_1
*CAP
1 *2171:B 0
2 *2164:X 0.000311687
3 *156:8 0.000311687
4 *156:8 *2164:A2 7.03214e-05
5 *156:8 *510:44 7.10745e-06
6 *156:8 *543:75 0.000110207
7 *156:8 *543:90 4.41755e-05
8 *156:8 *549:106 0
9 *154:10 *156:8 6.4393e-05
10 *155:8 *156:8 0
*RES
1 *2164:X *156:8 44.8357 
2 *156:8 *2171:B 38 
*END

*D_NET *157 0.000391878
*CONN
*I *2166:B I *D sky130_fd_sc_hd__xnor2_1
*I *2165:X O *D sky130_fd_sc_hd__or2_1
*CAP
1 *2166:B 0
2 *2165:X 7.28406e-05
3 *157:8 7.28406e-05
4 *157:8 *283:89 8.06039e-05
5 *157:8 *536:70 0.000165593
*RES
1 *2165:X *157:8 40.2579 
2 *157:8 *2166:B 38 
*END

*D_NET *158 0.00455661
*CONN
*I *2169:A2 I *D sky130_fd_sc_hd__a211o_1
*I *2167:B1 I *D sky130_fd_sc_hd__a211o_1
*I *2166:Y O *D sky130_fd_sc_hd__xnor2_1
*CAP
1 *2169:A2 0
2 *2167:B1 3.3043e-05
3 *2166:Y 0.000351957
4 *158:27 0.000973896
5 *158:12 0.00105366
6 *158:8 0.000398678
7 *2167:B1 *531:117 0
8 *158:8 *283:89 0.00035999
9 *158:8 *471:87 0.000194318
10 *158:8 *531:10 0
11 *158:8 *531:12 0
12 *158:8 *542:10 3.83778e-05
13 *158:8 *542:16 0.000122304
14 *158:12 *2167:C1 6.17437e-06
15 *158:27 *2163:C1 7.59794e-05
16 *158:27 *283:131 1.83667e-05
17 *158:27 *510:67 0.000313827
18 *2168:B *158:27 9.83556e-05
19 *104:8 *158:27 5.94125e-05
20 *126:29 *158:12 1.5769e-05
21 *126:29 *158:27 2.98648e-05
22 *126:33 *2167:B1 2.02517e-05
23 *126:33 *158:27 9.58714e-05
24 *126:52 *158:27 0.000296509
*RES
1 *2166:Y *158:8 47.6529 
2 *158:8 *158:12 15.6214 
3 *158:12 *2167:B1 23.8493 
4 *158:12 *158:27 44.3343 
5 *158:27 *2169:A2 23 
*END

*D_NET *159 0.000351141
*CONN
*I *2170:B1 I *D sky130_fd_sc_hd__o211a_1
*I *2167:X O *D sky130_fd_sc_hd__a211o_1
*CAP
1 *2170:B1 0
2 *2167:X 9.11936e-05
3 *159:8 9.11936e-05
4 *159:8 *283:89 0
5 *130:37 *159:8 0.000168754
*RES
1 *2167:X *159:8 40.2579 
2 *159:8 *2170:B1 38 
*END

*D_NET *160 0.000516555
*CONN
*I *2169:B1 I *D sky130_fd_sc_hd__a211o_1
*I *2168:Y O *D sky130_fd_sc_hd__nor2_1
*CAP
1 *2169:B1 0
2 *2168:Y 0.000123794
3 *160:10 0.000123794
4 *160:10 *283:131 8.85189e-05
5 *160:10 *516:38 8.62783e-05
6 *97:53 *160:10 9.41704e-05
*RES
1 *2168:Y *160:10 40.2993 
2 *160:10 *2169:B1 38 
*END

*D_NET *161 0.00165623
*CONN
*I *2172:B I *D sky130_fd_sc_hd__nand2b_1
*I *2181:C1 I *D sky130_fd_sc_hd__o211a_1
*I *2169:X O *D sky130_fd_sc_hd__a211o_1
*CAP
1 *2172:B 0
2 *2181:C1 6.05003e-05
3 *2169:X 0.000332056
4 *161:12 6.82806e-05
5 *161:8 0.000339836
6 *2181:C1 *2172:A_N 5.50173e-05
7 *2181:C1 *498:27 5.43493e-05
8 *161:8 *172:10 0
9 *161:8 *549:106 0.000579668
10 *155:8 *161:8 0.000166522
*RES
1 *2169:X *161:8 45.8921 
2 *161:8 *161:12 15.1502 
3 *161:12 *2181:C1 25.0973 
4 *161:12 *2172:B 23 
*END

*D_NET *162 0.00104803
*CONN
*I *2180:A_N I *D sky130_fd_sc_hd__nand2b_1
*I *2171:C I *D sky130_fd_sc_hd__or3_1
*I *2170:X O *D sky130_fd_sc_hd__o211a_1
*CAP
1 *2180:A_N 2.68984e-05
2 *2171:C 0
3 *2170:X 7.88393e-05
4 *162:8 0.000105738
5 *2180:A_N *283:131 0.000225406
6 *2180:A_N *499:23 1.72202e-05
7 *162:8 *283:131 0.000140518
8 *162:8 *499:23 0.000271476
9 *2171:A *2180:A_N 0.000181931
10 *2171:A *162:8 0
*RES
1 *2170:X *162:8 26.5007 
2 *162:8 *2171:C 23 
3 *162:8 *2180:A_N 25.4702 
*END

*D_NET *163 0.00116733
*CONN
*I *2172:A_N I *D sky130_fd_sc_hd__nand2b_1
*I *2181:A1 I *D sky130_fd_sc_hd__o211a_1
*I *2171:X O *D sky130_fd_sc_hd__or3_1
*CAP
1 *2172:A_N 0.000172302
2 *2181:A1 0
3 *2171:X 0.000227801
4 *163:10 0.000172302
5 *163:8 0.000227801
6 *2172:A_N *498:27 3.93271e-05
7 *163:8 *171:10 0.000168744
8 *163:8 *172:10 0.00010404
9 *163:8 *543:90 0
10 *2181:C1 *2172:A_N 5.50173e-05
*RES
1 *2171:X *163:8 43.075 
2 *163:8 *163:10 15 
3 *163:10 *2181:A1 23 
4 *163:10 *2172:A_N 26.5214 
*END

*D_NET *164 0.00156063
*CONN
*I *2188:C I *D sky130_fd_sc_hd__nor4_1
*I *2172:Y O *D sky130_fd_sc_hd__nand2b_1
*CAP
1 *2188:C 0.000429087
2 *2172:Y 0.000127275
3 *164:8 0.000556362
4 *2188:C *2188:D 0.00019058
5 *2188:C *180:10 5.14746e-06
6 *164:8 *179:8 0.000100283
7 *164:8 *549:106 0.000151899
*RES
1 *2172:Y *164:8 42.0186 
2 *164:8 *2188:C 44.3386 
*END

*D_NET *165 0.000545272
*CONN
*I *2174:B I *D sky130_fd_sc_hd__nand2_1
*I *2173:Y O *D sky130_fd_sc_hd__nand2_1
*CAP
1 *2174:B 0.000193679
2 *2173:Y 0.000193679
3 *2174:B *2173:A 7.37652e-05
4 *2174:B *166:10 5.50049e-05
5 *2174:B *547:105 1.57961e-05
6 *107:66 *2174:B 1.33484e-05
*RES
1 *2173:Y *2174:B 49.2521 
*END

*D_NET *166 0.00169219
*CONN
*I *2175:A1 I *D sky130_fd_sc_hd__mux2_1
*I *2174:Y O *D sky130_fd_sc_hd__nand2_1
*CAP
1 *2175:A1 0
2 *2174:Y 0.000434869
3 *166:10 0.000434869
4 *166:10 *2115:B 6.48142e-05
5 *166:10 *512:63 0.00069085
6 *166:10 *526:86 0
7 *166:10 *526:108 0
8 *166:10 *547:105 8.06804e-06
9 *2174:B *166:10 5.50049e-05
10 *107:66 *166:10 3.7122e-06
*RES
1 *2174:Y *166:10 47.9221 
2 *166:10 *2175:A1 38 
*END

*D_NET *167 0.00216808
*CONN
*I *2177:B I *D sky130_fd_sc_hd__nor2_1
*I *2187:A2 I *D sky130_fd_sc_hd__a2111o_1
*I *2179:A2 I *D sky130_fd_sc_hd__a21o_1
*I *2175:X O *D sky130_fd_sc_hd__mux2_1
*CAP
1 *2177:B 0.000255708
2 *2187:A2 0
3 *2179:A2 0
4 *2175:X 0
5 *167:23 0.000455009
6 *167:12 0.000157411
7 *167:4 0.000356713
8 *2177:B *2187:A1 0.000114083
9 *2177:B *273:22 0.000160003
10 *2177:B *516:16 0.000135037
11 *2177:B *526:108 1.99391e-05
12 *167:12 *501:19 0.000139357
13 *167:12 *516:30 2.71291e-05
14 *167:12 *524:61 8.62876e-05
15 *167:12 *526:86 0
16 *167:12 *526:108 0
17 *167:23 *273:22 2.08324e-05
18 *167:23 *501:19 0.000127821
19 *167:23 *512:63 3.46344e-05
20 *167:23 *526:108 7.81176e-05
*RES
1 *2175:X *167:4 23 
2 *167:4 *167:12 32.7757 
3 *167:12 *2179:A2 23 
4 *167:4 *167:23 18.8321 
5 *167:23 *2187:A2 38 
6 *167:23 *2177:B 43.2821 
*END

*D_NET *168 0.000889358
*CONN
*I *2187:B1 I *D sky130_fd_sc_hd__a2111o_1
*I *2176:X O *D sky130_fd_sc_hd__and2_1
*CAP
1 *2187:B1 0
2 *2176:X 0.00011466
3 *168:6 0.00011466
4 *168:6 *2187:D1 6.08811e-05
5 *168:6 *219:50 2.31397e-05
6 *168:6 *273:22 0.000181925
7 *168:6 *498:27 0.000394092
*RES
1 *2176:X *168:6 27.4329 
2 *168:6 *2187:B1 23 
*END

*D_NET *169 0.000336194
*CONN
*I *2187:C1 I *D sky130_fd_sc_hd__a2111o_1
*I *2177:Y O *D sky130_fd_sc_hd__nor2_1
*CAP
1 *2187:C1 0
2 *2177:Y 7.34288e-05
3 *169:8 7.34288e-05
4 *169:8 *516:30 0.000140958
5 *169:8 *524:61 4.83778e-05
*RES
1 *2177:Y *169:8 39.9057 
2 *169:8 *2187:C1 38 
*END

*D_NET *170 0.0015547
*CONN
*I *2179:B1 I *D sky130_fd_sc_hd__a21o_1
*I *2178:X O *D sky130_fd_sc_hd__o211a_1
*CAP
1 *2179:B1 0
2 *2178:X 0.000188867
3 *170:8 0.000188867
4 *170:8 *497:22 0.000649723
5 *170:8 *501:19 4.37965e-05
6 *170:8 *516:30 7.86249e-05
7 *170:8 *516:38 5.3304e-05
8 *170:8 *526:80 0.00020956
9 *170:8 *526:84 0.00014196
*RES
1 *2178:X *170:8 30.7886 
2 *170:8 *2179:B1 23 
*END

*D_NET *171 0.00132331
*CONN
*I *2181:A2 I *D sky130_fd_sc_hd__o211a_1
*I *2179:X O *D sky130_fd_sc_hd__a21o_1
*CAP
1 *2181:A2 0
2 *2179:X 0.000317419
3 *171:10 0.000317419
4 *171:10 *172:10 0.000166513
5 *171:10 *501:19 0.000353214
6 *163:8 *171:10 0.000168744
*RES
1 *2179:X *171:10 44.2143 
2 *171:10 *2181:A2 38 
*END

*D_NET *172 0.00106029
*CONN
*I *2181:B1 I *D sky130_fd_sc_hd__o211a_1
*I *2180:Y O *D sky130_fd_sc_hd__nand2b_1
*CAP
1 *2181:B1 0
2 *2180:Y 0.000323041
3 *172:10 0.000323041
4 *172:10 *283:131 0.000143655
5 *161:8 *172:10 0
6 *163:8 *172:10 0.00010404
7 *171:10 *172:10 0.000166513
*RES
1 *2180:Y *172:10 44.6493 
2 *172:10 *2181:B1 38 
*END

*D_NET *173 0.000752867
*CONN
*I *2182:B2 I *D sky130_fd_sc_hd__o221a_1
*I *2181:X O *D sky130_fd_sc_hd__o211a_1
*CAP
1 *2182:B2 0
2 *2181:X 0.00034289
3 *173:10 0.00034289
4 *173:10 *498:27 3.02378e-05
5 *173:10 *539:155 2.54046e-05
6 *173:10 *543:90 0
7 *150:19 *173:10 1.14452e-05
*RES
1 *2181:X *173:10 42.9093 
2 *173:10 *2182:B2 38 
*END

*D_NET *174 0.00154177
*CONN
*I *2185:A2 I *D sky130_fd_sc_hd__o21a_1
*I *2182:X O *D sky130_fd_sc_hd__o221a_1
*CAP
1 *2185:A2 0.00015682
2 *2182:X 0.000229275
3 *174:8 0.000386095
4 *2185:A2 *2185:B1 4.06849e-05
5 *2185:A2 *2189:A1 6.17437e-06
6 *174:8 *180:10 0.000151899
7 *174:8 *543:90 0.00057082
*RES
1 *2182:X *174:8 45.54 
2 *174:8 *2185:A2 40.0507 
*END

*D_NET *175 0.000959454
*CONN
*I *2184:A2 I *D sky130_fd_sc_hd__a21oi_1
*I *2183:Y O *D sky130_fd_sc_hd__nor2_1
*CAP
1 *2184:A2 0
2 *2183:Y 0.000113664
3 *175:8 0.000113664
4 *175:8 *2184:A1 0.000442771
5 *2148:A *175:8 5.50049e-05
6 *2184:B1 *175:8 5.71224e-05
7 *139:10 *175:8 0.000177227
*RES
1 *2183:Y *175:8 28.4064 
2 *175:8 *2184:A2 23 
*END

*D_NET *176 0.00219799
*CONN
*I *2185:B1 I *D sky130_fd_sc_hd__o21a_1
*I *2184:Y O *D sky130_fd_sc_hd__a21oi_1
*CAP
1 *2185:B1 0.000109493
2 *2184:Y 0.000543571
3 *176:10 0.000653065
4 *176:10 *543:90 0
5 *2185:A1 *176:10 0.000141879
6 *2185:A2 *2185:B1 4.06849e-05
7 *140:12 *176:10 0.000709296
*RES
1 *2184:Y *176:10 48.0309 
2 *176:10 *2185:B1 40.0507 
*END

*D_NET *177 7.6951e-05
*CONN
*I *2189:A1 I *D sky130_fd_sc_hd__o21a_1
*I *2185:X O *D sky130_fd_sc_hd__o21a_1
*CAP
1 *2189:A1 3.53883e-05
2 *2185:X 3.53883e-05
3 *2185:A2 *2189:A1 6.17437e-06
*RES
1 *2185:X *2189:A1 46.6214 
*END

*D_NET *178 0.00339153
*CONN
*I *2226:A1 I *D sky130_fd_sc_hd__a21oi_1
*I *2225:A I *D sky130_fd_sc_hd__or2_1
*I *2187:D1 I *D sky130_fd_sc_hd__a2111o_1
*I *2186:Y O *D sky130_fd_sc_hd__nor2_1
*CAP
1 *2226:A1 0.000121996
2 *2225:A 0
3 *2187:D1 0.000271737
4 *2186:Y 0
5 *178:33 0.000245685
6 *178:25 0.000638043
7 *178:4 0.0005421
8 *2187:D1 *219:50 4.93005e-05
9 *2187:D1 *498:27 2.13733e-05
10 *2226:A1 *2227:B2 3.3577e-05
11 *2226:A1 *326:26 2.03764e-06
12 *2226:A1 *510:92 6.17437e-06
13 *178:25 *2250:A1 0.000178946
14 *178:25 *219:50 8.34394e-05
15 *178:25 *273:22 1.27508e-05
16 *178:25 *510:92 0.000506676
17 *178:25 *512:63 0.000111852
18 *178:33 *2227:B1 7.45175e-05
19 *178:33 *2250:A1 3.47781e-05
20 *178:33 *273:39 0.000102998
21 *178:33 *326:26 0.000107101
22 *178:33 *326:49 5.3304e-05
23 *178:33 *510:92 4.5051e-05
24 *178:33 *524:71 8.72173e-05
25 *168:6 *2187:D1 6.08811e-05
*RES
1 *2186:Y *178:4 23 
2 *178:4 *2187:D1 27.6193 
3 *178:4 *178:25 37.9336 
4 *178:25 *178:33 35.5929 
5 *178:33 *2225:A 23 
6 *178:25 *2226:A1 24.5743 
*END

*D_NET *179 0.00160509
*CONN
*I *2188:D I *D sky130_fd_sc_hd__nor4_1
*I *2187:X O *D sky130_fd_sc_hd__a2111o_1
*CAP
1 *2188:D 0.00031417
2 *2187:X 0.000146314
3 *179:8 0.000460484
4 *2188:D *180:10 7.53384e-06
5 *179:8 *524:61 0.000385726
6 *179:8 *549:106 0
7 *2188:C *2188:D 0.00019058
8 *164:8 *179:8 0.000100283
*RES
1 *2187:X *179:8 43.075 
2 *179:8 *2188:D 44.815 
*END

*D_NET *180 0.000628627
*CONN
*I *2189:A2 I *D sky130_fd_sc_hd__o21a_1
*I *2188:Y O *D sky130_fd_sc_hd__nor4_1
*CAP
1 *2189:A2 0
2 *2188:Y 0.000180841
3 *180:10 0.000180841
4 *180:10 *326:49 0.000102365
5 *180:10 *549:106 0
6 *2188:C *180:10 5.14746e-06
7 *2188:D *180:10 7.53384e-06
8 *174:8 *180:10 0.000151899
*RES
1 *2188:Y *180:10 42.64 
2 *180:10 *2189:A2 38 
*END

*D_NET *181 0.00657069
*CONN
*I *2210:A I *D sky130_fd_sc_hd__or3_1
*I *2189:X O *D sky130_fd_sc_hd__o21a_1
*CAP
1 *2210:A 0
2 *2189:X 7.84179e-05
3 *181:16 0.000902522
4 *181:8 0.00098094
5 *181:8 *2222:A 5.21024e-05
6 *181:8 *543:90 0
7 *181:16 *2221:B 0.000137651
8 *181:16 *2224:A 0.000189272
9 *181:16 *2233:B 0.00010018
10 *181:16 *2253:B 8.30364e-05
11 *181:16 *2254:B 4.94008e-05
12 *181:16 *191:32 0.000219383
13 *181:16 *191:34 0.00133932
14 *181:16 *192:30 0.000116318
15 *181:16 *197:18 0.000313052
16 *181:16 *213:12 0.000164528
17 *181:16 *223:25 0.000603438
18 *181:16 *245:12 5.50106e-05
19 *181:16 *246:8 0.000194407
20 *181:16 *248:10 1.14762e-05
21 *181:16 *520:124 0.000957559
22 *181:16 *551:143 2.26778e-05
*RES
1 *2189:X *181:8 39.5536 
2 *181:8 *181:16 49.1371 
3 *181:16 *2210:A 23 
*END

*D_NET *182 0.00461271
*CONN
*I *2191:B I *D sky130_fd_sc_hd__or2_1
*I *2339:A2 I *D sky130_fd_sc_hd__o21a_1
*I *2281:A I *D sky130_fd_sc_hd__nand2_1
*I *2190:X O *D sky130_fd_sc_hd__or3_1
*CAP
1 *2191:B 2.34823e-05
2 *2339:A2 0
3 *2281:A 0
4 *2190:X 0.000167458
5 *182:22 0.000549268
6 *182:12 0.00120654
7 *182:8 0.000848212
8 *182:8 *2191:A 5.47927e-05
9 *182:12 *2339:A1 0.000137651
10 *182:12 *546:25 0.000406803
11 *182:22 *2353:B1 7.34858e-05
12 *182:22 *191:74 0.000213551
13 *182:22 *338:10 9.5877e-05
14 *182:22 *475:94 0
15 *182:22 *497:46 0.00079571
16 *182:22 *546:25 3.98818e-05
*RES
1 *2190:X *182:8 26.0243 
2 *182:8 *182:12 13.9821 
3 *182:12 *182:22 42.905 
4 *182:22 *2281:A 23 
5 *182:12 *2339:A2 23 
6 *182:8 *2191:B 23.4971 
*END

*D_NET *183 0.00790084
*CONN
*I *2195:A1 I *D sky130_fd_sc_hd__o2111a_1
*I *2209:A1 I *D sky130_fd_sc_hd__a311o_1
*I *2191:X O *D sky130_fd_sc_hd__or2_1
*CAP
1 *2195:A1 0.000195476
2 *2209:A1 0
3 *2191:X 0.000493891
4 *183:24 0.00184314
5 *183:12 0.00214156
6 *2195:A1 *1978:A_N 3.31198e-05
7 *2195:A1 *192:8 0.000204337
8 *2195:A1 *197:62 0.000135037
9 *2195:A1 *197:72 0.000215782
10 *2195:A1 *326:12 2.64616e-05
11 *183:12 *520:98 1.27321e-05
12 *183:12 *534:92 0
13 *183:12 *549:35 0.000112951
14 *183:12 *551:44 9.11904e-05
15 *183:24 *192:8 3.70187e-05
16 *183:24 *197:72 4.73716e-05
17 *183:24 *272:18 4.74508e-05
18 *183:24 *551:44 0.00225848
19 *183:24 *551:54 2.23334e-06
20 *183:24 *551:125 2.60807e-06
*RES
1 *2191:X *183:12 47.3645 
2 *183:12 *183:24 30.1593 
3 *183:24 *2209:A1 38 
4 *183:24 *2195:A1 42.5364 
*END

*D_NET *184 0.000674714
*CONN
*I *2194:A I *D sky130_fd_sc_hd__or2_1
*I *2192:X O *D sky130_fd_sc_hd__or4_1
*CAP
1 *2194:A 0
2 *2192:X 0.000197215
3 *184:8 0.000197215
4 *184:8 *185:8 3.56537e-05
5 *184:8 *197:72 0
6 *184:8 *520:124 0
7 *184:8 *526:62 0.000115013
8 *184:8 *526:78 8.62783e-05
9 *184:8 *552:8 4.334e-05
*RES
1 *2192:X *184:8 42.3707 
2 *184:8 *2194:A 38 
*END

*D_NET *185 0.000304275
*CONN
*I *2194:B I *D sky130_fd_sc_hd__or2_1
*I *2193:X O *D sky130_fd_sc_hd__or4_1
*CAP
1 *2194:B 3.57483e-05
2 *2193:X 6.48008e-05
3 *185:8 0.000100549
4 *2194:B *541:25 2.93845e-05
5 *185:8 *520:124 3.81391e-05
6 *184:8 *185:8 3.56537e-05
*RES
1 *2193:X *185:8 39.5536 
2 *185:8 *2194:B 38.6214 
*END

*D_NET *186 0.00125606
*CONN
*I *2195:A2 I *D sky130_fd_sc_hd__o2111a_1
*I *2209:A2 I *D sky130_fd_sc_hd__a311o_1
*I *2194:X O *D sky130_fd_sc_hd__or2_1
*CAP
1 *2195:A2 0.000110736
2 *2209:A2 6.6151e-05
3 *2194:X 0.00018725
4 *186:10 0.000364138
5 *2195:A2 *2195:B1 1.01436e-05
6 *2195:A2 *520:124 0
7 *2195:A2 *530:61 0
8 *2195:A2 *551:125 0.000160191
9 *2209:A2 *2201:B2 6.17437e-06
10 *2209:A2 *192:22 7.14493e-05
11 *2209:A2 *521:30 0.000135037
12 *186:10 *197:72 0
13 *186:10 *520:124 0
14 *186:10 *541:25 3.22465e-05
15 *186:10 *551:54 4.77883e-05
16 *186:10 *551:125 6.47565e-05
*RES
1 *2194:X *186:10 41.2314 
2 *186:10 *2209:A2 39.5743 
3 *186:10 *2195:A2 40.2579 
*END

*D_NET *187 0.000126903
*CONN
*I *2210:B I *D sky130_fd_sc_hd__or3_1
*I *2195:X O *D sky130_fd_sc_hd__o2111a_1
*CAP
1 *2210:B 3.50987e-05
2 *2195:X 3.50987e-05
3 *2210:B *197:18 5.67058e-05
*RES
1 *2195:X *2210:B 46.6214 
*END

*D_NET *188 0.0135822
*CONN
*I *2202:B1 I *D sky130_fd_sc_hd__o22a_1
*I *2213:B1 I *D sky130_fd_sc_hd__o22a_1
*I *2276:B1 I *D sky130_fd_sc_hd__o22a_1
*I *2303:B1 I *D sky130_fd_sc_hd__o22a_1
*I *2348:B1 I *D sky130_fd_sc_hd__o22a_1
*I *2430:B1 I *D sky130_fd_sc_hd__o22a_1
*I *2247:B1 I *D sky130_fd_sc_hd__o22a_1
*I *2391:B1 I *D sky130_fd_sc_hd__o22a_1
*I *2196:X O *D sky130_fd_sc_hd__and4b_2
*CAP
1 *2202:B1 0
2 *2213:B1 0.000312781
3 *2276:B1 0
4 *2303:B1 0
5 *2348:B1 2.0995e-05
6 *2430:B1 0.000545802
7 *2247:B1 0
8 *2391:B1 0.000148171
9 *2196:X 0.000500097
10 *188:101 0.000670522
11 *188:90 0.00029529
12 *188:71 0.000436341
13 *188:56 0.000840404
14 *188:36 0.00020618
15 *188:32 0.000463556
16 *188:24 0.00143483
17 *188:12 0.000846087
18 *188:10 0.000500097
19 *2213:B1 *204:10 3.16665e-05
20 *2213:B1 *514:8 1.83564e-05
21 *2213:B1 *514:12 0.000187198
22 *2213:B1 *525:112 0.000253905
23 *2213:B1 *527:44 9.58714e-05
24 *2348:B1 *2350:A2 1.14154e-05
25 *2391:B1 *2391:B2 3.93306e-05
26 *2391:B1 *2392:A3 0
27 *2391:B1 *199:56 0.000442771
28 *2391:B1 *205:45 0.000199033
29 *2430:B1 *2246:B 0
30 *2430:B1 *436:10 9.84851e-05
31 *2430:B1 *526:52 0.000159938
32 *188:10 *2207:B_N 0.000270682
33 *188:10 *489:24 0.000213313
34 *188:10 *491:10 0.000570166
35 *188:10 *492:16 0
36 *188:24 *2201:B2 1.57571e-05
37 *188:24 *2202:A2 5.50049e-05
38 *188:24 *2202:B2 0.000176789
39 *188:24 *2469:A 7.06124e-05
40 *188:24 *491:10 0.000101769
41 *188:24 *523:85 0
42 *188:24 *538:80 0.000696701
43 *188:24 *551:54 0.000109693
44 *188:32 *2350:A2 3.18198e-05
45 *188:32 *190:20 4.92689e-05
46 *188:32 *190:22 0.000121307
47 *188:32 *190:24 9.28078e-06
48 *188:32 *199:56 3.77454e-05
49 *188:32 *205:18 0.000154391
50 *188:32 *205:45 0.000175903
51 *188:32 *546:63 4.67488e-05
52 *188:36 *199:56 2.62931e-05
53 *188:36 *205:45 0.00010947
54 *188:56 *2246:B 0
55 *188:56 *238:10 0.000160634
56 *188:56 *523:85 0
57 *188:56 *526:52 0.000284694
58 *188:71 *2246:A_N 0.00026025
59 *188:71 *2350:A2 4.9662e-05
60 *188:71 *350:16 1.03955e-05
61 *188:71 *537:58 6.70361e-05
62 *188:90 *2337:A2 0
63 *188:90 *2350:A2 7.35913e-05
64 *188:90 *519:61 0.000135313
65 *188:90 *538:86 0.00019012
66 *188:90 *538:103 7.88828e-05
67 *188:101 *190:20 0
68 *188:101 *514:12 0.000122407
69 *188:101 *525:112 0.000196925
70 *188:101 *538:80 8.17328e-05
71 *188:101 *555:60 6.87362e-05
*RES
1 *2196:X *188:10 48.8957 
2 *188:10 *188:12 15 
3 *188:12 *188:24 48.56 
4 *188:24 *188:32 35.1371 
5 *188:32 *188:36 1.595 
6 *188:36 *2391:B1 28.9036 
7 *188:36 *2247:B1 23 
8 *188:32 *188:56 19.0186 
9 *188:56 *2430:B1 48.0257 
10 *188:56 *188:71 18.0036 
11 *188:71 *2348:B1 23.4971 
12 *188:71 *188:90 36.0279 
13 *188:90 *2303:B1 23 
14 *188:24 *188:101 23.4307 
15 *188:101 *2276:B1 38 
16 *188:101 *2213:B1 45.4986 
17 *188:12 *2202:B1 23 
*END

*D_NET *189 0.00363323
*CONN
*I *2203:C I *D sky130_fd_sc_hd__nor3_1
*I *2200:D_N I *D sky130_fd_sc_hd__or4b_4
*I *2204:C I *D sky130_fd_sc_hd__nor3_1
*I *2198:A I *D sky130_fd_sc_hd__or3b_4
*I *2197:Y O *D sky130_fd_sc_hd__nand2_1
*CAP
1 *2203:C 0
2 *2200:D_N 6.0145e-05
3 *2204:C 6.46728e-05
4 *2198:A 2.48337e-05
5 *2197:Y 0.000411185
6 *189:36 0.000519431
7 *189:14 0.000154554
8 *189:10 0.000935519
9 *2198:A *2198:B 1.37232e-05
10 *2198:A *2218:A1 5.24529e-05
11 *2198:A *511:16 2.23325e-05
12 *2200:D_N *2203:A 5.67058e-05
13 *2200:D_N *530:6 5.50049e-05
14 *2200:D_N *530:14 0.000143655
15 *2204:C *2204:A 4.17736e-05
16 *2204:C *2218:A1 6.40579e-05
17 *2204:C *190:8 9.84794e-05
18 *2204:C *511:16 0.000182832
19 *189:10 *2448:A 0
20 *189:10 *489:10 8.06804e-06
21 *189:10 *500:10 0.000163352
22 *189:10 *500:28 7.1349e-05
23 *189:10 *500:32 3.22879e-05
24 *189:10 *511:10 0
25 *189:10 *511:14 0
26 *189:14 *190:107 6.12496e-06
27 *189:14 *511:34 0
28 *189:36 *2448:A 0.00014196
29 *189:36 *511:16 0.000141954
30 *189:36 *511:20 9.84851e-05
31 *189:36 *530:6 5.79042e-05
32 *189:36 *530:14 0
33 *189:36 *530:102 1.03836e-05
*RES
1 *2197:Y *189:10 44.5457 
2 *189:10 *189:14 15.8493 
3 *189:14 *2198:A 24.072 
4 *189:14 *2204:C 25.5271 
5 *189:10 *189:36 22.1879 
6 *189:36 *2200:D_N 25.0507 
7 *189:36 *2203:C 23 
*END

*D_NET *190 0.0124394
*CONN
*I *2212:A I *D sky130_fd_sc_hd__nor2_1
*I *2201:B1 I *D sky130_fd_sc_hd__a22oi_1
*I *2275:B1 I *D sky130_fd_sc_hd__a21oi_1
*I *2390:B1 I *D sky130_fd_sc_hd__a21oi_1
*I *2429:B1 I *D sky130_fd_sc_hd__a21oi_1
*I *2302:B1 I *D sky130_fd_sc_hd__a21oi_1
*I *2246:A_N I *D sky130_fd_sc_hd__and2b_1
*I *2347:B1 I *D sky130_fd_sc_hd__a21oi_1
*I *2198:X O *D sky130_fd_sc_hd__or3b_4
*CAP
1 *2212:A 0
2 *2201:B1 7.20777e-05
3 *2275:B1 0
4 *2390:B1 0
5 *2429:B1 0
6 *2302:B1 0.000126327
7 *2246:A_N 0.000512477
8 *2347:B1 5.34925e-05
9 *2198:X 2.01797e-05
10 *190:107 0.000557726
11 *190:69 0.000286298
12 *190:57 0.000635005
13 *190:24 0.000749672
14 *190:22 0.000383528
15 *190:20 0.000732324
16 *190:16 0.000626988
17 *190:10 0.000673778
18 *190:8 0.000862737
19 *2201:B1 *2201:A1 5.67058e-05
20 *2201:B1 *2202:A2 3.93777e-05
21 *2201:B1 *521:30 0.000400198
22 *2201:B1 *527:52 0.000296238
23 *2246:A_N *537:58 0.000175174
24 *2302:B1 *2302:A1 5.50049e-05
25 *2302:B1 *199:56 2.63049e-05
26 *2302:B1 *519:93 5.50106e-05
27 *2347:B1 *346:10 0.00010973
28 *2347:B1 *538:86 0.00010973
29 *190:8 *2218:A1 9.84794e-05
30 *190:10 *205:12 6.74097e-05
31 *190:10 *511:34 0
32 *190:10 *523:85 0
33 *190:10 *527:52 0.000163361
34 *190:10 *530:108 5.94125e-05
35 *190:16 *2276:A1 9.84794e-05
36 *190:16 *205:12 0.000127437
37 *190:16 *523:85 0
38 *190:16 *527:52 3.47781e-05
39 *190:16 *541:25 5.12254e-05
40 *190:16 *541:34 1.56762e-05
41 *190:20 *205:12 4.84045e-05
42 *190:20 *205:18 0
43 *190:20 *514:12 6.71018e-05
44 *190:20 *514:22 5.94125e-05
45 *190:20 *538:80 3.47781e-05
46 *190:22 *538:80 0.000130588
47 *190:24 *2350:A2 0.00010622
48 *190:24 *346:10 5.15096e-05
49 *190:24 *537:66 4.26048e-06
50 *190:24 *538:80 2.33661e-05
51 *190:24 *538:86 0.000290306
52 *190:57 *2469:A 5.67058e-05
53 *190:57 *538:74 3.90708e-05
54 *190:57 *538:80 0.000781042
55 *190:57 *553:6 0.000129522
56 *190:57 *553:69 0.000185428
57 *190:57 *555:60 0.000175903
58 *190:69 *2392:A3 1.75562e-05
59 *190:69 *2429:A2 1.75582e-05
60 *190:69 *2431:A3 1.05441e-05
61 *190:69 *197:72 4.45561e-05
62 *190:69 *199:62 2.74055e-05
63 *190:69 *205:55 2.93747e-05
64 *190:69 *492:16 0.000139357
65 *190:69 *492:29 0.000125561
66 *190:69 *538:74 0.000141154
67 *190:69 *552:44 0.000137651
68 *190:69 *553:6 9.84794e-05
69 *190:69 *553:12 9.5877e-05
70 *190:107 *2218:A2 2.33476e-05
71 *190:107 *2218:B1 9.75779e-05
72 *190:107 *199:31 2.11157e-05
73 *190:107 *205:12 1.33344e-05
74 *190:107 *209:10 2.93845e-05
75 *190:107 *272:18 0
76 *190:107 *511:34 0
77 *190:107 *530:108 1.01436e-05
78 *190:107 *551:92 0.000298755
79 *2204:C *190:8 9.84794e-05
80 *188:32 *190:20 4.92689e-05
81 *188:32 *190:22 0.000121307
82 *188:32 *190:24 9.28078e-06
83 *188:71 *2246:A_N 0.00026025
84 *188:101 *190:20 0
85 *189:14 *190:107 6.12496e-06
*RES
1 *2198:X *190:8 39.0979 
2 *190:8 *190:10 5.075 
3 *190:10 *190:16 21.5457 
4 *190:16 *190:20 20.7793 
5 *190:20 *190:22 1.90571 
6 *190:22 *190:24 4.37071 
7 *190:24 *2347:B1 39.5536 
8 *190:24 *2246:A_N 45.3121 
9 *190:22 *2302:B1 40.0507 
10 *190:20 *190:57 25.15 
11 *190:57 *190:69 37.4571 
12 *190:69 *2429:B1 23 
13 *190:57 *2390:B1 23 
14 *190:16 *2275:B1 23 
15 *190:10 *2201:B1 42.4329 
16 *190:8 *190:107 34.1785 
17 *190:107 *2212:A 23 
*END

*D_NET *191 0.0150821
*CONN
*I *2252:B1 I *D sky130_fd_sc_hd__o31a_1
*I *2281:B I *D sky130_fd_sc_hd__nand2_1
*I *2353:A2 I *D sky130_fd_sc_hd__a21o_1
*I *2398:A2 I *D sky130_fd_sc_hd__a21o_1
*I *2339:B1 I *D sky130_fd_sc_hd__o21a_1
*I *2229:B1 I *D sky130_fd_sc_hd__o21a_1
*I *2221:B I *D sky130_fd_sc_hd__nand2_1
*I *2199:X O *D sky130_fd_sc_hd__or4b_4
*CAP
1 *2252:B1 0
2 *2281:B 0
3 *2353:A2 7.34634e-05
4 *2398:A2 0.000137715
5 *2339:B1 0
6 *2229:B1 0
7 *2221:B 0.00020212
8 *2199:X 0.000330042
9 *191:74 0.000115035
10 *191:68 0.000434209
11 *191:62 0.000471157
12 *191:60 0.0012391
13 *191:51 0.00014576
14 *191:34 0.00127378
15 *191:32 0.00243816
16 *191:14 0.000566716
17 *191:10 0.000407364
18 *2221:B *2221:A 2.87566e-05
19 *2221:B *213:12 2.3615e-05
20 *2353:A2 *537:32 2.64616e-05
21 *2398:A2 *2340:B 8.48502e-06
22 *2398:A2 *2354:A 9.41704e-05
23 *2398:A2 *2398:B1 6.93408e-05
24 *2398:A2 *339:10 0.00022109
25 *191:10 *2228:A 7.73854e-05
26 *191:10 *507:12 3.98859e-05
27 *191:10 *511:54 2.93845e-05
28 *191:14 *546:74 0.000608643
29 *191:14 *551:125 0.000620173
30 *191:32 *2252:A2 0.000379126
31 *191:32 *2256:B 6.16531e-05
32 *191:32 *2259:C_N 4.43717e-05
33 *191:32 *192:30 3.72639e-05
34 *191:32 *192:36 5.81643e-05
35 *191:32 *249:8 8.94487e-05
36 *191:32 *250:10 7.45175e-05
37 *191:32 *546:74 5.67058e-05
38 *191:32 *551:125 0.000125567
39 *191:32 *551:141 0.000351867
40 *191:51 *2222:A 0.000290634
41 *191:51 *2229:A2 0.000101657
42 *191:51 *524:130 0
43 *191:51 *551:158 1.69668e-05
44 *191:60 *192:57 0.000197936
45 *191:60 *192:80 0
46 *191:60 *219:23 0
47 *191:60 *219:36 0
48 *191:60 *242:18 0
49 *191:60 *243:12 0
50 *191:60 *250:10 5.3365e-05
51 *191:60 *250:20 0
52 *191:60 *275:8 0.000378492
53 *191:60 *497:34 0.000154118
54 *191:60 *497:46 3.93526e-05
55 *191:60 *516:16 0
56 *191:60 *516:151 0
57 *191:60 *519:124 6.58373e-05
58 *191:62 *219:23 0
59 *191:62 *497:46 0.000225701
60 *191:68 *2340:B 3.84903e-05
61 *191:68 *219:23 0
62 *191:68 *294:70 0.000114074
63 *191:68 *339:10 9.41704e-05
64 *191:68 *497:46 2.70366e-05
65 *191:68 *537:32 0.000169097
66 *191:74 *2353:B1 8.02348e-05
67 *191:74 *2354:A 2.61595e-05
68 *191:74 *338:10 0.000108681
69 *191:74 *497:46 2.95125e-05
70 *181:16 *2221:B 0.000137651
71 *181:16 *191:32 0.000219383
72 *181:16 *191:34 0.00133932
73 *182:22 *191:74 0.000213551
*RES
1 *2199:X *191:10 42.9093 
2 *191:10 *191:14 21.815 
3 *191:14 *191:32 43.2157 
4 *191:32 *191:34 14.9143 
5 *191:34 *2221:B 26.5214 
6 *191:34 *191:51 34.0186 
7 *191:51 *2229:B1 23 
8 *191:32 *191:60 36.9779 
9 *191:60 *191:62 5.77929 
10 *191:62 *191:68 19.3086 
11 *191:68 *191:74 33.6664 
12 *191:74 *2339:B1 23 
13 *191:68 *2398:A2 26.5007 
14 *191:62 *2353:A2 39.0979 
15 *191:60 *2281:B 38 
16 *191:14 *2252:B1 23 
*END

*D_NET *192 0.020429
*CONN
*I *2201:B2 I *D sky130_fd_sc_hd__a22oi_1
*I *2259:A I *D sky130_fd_sc_hd__or3b_1
*I *2308:A1 I *D sky130_fd_sc_hd__o31ai_1
*I *2401:A I *D sky130_fd_sc_hd__nor2_1
*I *2358:B1 I *D sky130_fd_sc_hd__a31o_1
*I *2346:A_N I *D sky130_fd_sc_hd__and3b_1
*I *2226:B1 I *D sky130_fd_sc_hd__a21oi_1
*I *2235:B1 I *D sky130_fd_sc_hd__a31oi_1
*I *2200:X O *D sky130_fd_sc_hd__or4b_4
*CAP
1 *2201:B2 0.000234119
2 *2259:A 0
3 *2308:A1 0
4 *2401:A 0
5 *2358:B1 0
6 *2346:A_N 3.81385e-05
7 *2226:B1 0.000223405
8 *2235:B1 0.000506527
9 *2200:X 0.000185284
10 *192:110 0.00164835
11 *192:99 0.000110742
12 *192:93 0.00229319
13 *192:80 0.00141087
14 *192:70 0.00109127
15 *192:57 0.000795351
16 *192:36 0.00102094
17 *192:30 0.000980534
18 *192:22 0.00140046
19 *192:10 0.000849135
20 *192:8 0.000185284
21 *2201:B2 *2201:A1 5.67058e-05
22 *2201:B2 *2202:B2 2.02872e-05
23 *2201:B2 *2209:C1 0.000228001
24 *2201:B2 *521:30 0.000627832
25 *2201:B2 *551:54 8.9787e-05
26 *2201:B2 *551:58 9.84851e-05
27 *2226:B1 *2227:B2 7.53384e-06
28 *2226:B1 *326:26 0.000111023
29 *2235:B1 *2234:A1 0.00010757
30 *2235:B1 *2234:B1 0.000101698
31 *2235:B1 *225:6 1.57571e-05
32 *2235:B1 *226:10 7.53384e-06
33 *2235:B1 *551:141 0.000135143
34 *2346:A_N *2344:A 9.84851e-05
35 *2346:A_N *2344:B 8.22426e-05
36 *192:8 *2200:B 6.07611e-06
37 *192:8 *195:14 0.000338034
38 *192:8 *315:36 2.1199e-05
39 *192:8 *551:125 1.02219e-05
40 *192:22 *2277:B1 8.94394e-05
41 *192:22 *2458:A 0
42 *192:22 *197:18 0
43 *192:22 *201:10 0.000355023
44 *192:22 *507:12 5.72729e-05
45 *192:22 *521:30 0.000174149
46 *192:22 *521:58 0.000115022
47 *192:22 *524:96 0.000155032
48 *192:22 *551:54 5.40337e-05
49 *192:30 *2252:A2 0.000111852
50 *192:30 *197:18 0.000314157
51 *192:30 *246:8 0.000394086
52 *192:30 *249:8 6.38845e-05
53 *192:30 *506:16 1.37349e-05
54 *192:36 *2259:C_N 2.93845e-05
55 *192:36 *551:141 3.39986e-05
56 *192:57 *223:25 2.8241e-05
57 *192:57 *248:10 8.4047e-05
58 *192:57 *250:10 0.000605214
59 *192:70 *247:14 3.31683e-05
60 *192:70 *250:10 0
61 *192:70 *277:8 1.22803e-05
62 *192:70 *326:26 5.32588e-05
63 *192:70 *506:16 7.81176e-05
64 *192:80 *2283:B 0.000204337
65 *192:80 *2344:A 0.000223698
66 *192:80 *2344:B 0
67 *192:80 *2351:B1 0
68 *192:80 *250:20 1.22906e-05
69 *192:80 *276:10 0.000166522
70 *192:80 *277:8 0.000168754
71 *192:80 *279:12 0
72 *192:80 *336:8 0
73 *192:80 *343:6 0.000221997
74 *192:80 *475:94 0.000171941
75 *192:80 *497:34 1.62015e-05
76 *192:80 *497:46 0.000130695
77 *192:80 *519:124 0
78 *192:80 *542:69 0
79 *192:93 *2344:B 6.53382e-05
80 *192:93 *2351:B1 5.07481e-05
81 *192:93 *343:6 1.21972e-05
82 *192:93 *343:23 0.000103525
83 *192:99 *343:23 6.79006e-05
84 *192:99 *355:10 4.21594e-06
85 *192:99 *357:8 0
86 *192:99 *454:32 0
87 *192:110 *343:23 2.38288e-05
88 *192:110 *403:8 6.07611e-06
89 *192:110 *523:85 4.16661e-05
90 *192:110 *535:62 0
91 *2195:A1 *192:8 0.000204337
92 *2209:A2 *2201:B2 6.17437e-06
93 *2209:A2 *192:22 7.14493e-05
94 *181:16 *192:30 0.000116318
95 *183:24 *192:8 3.70187e-05
96 *188:24 *2201:B2 1.57571e-05
97 *191:32 *192:30 3.72639e-05
98 *191:32 *192:36 5.81643e-05
99 *191:60 *192:57 0.000197936
100 *191:60 *192:80 0
*RES
1 *2200:X *192:8 43.075 
2 *192:8 *192:10 15 
3 *192:10 *192:22 44.21 
4 *192:22 *192:30 43.0086 
5 *192:30 *192:36 3.52143 
6 *192:36 *2235:B1 32.1557 
7 *192:36 *192:57 38.2443 
8 *192:57 *2226:B1 27.4329 
9 *192:57 *192:70 19.785 
10 *192:70 *192:80 33.8293 
11 *192:80 *2346:A_N 24.5743 
12 *192:80 *192:93 8.28571 
13 *192:93 *192:99 32.2579 
14 *192:99 *2358:B1 23 
15 *192:93 *192:110 35.6314 
16 *192:110 *2401:A 38 
17 *192:70 *2308:A1 38 
18 *192:30 *2259:A 23 
19 *192:10 *2201:B2 31.7621 
*END

*D_NET *193 0.000583026
*CONN
*I *2202:B2 I *D sky130_fd_sc_hd__o22a_1
*I *2201:Y O *D sky130_fd_sc_hd__a22oi_1
*CAP
1 *2202:B2 7.62755e-05
2 *2201:Y 7.62755e-05
3 *2202:B2 *2201:A1 8.6949e-05
4 *2202:B2 *2202:A2 4.79641e-05
5 *2202:B2 *551:58 9.84851e-05
6 *2201:B2 *2202:B2 2.02872e-05
7 *188:24 *2202:B2 0.000176789
*RES
1 *2201:Y *2202:B2 49.0243 
*END

*D_NET *194 0.000425138
*CONN
*I *2209:C1 I *D sky130_fd_sc_hd__a311o_1
*I *2202:X O *D sky130_fd_sc_hd__o22a_1
*CAP
1 *2209:C1 5.44657e-05
2 *2202:X 5.44657e-05
3 *2209:C1 *551:54 8.82055e-05
4 *2201:B2 *2209:C1 0.000228001
*RES
1 *2202:X *2209:C1 48.5271 
*END

*D_NET *195 0.00216776
*CONN
*I *2209:A3 I *D sky130_fd_sc_hd__a311o_1
*I *2203:Y O *D sky130_fd_sc_hd__nor3_1
*CAP
1 *2209:A3 0
2 *2203:Y 0.000510287
3 *195:14 0.000510287
4 *195:14 *2200:B 7.75329e-06
5 *195:14 *511:34 0.000210962
6 *195:14 *511:36 0.00012612
7 *195:14 *511:46 9.84851e-05
8 *195:14 *551:125 0.000365829
9 *192:8 *195:14 0.000338034
*RES
1 *2203:Y *195:14 48.6264 
2 *195:14 *2209:A3 38 
*END

*D_NET *196 0.00432251
*CONN
*I *2219:A1 I *D sky130_fd_sc_hd__a32o_1
*I *2274:B1 I *D sky130_fd_sc_hd__o21a_1
*I *2493:A I *D sky130_fd_sc_hd__clkbuf_2
*I *2204:Y O *D sky130_fd_sc_hd__nor3_1
*CAP
1 *2219:A1 0
2 *2274:B1 0.000537909
3 *2493:A 0
4 *2204:Y 0.000317396
5 *196:23 0.000799923
6 *196:12 0.000262013
7 *196:10 0.000317396
8 *2274:B1 *203:10 0
9 *2274:B1 *204:10 0
10 *2274:B1 *205:120 1.14452e-05
11 *2274:B1 *267:6 5.67058e-05
12 *2274:B1 *270:20 1.24376e-05
13 *2274:B1 *527:79 1.94522e-05
14 *2274:B1 *544:29 0.000105062
15 *2274:B1 *544:48 0
16 *2274:B1 *549:39 0.000216946
17 *2274:B1 *557:22 0.000212621
18 *196:10 *2204:A 0.00014196
19 *196:10 *2218:A1 0.000192302
20 *196:10 *2218:A2 2.24608e-05
21 *196:10 *199:18 8.62206e-05
22 *196:10 *525:129 0.000110922
23 *196:23 *199:18 5.3304e-05
24 *196:23 *204:10 0
25 *196:23 *205:120 0.000616336
26 *196:23 *525:129 0.000229693
*RES
1 *2204:Y *196:10 43.51 
2 *196:10 *196:12 15 
3 *196:12 *2493:A 23 
4 *196:12 *196:23 22.6436 
5 *196:23 *2274:B1 48.8129 
6 *196:23 *2219:A1 38 
*END

*D_NET *197 0.0149102
*CONN
*I *2206:B I *D sky130_fd_sc_hd__or2_1
*I *2218:B2 I *D sky130_fd_sc_hd__a22o_1
*I *2392:A3 I *D sky130_fd_sc_hd__a32o_1
*I *2431:A3 I *D sky130_fd_sc_hd__a32o_1
*I *2277:A3 I *D sky130_fd_sc_hd__a32o_1
*I *2248:A3 I *D sky130_fd_sc_hd__a32o_1
*I *2305:A3 I *D sky130_fd_sc_hd__a32o_1
*I *2349:A3 I *D sky130_fd_sc_hd__a32o_1
*I *2205:X O *D sky130_fd_sc_hd__and4b_2
*CAP
1 *2206:B 0
2 *2218:B2 4.20797e-05
3 *2392:A3 0.000152531
4 *2431:A3 0.000289577
5 *2277:A3 0
6 *2248:A3 0.000119521
7 *2305:A3 0
8 *2349:A3 0.000159917
9 *2205:X 0.000174676
10 *197:135 0.000194946
11 *197:116 0.00136943
12 *197:72 0.00129464
13 *197:62 0.00220124
14 *197:26 0.000317327
15 *197:20 0.000633998
16 *197:18 0.000818502
17 *197:12 0.000677746
18 *197:10 0.000174676
19 *2218:B2 *2204:B 0
20 *2218:B2 *2218:A1 7.25611e-05
21 *2218:B2 *2218:B1 3.7681e-05
22 *2248:A3 *205:55 3.7122e-06
23 *2248:A3 *240:8 0.000183733
24 *2248:A3 *529:77 4.5051e-05
25 *2349:A3 *2305:B1 1.45295e-05
26 *2349:A3 *2349:A1 9.48923e-06
27 *2349:A3 *2454:A 0.000318387
28 *2349:A3 *519:114 6.02598e-05
29 *2349:A3 *519:116 2.98648e-05
30 *2392:A3 *2392:B1 2.39868e-05
31 *2392:A3 *2429:A2 0
32 *2392:A3 *199:56 5.50106e-05
33 *2392:A3 *199:62 0.000134745
34 *2392:A3 *205:45 4.56219e-05
35 *2392:A3 *205:55 3.77543e-05
36 *2392:A3 *205:81 4.26942e-06
37 *2431:A3 *2392:B2 7.1459e-05
38 *2431:A3 *2429:A2 0.000252877
39 *2431:A3 *492:29 1.15883e-05
40 *2431:A3 *492:31 1.14987e-05
41 *2431:A3 *532:12 0.000135547
42 *2431:A3 *552:44 3.15684e-05
43 *2431:A3 *552:50 0.000268834
44 *197:10 *230:8 0.000140259
45 *197:10 *502:10 2.29192e-05
46 *197:10 *530:61 0.000111852
47 *197:18 *2277:B1 0
48 *197:18 *274:8 0
49 *197:18 *326:12 1.25306e-05
50 *197:18 *326:16 0
51 *197:18 *502:10 0.00014196
52 *197:18 *520:124 4.39488e-05
53 *197:18 *541:18 1.14452e-05
54 *197:20 *2277:B1 0
55 *197:20 *2305:B1 0
56 *197:20 *272:18 2.5812e-05
57 *197:20 *303:8 0.000238454
58 *197:20 *326:65 9.18447e-05
59 *197:20 *541:18 0.000213847
60 *197:26 *2454:A 7.42621e-05
61 *197:26 *303:8 0.000190218
62 *197:26 *519:116 7.88926e-05
63 *197:26 *538:51 0
64 *197:26 *538:74 0
65 *197:62 *1978:A_N 2.02872e-05
66 *197:62 *2195:B1 2.93747e-05
67 *197:62 *2195:D1 2.93747e-05
68 *197:62 *315:23 0.000348911
69 *197:62 *326:12 5.93544e-05
70 *197:72 *2209:B1 0.000137788
71 *197:72 *2390:A2 0
72 *197:72 *492:16 0.000229608
73 *197:72 *511:77 2.96154e-05
74 *197:72 *552:8 0
75 *197:72 *552:44 0.000101527
76 *197:116 *1978:A_N 8.85483e-05
77 *197:116 *2218:A1 0.00010718
78 *197:116 *198:12 7.44354e-05
79 *197:116 *200:8 6.54588e-05
80 *197:116 *205:12 4.96264e-05
81 *197:116 *315:23 1.32314e-05
82 *197:116 *315:36 4.34745e-05
83 *197:116 *551:76 0.000175686
84 *197:116 *551:92 5.31444e-05
85 *197:135 *2218:A1 8.48502e-06
86 *197:135 *2218:B1 5.3304e-05
87 *197:135 *198:12 0
88 *197:135 *199:31 3.39096e-05
89 *197:135 *525:129 0.000112604
90 *197:135 *527:44 1.14154e-05
91 *2195:A1 *197:62 0.000135037
92 *2195:A1 *197:72 0.000215782
93 *2210:B *197:18 5.67058e-05
94 *2391:B1 *2392:A3 0
95 *181:16 *197:18 0.000313052
96 *183:24 *197:72 4.73716e-05
97 *184:8 *197:72 0
98 *186:10 *197:72 0
99 *190:69 *2392:A3 1.75562e-05
100 *190:69 *2431:A3 1.05441e-05
101 *190:69 *197:72 4.45561e-05
102 *192:22 *197:18 0
103 *192:30 *197:18 0.000314157
*RES
1 *2205:X *197:10 41.1279 
2 *197:10 *197:12 15 
3 *197:12 *197:18 26.5586 
4 *197:18 *197:20 8.94857 
5 *197:20 *197:26 19.1843 
6 *197:26 *2349:A3 28.2148 
7 *197:26 *2305:A3 23 
8 *197:20 *2248:A3 41.0036 
9 *197:18 *2277:A3 38 
10 *197:12 *197:62 5.38571 
11 *197:62 *197:72 30.6186 
12 *197:72 *2431:A3 44.7529 
13 *197:72 *2392:A3 42.1636 
14 *197:62 *197:116 48.3529 
15 *197:116 *2218:B2 24.4707 
16 *197:116 *197:135 33.8529 
17 *197:135 *2206:B 23 
*END

*D_NET *198 0.000696574
*CONN
*I *2208:A3 I *D sky130_fd_sc_hd__a32o_1
*I *2206:X O *D sky130_fd_sc_hd__or2_1
*CAP
1 *2208:A3 0
2 *2206:X 0.000210421
3 *198:12 0.000210421
4 *198:12 *2208:B2 2.93747e-05
5 *198:12 *527:44 0.000151634
6 *198:12 *551:76 2.02872e-05
7 *197:116 *198:12 7.44354e-05
8 *197:135 *198:12 0
*RES
1 *2206:X *198:12 27.495 
2 *198:12 *2208:A3 23 
*END

*D_NET *199 0.0126048
*CONN
*I *2278:A2 I *D sky130_fd_sc_hd__a221o_1
*I *2304:B I *D sky130_fd_sc_hd__and2_1
*I *2393:A2 I *D sky130_fd_sc_hd__a211o_1
*I *2349:B1 I *D sky130_fd_sc_hd__a32o_1
*I *2248:B1 I *D sky130_fd_sc_hd__a32o_1
*I *2208:B1 I *D sky130_fd_sc_hd__a32o_1
*I *2218:A2 I *D sky130_fd_sc_hd__a22o_1
*I *2207:X O *D sky130_fd_sc_hd__and4bb_2
*CAP
1 *2278:A2 8.84773e-06
2 *2304:B 0
3 *2393:A2 0
4 *2349:B1 0
5 *2248:B1 0
6 *2208:B1 0.000272328
7 *2218:A2 4.4855e-05
8 *2207:X 0.000487146
9 *199:88 0.000115601
10 *199:72 0.000191278
11 *199:62 0.000653648
12 *199:56 0.00139145
13 *199:52 0.00107598
14 *199:48 0.000551051
15 *199:31 0.000825222
16 *199:18 0.000805196
17 *2208:B1 *527:44 0.000386431
18 *2208:B1 *551:92 0.000120217
19 *2218:A2 *525:129 1.97789e-05
20 *2278:A2 *270:20 7.27694e-06
21 *2278:A2 *541:45 7.27694e-06
22 *199:18 *2214:B_N 3.53115e-05
23 *199:18 *2214:D 0.000184527
24 *199:18 *205:12 0.00014196
25 *199:18 *205:120 0.000156421
26 *199:18 *209:10 3.02296e-05
27 *199:18 *211:8 0.000112589
28 *199:18 *525:129 0.000109064
29 *199:31 *203:10 0.000166522
30 *199:31 *204:10 5.35426e-05
31 *199:31 *209:10 2.24608e-05
32 *199:31 *525:112 0.000100185
33 *199:31 *525:129 0
34 *199:48 *2249:B1 0.000155068
35 *199:48 *525:112 6.5074e-05
36 *199:48 *544:29 0
37 *199:52 *2249:B1 0.000166522
38 *199:52 *514:33 0
39 *199:52 *519:93 0.000561346
40 *199:52 *525:112 0.00013432
41 *199:52 *544:29 0
42 *199:52 *554:92 9.85586e-06
43 *199:56 *2302:A1 2.93747e-05
44 *199:56 *2391:A2 0.000182832
45 *199:56 *2391:B2 2.80512e-05
46 *199:56 *205:45 2.25419e-05
47 *199:56 *298:10 9.84794e-05
48 *199:56 *394:12 2.93747e-05
49 *199:56 *435:10 4.08664e-05
50 *199:56 *519:93 0.000148571
51 *199:56 *546:63 0.000100069
52 *199:62 *2429:A2 0.000134904
53 *199:62 *2454:A 0.000158601
54 *199:62 *205:55 0.000286205
55 *199:62 *435:10 0.00021677
56 *199:62 *552:26 3.45774e-05
57 *199:72 *2248:A1 5.13978e-05
58 *199:72 *2248:B2 9.67842e-05
59 *199:72 *2349:A1 6.17437e-06
60 *199:72 *2454:A 6.94112e-06
61 *199:72 *520:98 0.000128679
62 *199:72 *529:77 0.000199347
63 *199:72 *552:26 0.000126457
64 *199:88 *205:96 8.30566e-06
65 *199:88 *435:10 0.000157023
66 *199:88 *535:79 0
67 *199:88 *553:18 0.000153218
68 *2302:B1 *199:56 2.63049e-05
69 *2391:B1 *199:56 0.000442771
70 *2392:A3 *199:56 5.50106e-05
71 *2392:A3 *199:62 0.000134745
72 *188:32 *199:56 3.77454e-05
73 *188:36 *199:56 2.62931e-05
74 *190:69 *199:62 2.74055e-05
75 *190:107 *2218:A2 2.33476e-05
76 *190:107 *199:31 2.11157e-05
77 *196:10 *2218:A2 2.24608e-05
78 *196:10 *199:18 8.62206e-05
79 *196:23 *199:18 5.3304e-05
80 *197:135 *199:31 3.39096e-05
*RES
1 *2207:X *199:18 49.2582 
2 *199:18 *2218:A2 39.0254 
3 *199:18 *199:31 5.99679 
4 *199:31 *2208:B1 43.3132 
5 *199:31 *199:48 6.17286 
6 *199:48 *199:52 23.2443 
7 *199:52 *199:56 17.1929 
8 *199:56 *199:62 10.7818 
9 *199:62 *199:72 34.5779 
10 *199:72 *2248:B1 23 
11 *199:62 *2349:B1 23 
12 *199:56 *199:88 32.61 
13 *199:88 *2393:A2 23 
14 *199:52 *2304:B 23 
15 *199:48 *2278:A2 38.1709 
*END

*D_NET *200 0.00244438
*CONN
*I *2209:B1 I *D sky130_fd_sc_hd__a311o_1
*I *2208:X O *D sky130_fd_sc_hd__a32o_1
*CAP
1 *2209:B1 7.25536e-05
2 *2208:X 0.000700992
3 *200:8 0.000773545
4 *2209:B1 *492:16 6.33511e-05
5 *200:8 *1978:A_N 4.5051e-05
6 *200:8 *511:77 5.50106e-05
7 *200:8 *551:76 0.000530627
8 *197:72 *2209:B1 0.000137788
9 *197:116 *200:8 6.54588e-05
*RES
1 *2208:X *200:8 48.6264 
2 *200:8 *2209:B1 39.9057 
*END

*D_NET *201 0.00126921
*CONN
*I *2210:C I *D sky130_fd_sc_hd__or3_1
*I *2209:X O *D sky130_fd_sc_hd__a311o_1
*CAP
1 *2210:C 0
2 *2209:X 0.000336366
3 *201:10 0.000336366
4 *201:10 *520:124 0.000213551
5 *201:10 *524:96 1.86869e-05
6 *201:10 *530:61 9.21347e-06
7 *201:10 *546:74 0
8 *192:22 *201:10 0.000355023
*RES
1 *2209:X *201:10 45.2707 
2 *201:10 *2210:C 38 
*END

*D_NET *202 0.00588849
*CONN
*I *2236:B1 I *D sky130_fd_sc_hd__a21o_1
*I *2238:C I *D sky130_fd_sc_hd__and3_1
*I *2216:C I *D sky130_fd_sc_hd__and3_1
*I *2212:B I *D sky130_fd_sc_hd__nor2_1
*I *2218:B1 I *D sky130_fd_sc_hd__a22o_1
*I *2211:X O *D sky130_fd_sc_hd__and2_1
*CAP
1 *2236:B1 0
2 *2238:C 0
3 *2216:C 0
4 *2212:B 0
5 *2218:B1 0.000192869
6 *2211:X 0
7 *202:68 0.000437522
8 *202:55 0.00026817
9 *202:26 0.000824335
10 *202:16 0.00109811
11 *202:6 0.000860973
12 *202:4 0.000563679
13 *2218:B1 *2218:A1 4.03747e-05
14 *2218:B1 *203:10 4.96717e-05
15 *2218:B1 *208:12 7.89128e-06
16 *202:6 *525:129 2.93845e-05
17 *202:6 *549:67 3.53115e-05
18 *202:16 *207:8 3.70071e-06
19 *202:16 *208:12 5.08637e-05
20 *202:16 *231:10 5.31444e-05
21 *202:16 *525:129 0.000141327
22 *202:26 *2216:A 0.000184527
23 *202:26 *2219:A2 7.07921e-05
24 *202:26 *205:120 1.19077e-05
25 *202:26 *208:12 5.12388e-05
26 *202:26 *210:10 3.22879e-05
27 *202:26 *544:48 1.70074e-05
28 *202:55 *2237:A 0
29 *202:55 *2238:A 1.95448e-05
30 *202:55 *2238:B 7.38842e-05
31 *202:55 *228:8 0
32 *202:55 *229:21 5.21127e-05
33 *202:55 *232:12 5.31444e-05
34 *202:55 *232:23 6.46393e-05
35 *202:55 *233:8 3.11837e-05
36 *202:55 *545:120 0
37 *202:55 *545:128 4.4382e-05
38 *202:68 *2237:A 0.000111852
39 *202:68 *227:10 0.000219882
40 *202:68 *545:120 0
41 *202:68 *555:72 4.21594e-06
42 *2218:B2 *2218:B1 3.7681e-05
43 *190:107 *2218:B1 9.75779e-05
44 *197:135 *2218:B1 5.3304e-05
*RES
1 *2211:X *202:4 23 
2 *202:4 *202:6 2.52714 
3 *202:6 *202:16 37.4779 
4 *202:16 *202:26 10.5643 
5 *202:26 *2218:B1 27.4743 
6 *202:26 *2212:B 23 
7 *202:16 *2216:C 23 
8 *202:6 *202:55 36.3593 
9 *202:55 *2238:C 23 
10 *202:4 *202:68 37.9543 
11 *202:68 *2236:B1 23 
*END

*D_NET *203 0.000629684
*CONN
*I *2213:B2 I *D sky130_fd_sc_hd__o22a_1
*I *2212:Y O *D sky130_fd_sc_hd__nor2_1
*CAP
1 *2213:B2 0
2 *2212:Y 0.000164722
3 *203:10 0.000164722
4 *203:10 *204:10 8.4047e-05
5 *203:10 *544:29 0
6 *2218:B1 *203:10 4.96717e-05
7 *2274:B1 *203:10 0
8 *199:31 *203:10 0.000166522
*RES
1 *2212:Y *203:10 41.3557 
2 *203:10 *2213:B2 38 
*END

*D_NET *204 0.00121673
*CONN
*I *2220:A I *D sky130_fd_sc_hd__or3_1
*I *2213:X O *D sky130_fd_sc_hd__o22a_1
*CAP
1 *2220:A 0
2 *2213:X 0.000374675
3 *204:10 0.000374675
4 *204:10 *209:10 0.000135557
5 *204:10 *210:10 0.000137788
6 *204:10 *527:44 2.47815e-05
7 *2213:B1 *204:10 3.16665e-05
8 *2274:B1 *204:10 0
9 *196:23 *204:10 0
10 *199:31 *204:10 5.35426e-05
11 *203:10 *204:10 8.4047e-05
*RES
1 *2213:X *204:10 44.7736 
2 *204:10 *2220:A 38 
*END

*D_NET *205 0.0162992
*CONN
*I *2219:B1 I *D sky130_fd_sc_hd__a32o_1
*I *2249:A2 I *D sky130_fd_sc_hd__a221o_1
*I *2432:A2 I *D sky130_fd_sc_hd__a211o_1
*I *2392:B1 I *D sky130_fd_sc_hd__a32o_1
*I *2277:B1 I *D sky130_fd_sc_hd__a32o_1
*I *2305:B1 I *D sky130_fd_sc_hd__a32o_1
*I *2350:A2 I *D sky130_fd_sc_hd__a221o_1
*I *2214:X O *D sky130_fd_sc_hd__and4bb_2
*CAP
1 *2219:B1 0
2 *2249:A2 6.39928e-06
3 *2432:A2 0
4 *2392:B1 7.85366e-06
5 *2277:B1 0.000434821
6 *2305:B1 0.000163974
7 *2350:A2 0.000306467
8 *2214:X 0
9 *205:120 0.000668713
10 *205:96 0.000228911
11 *205:81 0.000262536
12 *205:57 0.000598795
13 *205:55 0.00110443
14 *205:45 0.00189394
15 *205:18 0.00144793
16 *205:12 0.00119137
17 *205:4 0.00147596
18 *2249:A2 *2249:A1 1.46586e-05
19 *2249:A2 *2249:C1 1.46586e-05
20 *2277:B1 *2458:A 9.24795e-06
21 *2277:B1 *521:34 0.000120217
22 *2277:B1 *521:58 0.000255266
23 *2277:B1 *524:83 4.37645e-05
24 *2277:B1 *524:96 5.50049e-05
25 *2277:B1 *541:18 0
26 *2305:B1 *2248:A2 4.77911e-05
27 *2305:B1 *519:114 2.39868e-05
28 *2305:B1 *521:58 8.85219e-05
29 *2305:B1 *538:51 6.07611e-06
30 *2305:B1 *538:74 6.54368e-05
31 *2350:A2 *2350:A1 7.67478e-05
32 *2350:A2 *347:8 0.000119315
33 *2350:A2 *350:16 0.000153327
34 *2350:A2 *490:55 4.74498e-05
35 *2350:A2 *526:52 1.06628e-05
36 *2350:A2 *537:66 9.28078e-06
37 *2350:A2 *546:63 7.98243e-05
38 *2350:A2 *555:43 4.15283e-06
39 *205:12 *511:14 0.000110379
40 *205:12 *514:8 0
41 *205:12 *514:12 0
42 *205:12 *514:22 6.07611e-06
43 *205:12 *521:12 0.000220001
44 *205:12 *521:30 8.11552e-05
45 *205:12 *523:85 0
46 *205:12 *526:52 1.69668e-05
47 *205:12 *527:52 0.000188926
48 *205:12 *530:108 6.16531e-05
49 *205:12 *551:92 0
50 *205:18 *514:22 0
51 *205:18 *526:52 0.000218962
52 *205:18 *546:63 5.63476e-05
53 *205:18 *555:60 4.15283e-06
54 *205:45 *2391:B2 0.000196424
55 *205:55 *2192:A 0.00023526
56 *205:55 *2192:B 0.000190163
57 *205:55 *2248:A1 0.000136851
58 *205:55 *2429:A2 2.68177e-05
59 *205:55 *526:78 4.15283e-06
60 *205:55 *529:71 1.22803e-05
61 *205:55 *529:77 7.00439e-06
62 *205:55 *552:14 2.03764e-06
63 *205:55 *552:26 2.38288e-05
64 *205:96 *2432:B1 0.000139352
65 *205:96 *552:44 0.000167797
66 *205:96 *552:50 3.46744e-05
67 *205:96 *553:12 2.2539e-05
68 *205:96 *553:18 0.000338668
69 *205:120 *2219:A2 1.45295e-05
70 *205:120 *525:129 1.21972e-05
71 *205:120 *528:55 1.09886e-05
72 *205:120 *549:67 0
73 *2248:A3 *205:55 3.7122e-06
74 *2274:B1 *205:120 1.14452e-05
75 *2348:B1 *2350:A2 1.14154e-05
76 *2349:A3 *2305:B1 1.45295e-05
77 *2391:B1 *205:45 0.000199033
78 *2392:A3 *2392:B1 2.39868e-05
79 *2392:A3 *205:45 4.56219e-05
80 *2392:A3 *205:55 3.77543e-05
81 *2392:A3 *205:81 4.26942e-06
82 *188:32 *2350:A2 3.18198e-05
83 *188:32 *205:18 0.000154391
84 *188:32 *205:45 0.000175903
85 *188:36 *205:45 0.00010947
86 *188:71 *2350:A2 4.9662e-05
87 *188:90 *2350:A2 7.35913e-05
88 *190:10 *205:12 6.74097e-05
89 *190:16 *205:12 0.000127437
90 *190:20 *205:12 4.84045e-05
91 *190:20 *205:18 0
92 *190:24 *2350:A2 0.00010622
93 *190:69 *205:55 2.93747e-05
94 *190:107 *205:12 1.33344e-05
95 *192:22 *2277:B1 8.94394e-05
96 *196:23 *205:120 0.000616336
97 *197:18 *2277:B1 0
98 *197:20 *2277:B1 0
99 *197:20 *2305:B1 0
100 *197:116 *205:12 4.96264e-05
101 *199:18 *205:12 0.00014196
102 *199:18 *205:120 0.000156421
103 *199:56 *205:45 2.25419e-05
104 *199:62 *205:55 0.000286205
105 *199:88 *205:96 8.30566e-06
106 *202:26 *205:120 1.19077e-05
*RES
1 *2214:X *205:4 23 
2 *205:4 *205:12 30.8464 
3 *205:12 *205:18 6.79429 
4 *205:18 *2350:A2 45.5504 
5 *205:18 *205:45 27.8636 
6 *205:45 *205:55 45.6393 
7 *205:55 *205:57 15 
8 *205:57 *2305:B1 41.5939 
9 *205:57 *2277:B1 47.5804 
10 *205:45 *205:81 0.497143 
11 *205:81 *2392:B1 23.2796 
12 *205:81 *205:96 35.2407 
13 *205:96 *2432:A2 23 
14 *205:12 *2249:A2 38.1709 
15 *205:4 *205:120 40.4296 
16 *205:120 *2219:B1 23 
*END

*D_NET *206 0.00060999
*CONN
*I *2219:A2 I *D sky130_fd_sc_hd__a32o_1
*I *2215:X O *D sky130_fd_sc_hd__a22o_1
*CAP
1 *2219:A2 9.40446e-05
2 *2215:X 9.40446e-05
3 *2219:A2 *208:12 0.000336579
4 *202:26 *2219:A2 7.07921e-05
5 *205:120 *2219:A2 1.45295e-05
*RES
1 *2215:X *2219:A2 49.8529 
*END

*D_NET *207 0.00089239
*CONN
*I *2217:A I *D sky130_fd_sc_hd__inv_2
*I *2243:A I *D sky130_fd_sc_hd__nor2_1
*I *2242:A I *D sky130_fd_sc_hd__and2_1
*I *2216:X O *D sky130_fd_sc_hd__and3_1
*CAP
1 *2217:A 4.88222e-05
2 *2243:A 1.96641e-05
3 *2242:A 2.268e-05
4 *2216:X 0.00010405
5 *207:14 0.000171225
6 *207:8 0.000281753
7 *2217:A *527:87 0
8 *2217:A *528:19 2.99565e-05
9 *2242:A *2242:B 3.22879e-05
10 *2243:A *2242:B 9.90933e-06
11 *207:8 *208:12 0.00010018
12 *207:14 *2242:B 2.4754e-05
13 *207:14 *527:100 0
14 *207:14 *528:19 4.3407e-05
15 *207:14 *549:52 0
16 *202:16 *207:8 3.70071e-06
*RES
1 *2216:X *207:8 39.5743 
2 *207:8 *207:14 17.5271 
3 *207:14 *2242:A 23.6214 
4 *207:14 *2243:A 23.4971 
5 *207:8 *2217:A 39.2014 
*END

*D_NET *208 0.0019154
*CONN
*I *2219:A3 I *D sky130_fd_sc_hd__a32o_1
*I *2217:Y O *D sky130_fd_sc_hd__inv_2
*CAP
1 *2219:A3 0
2 *2217:Y 0.000654524
3 *208:12 0.000654524
4 *208:12 *2216:A 4.25832e-05
5 *208:12 *527:87 6.36377e-06
6 *208:12 *544:48 1.06533e-05
7 *2218:B1 *208:12 7.89128e-06
8 *2219:A2 *208:12 0.000336579
9 *202:16 *208:12 5.08637e-05
10 *202:26 *208:12 5.12388e-05
11 *207:8 *208:12 0.00010018
*RES
1 *2217:Y *208:12 34.5171 
2 *208:12 *2219:A3 23 
*END

*D_NET *209 0.000601316
*CONN
*I *2220:B I *D sky130_fd_sc_hd__or3_1
*I *2218:X O *D sky130_fd_sc_hd__a22o_1
*CAP
1 *2220:B 0
2 *2218:X 0.000191842
3 *209:10 0.000191842
4 *209:10 *489:76 0
5 *190:107 *209:10 2.93845e-05
6 *199:18 *209:10 3.02296e-05
7 *199:31 *209:10 2.24608e-05
8 *204:10 *209:10 0.000135557
*RES
1 *2218:X *209:10 41.5836 
2 *209:10 *2220:B 38 
*END

*D_NET *210 0.000440134
*CONN
*I *2220:C I *D sky130_fd_sc_hd__or3_1
*I *2219:X O *D sky130_fd_sc_hd__a32o_1
*CAP
1 *2220:C 0
2 *2219:X 0.000135029
3 *210:10 0.000135029
4 *202:26 *210:10 3.22879e-05
5 *204:10 *210:10 0.000137788
*RES
1 *2219:X *210:10 40.5271 
2 *210:10 *2220:C 38 
*END

*D_NET *211 0.00699125
*CONN
*I *2228:A I *D sky130_fd_sc_hd__or2_1
*I *2220:X O *D sky130_fd_sc_hd__or3_1
*CAP
1 *2228:A 0.000961023
2 *2220:X 0.00162681
3 *211:8 0.00258783
4 *2228:A *2251:A1 3.7122e-06
5 *2228:A *2257:A 7.88926e-05
6 *2228:A *2257:B 0.000148698
7 *2228:A *2257:C 3.8382e-05
8 *2228:A *2280:B 0.000112662
9 *2228:A *511:54 0.000139357
10 *211:8 *2214:B_N 0.000263534
11 *211:8 *2214:D 1.32939e-05
12 *211:8 *489:24 0.000253395
13 *211:8 *489:26 4.5051e-05
14 *211:8 *511:54 1.03836e-05
15 *211:8 *525:129 7.88926e-05
16 *211:8 *530:51 0.00043937
17 *191:10 *2228:A 7.73854e-05
18 *199:18 *211:8 0.000112589
*RES
1 *2220:X *211:8 47.8157 
2 *211:8 *2228:A 42.6993 
*END

*D_NET *212 0.000254157
*CONN
*I *2222:B I *D sky130_fd_sc_hd__xnor2_1
*I *2221:Y O *D sky130_fd_sc_hd__nand2_1
*CAP
1 *2222:B 0
2 *2221:Y 0.000106652
3 *212:8 0.000106652
4 *212:8 *2222:A 0
5 *212:8 *213:12 4.08537e-05
6 *212:8 *543:90 0
*RES
1 *2221:Y *212:8 39.9057 
2 *212:8 *2222:B 38 
*END

*D_NET *213 0.00249496
*CONN
*I *2223:B I *D sky130_fd_sc_hd__nand2_1
*I *2224:B I *D sky130_fd_sc_hd__xnor2_1
*I *2222:Y O *D sky130_fd_sc_hd__xnor2_1
*CAP
1 *2223:B 0.000509498
2 *2224:B 0
3 *2222:Y 0
4 *213:12 0.000198361
5 *213:4 0.000707859
6 *2223:B *2231:A 2.93845e-05
7 *2223:B *2231:B 0.000143655
8 *2223:B *2232:A 1.03836e-05
9 *2223:B *221:14 0.000187445
10 *2223:B *222:10 5.3304e-05
11 *2223:B *223:10 3.46673e-05
12 *213:12 *2221:A 0.000308045
13 *213:12 *2222:A 3.98859e-05
14 *213:12 *543:90 0
15 *213:12 *551:143 4.34745e-05
16 *2221:B *213:12 2.3615e-05
17 *181:16 *213:12 0.000164528
18 *212:8 *213:12 4.08537e-05
*RES
1 *2222:Y *213:4 23 
2 *213:4 *213:12 35.8621 
3 *213:12 *2224:B 23 
4 *213:4 *2223:B 32.2593 
*END

*D_NET *214 0.000938757
*CONN
*I *2234:A1 I *D sky130_fd_sc_hd__a21o_1
*I *2235:A1 I *D sky130_fd_sc_hd__a31oi_1
*I *2223:Y O *D sky130_fd_sc_hd__nand2_1
*CAP
1 *2234:A1 6.97065e-05
2 *2235:A1 0
3 *2223:Y 9.06077e-05
4 *214:6 0.000160314
5 *2234:A1 *2234:B1 0.000252208
6 *2234:A1 *2235:A2 5.50049e-05
7 *2234:A1 *226:10 1.03955e-05
8 *214:6 *2234:B1 9.5877e-05
9 *214:6 *2235:A2 5.50106e-05
10 *214:6 *223:10 4.2062e-05
11 *2235:B1 *2234:A1 0.00010757
*RES
1 *2223:Y *214:6 25.0507 
2 *214:6 *2235:A1 23 
3 *214:6 *2234:A1 26.0243 
*END

*D_NET *215 0.00237285
*CONN
*I *2226:A2 I *D sky130_fd_sc_hd__a21oi_1
*I *2225:B I *D sky130_fd_sc_hd__or2_1
*I *2224:Y O *D sky130_fd_sc_hd__xnor2_1
*CAP
1 *2226:A2 0
2 *2225:B 0
3 *2224:Y 0.000196215
4 *215:27 0.000317774
5 *215:14 0.000427921
6 *215:10 0.000306362
7 *215:10 *218:10 0.000238194
8 *215:10 *524:130 0.000115371
9 *215:10 *551:143 9.67842e-05
10 *215:14 *524:71 0.000181925
11 *215:27 *2227:B1 8.12817e-05
12 *215:27 *243:12 0.000268221
13 *215:27 *510:92 1.14452e-05
14 *215:27 *524:71 4.17736e-05
15 *215:27 *549:116 8.95826e-05
*RES
1 *2224:Y *215:10 42.4121 
2 *215:10 *215:14 17.0507 
3 *215:14 *2225:B 23 
4 *215:14 *215:27 37.1464 
5 *215:27 *2226:A2 23 
*END

*D_NET *216 0.00185495
*CONN
*I *2234:A2 I *D sky130_fd_sc_hd__a21o_1
*I *2235:A2 I *D sky130_fd_sc_hd__a31oi_1
*I *2227:B1 I *D sky130_fd_sc_hd__a22o_1
*I *2225:X O *D sky130_fd_sc_hd__or2_1
*CAP
1 *2234:A2 0.000149282
2 *2235:A2 5.01045e-05
3 *2227:B1 0.000174142
4 *2225:X 0
5 *216:17 0.000484284
6 *216:6 0.00045904
7 *2227:B1 *2250:A1 1.01436e-05
8 *2227:B1 *243:12 0
9 *2227:B1 *326:26 0.000115013
10 *2227:B1 *510:92 1.83564e-05
11 *2227:B1 *526:108 0
12 *2235:A2 *223:10 6.17437e-06
13 *2235:A2 *226:10 6.17437e-06
14 *216:17 *223:10 0.000116424
15 *216:17 *243:12 0
16 *216:17 *526:108 0
17 *2234:A1 *2235:A2 5.50049e-05
18 *178:33 *2227:B1 7.45175e-05
19 *214:6 *2235:A2 5.50106e-05
20 *215:27 *2227:B1 8.12817e-05
*RES
1 *2225:X *216:6 38 
2 *216:6 *2227:B1 42.3707 
3 *216:6 *216:17 5.075 
4 *216:17 *2235:A2 39.0979 
5 *216:17 *2234:A2 39.5743 
*END

*D_NET *217 0.000405515
*CONN
*I *2227:B2 I *D sky130_fd_sc_hd__a22o_1
*I *2226:Y O *D sky130_fd_sc_hd__a21oi_1
*CAP
1 *2227:B2 0.000133389
2 *2226:Y 0.000133389
3 *2227:B2 *326:26 9.76261e-05
4 *2226:A1 *2227:B2 3.3577e-05
5 *2226:B1 *2227:B2 7.53384e-06
*RES
1 *2226:Y *2227:B2 49.045 
*END

*D_NET *218 0.00295656
*CONN
*I *2228:B I *D sky130_fd_sc_hd__or2_1
*I *2227:X O *D sky130_fd_sc_hd__a22o_1
*CAP
1 *2228:B 0.000388056
2 *2227:X 0.000565191
3 *218:10 0.000953247
4 *2228:B *2251:A1 0.00031495
5 *218:10 *2223:A 3.97399e-05
6 *218:10 *222:10 0.000163352
7 *218:10 *223:10 0
8 *218:10 *226:10 0
9 *218:10 *326:49 3.52937e-05
10 *218:10 *524:61 4.90891e-05
11 *218:10 *524:130 5.51325e-05
12 *218:10 *526:108 0.00015431
13 *215:10 *218:10 0.000238194
*RES
1 *2227:X *218:10 49.5793 
2 *218:10 *2228:B 45.7679 
*END

*D_NET *219 0.00616159
*CONN
*I *2176:A I *D sky130_fd_sc_hd__and2_1
*I *2186:A I *D sky130_fd_sc_hd__nor2_1
*I *2178:B1 I *D sky130_fd_sc_hd__o211a_1
*I *2436:A I *D sky130_fd_sc_hd__clkbuf_4
*I *1968:Y O *D sky130_fd_sc_hd__inv_2
*CAP
1 *2176:A 1.92397e-05
2 *2186:A 0
3 *2178:B1 0
4 *2436:A 0
5 *1968:Y 0.000217979
6 *219:50 0.000253048
7 *219:36 0.00043161
8 *219:23 0.00138441
9 *219:14 0.000391173
10 *219:6 0.00183424
11 *2176:A *2435:A 1.14154e-05
12 *2176:A *498:27 4.00259e-06
13 *219:6 *550:104 3.7122e-06
14 *219:14 *524:40 1.37246e-05
15 *219:23 *273:8 0
16 *219:23 *294:70 0
17 *219:23 *497:34 0
18 *219:23 *512:63 0
19 *219:23 *516:151 1.14452e-05
20 *219:23 *524:40 0
21 *219:23 *543:101 0.000193173
22 *219:36 *2435:A 2.64616e-05
23 *219:36 *497:34 0
24 *219:36 *498:27 4.08664e-05
25 *219:36 *516:151 0.000176541
26 *219:50 *2178:C1 6.16439e-05
27 *219:50 *2186:B 0.000224605
28 *219:50 *2435:A 5.92753e-05
29 *219:50 *273:22 2.65505e-05
30 *219:50 *498:27 5.50049e-05
31 *219:50 *516:16 0.000139346
32 *219:50 *516:151 8.4047e-05
33 *219:50 *529:77 3.47781e-05
34 *2062:A *219:14 0.000104569
35 *2104:A *219:14 9.41704e-05
36 *2104:B *219:23 0
37 *2110:A *219:23 0
38 *2187:D1 *219:50 4.93005e-05
39 *54:8 *219:23 0
40 *55:10 *219:23 0
41 *57:29 *219:14 0.000108681
42 *168:6 *219:50 2.31397e-05
43 *178:25 *219:50 8.34394e-05
44 *191:60 *219:23 0
45 *191:60 *219:36 0
46 *191:62 *219:23 0
47 *191:68 *219:23 0
*RES
1 *1968:Y *219:6 25.5271 
2 *219:6 *219:14 35.8621 
3 *219:14 *2436:A 23 
4 *219:6 *219:23 38.3864 
5 *219:23 *2178:B1 38 
6 *219:23 *219:36 18.2314 
7 *219:36 *219:50 36.3904 
8 *219:50 *2186:A 23 
9 *219:36 *2176:A 23.4971 
*END

*D_NET *220 0.00094949
*CONN
*I *2230:B I *D sky130_fd_sc_hd__xnor2_1
*I *2229:X O *D sky130_fd_sc_hd__o21a_1
*CAP
1 *2230:B 0
2 *2229:X 0.000243171
3 *220:10 0.000243171
4 *220:10 *2222:A 0.000230604
5 *220:10 *221:14 9.05894e-05
6 *220:10 *543:90 0.000141954
*RES
1 *2229:X *220:10 29.38 
2 *220:10 *2230:B 23 
*END

*D_NET *221 0.0016483
*CONN
*I *2232:B I *D sky130_fd_sc_hd__nand2_1
*I *2231:B I *D sky130_fd_sc_hd__or2_1
*I *2230:Y O *D sky130_fd_sc_hd__xnor2_1
*CAP
1 *2232:B 0
2 *2231:B 5.04564e-05
3 *2230:Y 0.000424687
4 *221:14 0.000475144
5 *2231:B *2232:A 6.10255e-05
6 *221:14 *2222:A 0.000215293
7 *2223:B *2231:B 0.000143655
8 *2223:B *221:14 0.000187445
9 *220:10 *221:14 9.05894e-05
*RES
1 *2230:Y *221:14 31.9279 
2 *221:14 *2231:B 25.5686 
3 *221:14 *2232:B 23 
*END

*D_NET *222 0.000619103
*CONN
*I *2233:A I *D sky130_fd_sc_hd__nand2_1
*I *2231:X O *D sky130_fd_sc_hd__or2_1
*CAP
1 *2233:A 0
2 *2231:X 0.000119547
3 *222:10 0.000119547
4 *222:10 *2223:A 0.000126343
5 *222:10 *526:108 3.70094e-05
6 *2223:B *222:10 5.3304e-05
7 *218:10 *222:10 0.000163352
*RES
1 *2231:X *222:10 40.8793 
2 *222:10 *2233:A 38 
*END

*D_NET *223 0.00401113
*CONN
*I *2257:A I *D sky130_fd_sc_hd__and3_1
*I *2258:A1 I *D sky130_fd_sc_hd__a21o_1
*I *2233:B I *D sky130_fd_sc_hd__nand2_1
*I *2232:Y O *D sky130_fd_sc_hd__nand2_1
*CAP
1 *2257:A 0.000132314
2 *2258:A1 0
3 *2233:B 2.03433e-05
4 *2232:Y 0.000516168
5 *223:25 0.000422779
6 *223:12 0.000310809
7 *223:10 0.000516168
8 *2233:B *551:143 5.41288e-05
9 *2257:A *2257:B 3.70187e-05
10 *2257:A *2257:C 0.000121787
11 *2257:A *225:10 0.000129504
12 *2257:A *248:10 6.07611e-06
13 *2257:A *506:16 0
14 *223:10 *2223:A 1.34354e-05
15 *223:10 *2231:A 2.32101e-05
16 *223:10 *2232:A 0.00010018
17 *223:10 *2235:A3 6.16531e-05
18 *223:10 *224:10 0.000111852
19 *223:10 *226:10 2.76611e-06
20 *223:10 *243:12 0
21 *223:10 *526:108 1.19692e-05
22 *223:25 *225:10 1.01436e-05
23 *223:25 *243:12 0
24 *223:25 *248:10 8.06039e-05
25 *223:25 *551:141 5.0135e-05
26 *223:25 *551:143 0.000268011
27 *2223:B *223:10 3.46673e-05
28 *2228:A *2257:A 7.88926e-05
29 *2235:A2 *223:10 6.17437e-06
30 *181:16 *2233:B 0.00010018
31 *181:16 *223:25 0.000603438
32 *192:57 *223:25 2.8241e-05
33 *214:6 *223:10 4.2062e-05
34 *216:17 *223:10 0.000116424
35 *218:10 *223:10 0
*RES
1 *2232:Y *223:10 46.9279 
2 *223:10 *223:12 15 
3 *223:12 *2233:B 24.0979 
4 *223:12 *223:25 25.1293 
5 *223:25 *2258:A1 38 
6 *223:25 *2257:A 41.8321 
*END

*D_NET *224 0.0015831
*CONN
*I *2235:A3 I *D sky130_fd_sc_hd__a31oi_1
*I *2234:B1 I *D sky130_fd_sc_hd__a21o_1
*I *2233:Y O *D sky130_fd_sc_hd__nand2_1
*CAP
1 *2235:A3 2.4197e-05
2 *2234:B1 0.000239953
3 *2233:Y 0.000125693
4 *224:10 0.000389843
5 *2235:A3 *2223:A 2.60152e-05
6 *224:10 *2223:A 5.56203e-05
7 *224:10 *551:143 9.84851e-05
8 *2234:A1 *2234:B1 0.000252208
9 *2235:B1 *2234:B1 0.000101698
10 *214:6 *2234:B1 9.5877e-05
11 *223:10 *2235:A3 6.16531e-05
12 *223:10 *224:10 0.000111852
*RES
1 *2233:Y *224:10 40.6514 
2 *224:10 *2234:B1 43.4271 
3 *224:10 *2235:A3 38.8493 
*END

*D_NET *225 0.00230754
*CONN
*I *2258:A2 I *D sky130_fd_sc_hd__a21o_1
*I *2257:B I *D sky130_fd_sc_hd__and3_1
*I *2251:A1 I *D sky130_fd_sc_hd__a21o_1
*I *2234:X O *D sky130_fd_sc_hd__a21o_1
*CAP
1 *2258:A2 0
2 *2257:B 0.000312307
3 *2251:A1 0.000285804
4 *2234:X 6.71936e-05
5 *225:10 0.000685259
6 *225:6 0.000154341
7 *2257:B *243:12 0
8 *2257:B *503:8 4.43717e-05
9 *2257:B *504:8 0
10 *225:6 *551:141 9.84851e-05
11 *225:10 *243:12 0
12 *2228:A *2251:A1 3.7122e-06
13 *2228:A *2257:B 0.000148698
14 *2228:B *2251:A1 0.00031495
15 *2235:B1 *225:6 1.57571e-05
16 *2257:A *2257:B 3.70187e-05
17 *2257:A *225:10 0.000129504
18 *223:25 *225:10 1.01436e-05
*RES
1 *2234:X *225:6 24.5743 
2 *225:6 *225:10 16.9057 
3 *225:10 *2251:A1 42.4329 
4 *225:10 *2257:B 42.9093 
5 *225:6 *2258:A2 23 
*END

*D_NET *226 0.000364314
*CONN
*I *2251:A2 I *D sky130_fd_sc_hd__a21o_1
*I *2235:Y O *D sky130_fd_sc_hd__a31oi_1
*CAP
1 *2251:A2 0
2 *2235:Y 0.000147531
3 *226:10 0.000147531
4 *226:10 *243:12 4.23817e-05
5 *2234:A1 *226:10 1.03955e-05
6 *2235:A2 *226:10 6.17437e-06
7 *2235:B1 *226:10 7.53384e-06
8 *218:10 *226:10 0
9 *223:10 *226:10 2.76611e-06
*RES
1 *2235:Y *226:10 40.5271 
2 *226:10 *2251:A2 38 
*END

*D_NET *227 0.00160512
*CONN
*I *2237:A I *D sky130_fd_sc_hd__inv_2
*I *2240:D I *D sky130_fd_sc_hd__and4b_1
*I *2236:X O *D sky130_fd_sc_hd__a21o_1
*CAP
1 *2237:A 7.11574e-05
2 *2240:D 0.000177466
3 *2236:X 0.000232202
4 *227:10 0.000480825
5 *2237:A *228:8 7.6144e-05
6 *2240:D *2239:A2_N 0
7 *2240:D *2239:B1 6.25525e-05
8 *2240:D *2240:A_N 9.88574e-06
9 *2240:D *2240:B 5.50106e-05
10 *227:10 *2240:B 2.01531e-05
11 *227:10 *228:8 6.25829e-05
12 *227:10 *545:120 2.54046e-05
13 *202:55 *2237:A 0
14 *202:68 *2237:A 0.000111852
15 *202:68 *227:10 0.000219882
*RES
1 *2236:X *227:10 42.5364 
2 *227:10 *2240:D 40.8223 
3 *227:10 *2237:A 39.9057 
*END

*D_NET *228 0.000881844
*CONN
*I *2239:B1 I *D sky130_fd_sc_hd__o2bb2a_1
*I *2237:Y O *D sky130_fd_sc_hd__inv_2
*CAP
1 *2239:B1 8.83245e-05
2 *2237:Y 8.64299e-05
3 *228:8 0.000174754
4 *2239:B1 *2240:A_N 4.79641e-05
5 *2239:B1 *2240:B 5.50106e-05
6 *2239:B1 *2240:C 0.000182826
7 *2239:B1 *232:12 2.93747e-05
8 *228:8 *2240:B 1.58805e-05
9 *228:8 *232:23 0
10 *2237:A *228:8 7.6144e-05
11 *2240:D *2239:B1 6.25525e-05
12 *202:55 *228:8 0
13 *227:10 *228:8 6.25829e-05
*RES
1 *2237:Y *228:8 39.9057 
2 *228:8 *2239:B1 41.0036 
*END

*D_NET *229 0.0015492
*CONN
*I *2240:A_N I *D sky130_fd_sc_hd__and4b_1
*I *2239:B2 I *D sky130_fd_sc_hd__o2bb2a_1
*I *2260:A I *D sky130_fd_sc_hd__nor2_1
*I *2238:X O *D sky130_fd_sc_hd__and3_1
*CAP
1 *2240:A_N 0.000190835
2 *2239:B2 1.50079e-05
3 *2260:A 0.000122532
4 *2238:X 0
5 *229:21 0.000270819
6 *229:4 0.000187508
7 *2239:B2 *2240:C 5.50049e-05
8 *2239:B2 *545:128 5.50049e-05
9 *2240:A_N *2240:C 0.000181125
10 *2240:A_N *545:128 0.000168687
11 *2260:A *2238:A 8.1796e-05
12 *229:21 *232:23 0.000110913
13 *2239:B1 *2240:A_N 4.79641e-05
14 *2240:D *2240:A_N 9.88574e-06
15 *202:55 *229:21 5.21127e-05
*RES
1 *2238:X *229:4 23 
2 *229:4 *2260:A 25.9207 
3 *229:4 *229:21 31.5536 
4 *229:21 *2239:B2 23.6214 
5 *229:21 *2240:A_N 27.4536 
*END

*D_NET *230 0.00348169
*CONN
*I *2196:C I *D sky130_fd_sc_hd__and4b_2
*I *2203:A I *D sky130_fd_sc_hd__nor3_1
*I *2195:B1 I *D sky130_fd_sc_hd__o2111a_1
*I *2205:B I *D sky130_fd_sc_hd__and4b_2
*I *1969:Y O *D sky130_fd_sc_hd__inv_2
*CAP
1 *2196:C 0.000223705
2 *2203:A 0.000279145
3 *2195:B1 0.000122006
4 *2205:B 2.00578e-05
5 *1969:Y 0.000165993
6 *230:32 0.000558312
7 *230:19 0.000283181
8 *230:8 0.000291763
9 *2195:B1 *2195:D1 4.18957e-05
10 *2195:B1 *315:8 5.31444e-05
11 *2195:B1 *326:12 5.67058e-05
12 *2195:B1 *551:125 8.57765e-05
13 *2196:C *2196:B 0.000140611
14 *2196:C *2205:A_N 0.000104869
15 *2196:C *489:24 2.4754e-05
16 *2196:C *500:56 6.17437e-06
17 *2196:C *530:25 0
18 *2203:A *511:36 2.32004e-05
19 *2203:A *511:46 7.27182e-05
20 *2203:A *530:14 0.000200052
21 *2203:A *551:125 9.67842e-05
22 *230:8 *546:74 1.24376e-05
23 *230:8 *551:125 0.000151985
24 *230:19 *511:46 0.000139352
25 *230:19 *551:125 2.18506e-05
26 *230:32 *2205:A_N 1.14452e-05
27 *230:32 *315:8 3.01561e-05
28 *230:32 *551:125 2.71291e-05
29 *2195:A2 *2195:B1 1.01436e-05
30 *2200:D_N *2203:A 5.67058e-05
31 *197:10 *230:8 0.000140259
32 *197:62 *2195:B1 2.93747e-05
*RES
1 *1969:Y *230:8 26.9771 
2 *230:8 *2205:B 23.4971 
3 *230:8 *230:19 17.0507 
4 *230:19 *2195:B1 41.2314 
5 *230:19 *230:32 1.20143 
6 *230:32 *2203:A 43.8621 
7 *230:32 *2196:C 42.7229 
*END

*D_NET *231 0.000422364
*CONN
*I *2241:A I *D sky130_fd_sc_hd__nor2_1
*I *2239:X O *D sky130_fd_sc_hd__o2bb2a_1
*CAP
1 *2241:A 0
2 *2239:X 0.000125138
3 *231:10 0.000125138
4 *231:10 *232:12 2.60152e-05
5 *231:10 *233:8 8.62876e-05
6 *231:10 *528:27 6.64163e-06
7 *202:16 *231:10 5.31444e-05
*RES
1 *2239:X *231:10 40.5271 
2 *231:10 *2241:A 38 
*END

*D_NET *232 0.00135995
*CONN
*I *2260:B I *D sky130_fd_sc_hd__nor2_1
*I *2241:B I *D sky130_fd_sc_hd__nor2_1
*I *2240:X O *D sky130_fd_sc_hd__and4b_1
*CAP
1 *2260:B 0
2 *2241:B 0
3 *2240:X 0
4 *232:23 0.000165904
5 *232:12 0.000251206
6 *232:4 0.00041711
7 *232:12 *2239:A2_N 1.32314e-05
8 *232:12 *2240:C 5.79161e-05
9 *232:12 *233:8 8.85189e-05
10 *232:23 *2240:B 2.93666e-05
11 *232:23 *545:120 5.26101e-05
12 *2239:B1 *232:12 2.93747e-05
13 *202:55 *232:12 5.31444e-05
14 *202:55 *232:23 6.46393e-05
15 *228:8 *232:23 0
16 *229:21 *232:23 0.000110913
17 *231:10 *232:12 2.60152e-05
*RES
1 *2240:X *232:4 23 
2 *232:4 *232:12 34.4329 
3 *232:12 *2241:B 23 
4 *232:4 *232:23 34.0186 
5 *232:23 *2260:B 23 
*END

*D_NET *233 0.00169929
*CONN
*I *2243:B I *D sky130_fd_sc_hd__nor2_1
*I *2242:B I *D sky130_fd_sc_hd__and2_1
*I *2241:Y O *D sky130_fd_sc_hd__nor2_1
*CAP
1 *2243:B 0
2 *2242:B 0.000167647
3 *2241:Y 0.000220213
4 *233:12 0.000266699
5 *233:8 0.000319266
6 *233:8 *2238:B 9.26098e-05
7 *233:8 *528:19 0.00024936
8 *233:8 *528:55 2.11157e-05
9 *233:8 *545:128 8.94394e-05
10 *2242:A *2242:B 3.22879e-05
11 *2243:A *2242:B 9.90933e-06
12 *202:55 *233:8 3.11837e-05
13 *207:14 *2242:B 2.4754e-05
14 *231:10 *233:8 8.62876e-05
15 *232:12 *233:8 8.85189e-05
*RES
1 *2241:Y *233:8 43.075 
2 *233:8 *233:12 16.5743 
3 *233:12 *2242:B 26.5214 
4 *233:12 *2243:B 23 
*END

*D_NET *234 0.0017898
*CONN
*I *2244:A I *D sky130_fd_sc_hd__nor2_1
*I *2272:A I *D sky130_fd_sc_hd__and2_1
*I *2273:A I *D sky130_fd_sc_hd__nand2_1
*I *2274:A1 I *D sky130_fd_sc_hd__o21a_1
*I *2242:X O *D sky130_fd_sc_hd__and2_1
*CAP
1 *2244:A 0
2 *2272:A 0.000237654
3 *2273:A 0
4 *2274:A1 1.08768e-05
5 *2242:X 0.00025487
6 *234:18 0.00011879
7 *234:12 0.000495757
8 *234:10 0.000405061
9 *2272:A *264:10 0
10 *2272:A *265:30 5.01247e-05
11 *2272:A *527:36 0
12 *2272:A *529:63 5.67058e-05
13 *2274:A1 *2274:A2 5.50049e-05
14 *2274:A1 *267:6 5.67058e-05
15 *234:10 *235:8 0
16 *234:10 *527:36 0
17 *234:10 *527:79 9.52814e-06
18 *234:10 *527:100 1.02949e-05
19 *234:10 *549:52 3.7122e-06
20 *234:12 *235:8 0
21 *234:12 *527:36 0
22 *234:18 *527:36 2.47132e-05
*RES
1 *2242:X *234:10 41.9564 
2 *234:10 *234:12 2.78607 
3 *234:12 *234:18 16.7711 
4 *234:18 *2274:A1 23.6214 
5 *234:18 *2273:A 23 
6 *234:12 *2272:A 41.7596 
7 *234:10 *2244:A 38 
*END

*D_NET *235 0.000669318
*CONN
*I *2244:B I *D sky130_fd_sc_hd__nor2_1
*I *2243:Y O *D sky130_fd_sc_hd__nor2_1
*CAP
1 *2244:B 0.000215086
2 *2243:Y 9.39346e-05
3 *235:8 0.000309021
4 *2244:B *236:8 5.37348e-06
5 *235:8 *528:19 4.59027e-05
6 *234:10 *235:8 0
7 *234:12 *235:8 0
*RES
1 *2243:Y *235:8 39.9057 
2 *235:8 *2244:B 41.9564 
*END

*D_NET *236 0.00324437
*CONN
*I *2249:B1 I *D sky130_fd_sc_hd__a221o_1
*I *2244:Y O *D sky130_fd_sc_hd__nor2_1
*CAP
1 *2249:B1 0.000469953
2 *2244:Y 0.000691465
3 *236:8 0.00116142
4 *2249:B1 *2249:C1 6.80211e-05
5 *2249:B1 *272:10 7.20089e-05
6 *2249:B1 *514:22 6.04024e-05
7 *2249:B1 *514:33 9.68666e-05
8 *2249:B1 *525:112 0.000122125
9 *236:8 *2440:A 2.64616e-05
10 *236:8 *521:8 0.000148688
11 *2244:B *236:8 5.37348e-06
12 *199:48 *2249:B1 0.000155068
13 *199:52 *2249:B1 0.000166522
*RES
1 *2244:Y *236:8 46.7207 
2 *236:8 *2249:B1 48.2329 
*END

*D_NET *237 0.00231663
*CONN
*I *2246:B I *D sky130_fd_sc_hd__and2b_1
*I *2292:A I *D sky130_fd_sc_hd__xnor2_1
*I *2245:Y O *D sky130_fd_sc_hd__nand2_1
*CAP
1 *2246:B 0.000476908
2 *2292:A 0.00018782
3 *2245:Y 0
4 *237:6 0.000664728
5 *2246:B *523:85 0.000809421
6 *2246:B *526:52 0
7 *2292:A *523:81 0
8 *2292:A *523:85 9.26098e-05
9 *2292:A *526:52 0
10 *2292:A *545:101 8.51432e-05
11 *2430:B1 *2246:B 0
12 *188:56 *2246:B 0
*RES
1 *2245:Y *237:6 38 
2 *237:6 *2292:A 42.2879 
3 *237:6 *2246:B 49.0614 
*END

*D_NET *238 0.000666342
*CONN
*I *2247:B2 I *D sky130_fd_sc_hd__o22a_1
*I *2246:X O *D sky130_fd_sc_hd__and2b_1
*CAP
1 *2247:B2 0
2 *2246:X 0.000202764
3 *238:10 0.000202764
4 *238:10 *350:16 0.00010018
5 *238:10 *523:85 0
6 *188:56 *238:10 0.000160634
*RES
1 *2246:X *238:10 41.3557 
2 *238:10 *2247:B2 38 
*END

*D_NET *239 0.00164717
*CONN
*I *2249:C1 I *D sky130_fd_sc_hd__a221o_1
*I *2247:X O *D sky130_fd_sc_hd__o22a_1
*CAP
1 *2249:C1 0.000171677
2 *2247:X 0.00023379
3 *239:8 0.000405467
4 *2249:C1 *2249:A1 3.62204e-05
5 *2249:C1 *514:22 6.61858e-05
6 *2249:C1 *526:62 0.000100733
7 *2249:C1 *529:63 0.000210959
8 *239:8 *523:85 0.000339458
9 *239:8 *526:52 0
10 *2249:A2 *2249:C1 1.46586e-05
11 *2249:B1 *2249:C1 6.80211e-05
*RES
1 *2247:X *239:8 42.7229 
2 *239:8 *2249:C1 43.4064 
*END

*D_NET *240 0.00285468
*CONN
*I *2250:B1 I *D sky130_fd_sc_hd__a211o_1
*I *2248:X O *D sky130_fd_sc_hd__a32o_1
*CAP
1 *2250:B1 0
2 *2248:X 0.000536356
3 *240:8 0.000536356
4 *240:8 *2250:A1 5.90675e-06
5 *240:8 *2250:A2 9.72057e-06
6 *240:8 *2283:B 9.91701e-05
7 *240:8 *250:20 6.32895e-05
8 *240:8 *529:77 0.00142015
9 *2248:A3 *240:8 0.000183733
*RES
1 *2248:X *240:8 39.3643 
2 *240:8 *2250:B1 23 
*END

*D_NET *241 0.00477347
*CONN
*I *2046:B I *D sky130_fd_sc_hd__nor2_1
*I *2409:A I *D sky130_fd_sc_hd__or4b_1
*I *2060:B1 I *D sky130_fd_sc_hd__a21o_1
*I *2047:B I *D sky130_fd_sc_hd__nand2_1
*I *1970:Y O *D sky130_fd_sc_hd__inv_2
*CAP
1 *2046:B 0.000161697
2 *2409:A 5.11996e-05
3 *2060:B1 0
4 *2047:B 3.57016e-05
5 *1970:Y 0.000209339
6 *241:29 0.000144447
7 *241:16 0.000476828
8 *241:12 0.000438567
9 *241:8 0.000461725
10 *2046:B *2046:A 5.50106e-05
11 *2046:B *471:8 5.50106e-05
12 *2046:B *517:62 0
13 *2046:B *550:116 0.000264147
14 *2047:B *550:116 2.02872e-05
15 *2409:A *2409:B 4.79775e-06
16 *241:12 *2409:B 3.3123e-05
17 *241:12 *517:62 0
18 *241:12 *550:116 0.000114092
19 *241:16 *539:94 0.000528927
20 *241:16 *550:116 0.000881726
21 *241:29 *477:24 0.000404996
22 *241:29 *516:52 0.000431852
23 *62:8 *241:29 0
*RES
1 *1970:Y *241:8 40.5271 
2 *241:8 *241:12 16.9057 
3 *241:12 *241:16 10.6471 
4 *241:16 *2047:B 23.6214 
5 *241:16 *241:29 35.7793 
6 *241:29 *2060:B1 23 
7 *241:12 *2409:A 24.103 
8 *241:8 *2046:B 42.2879 
*END

*D_NET *242 0.00722477
*CONN
*I *2250:C1 I *D sky130_fd_sc_hd__a211o_1
*I *2249:X O *D sky130_fd_sc_hd__a221o_1
*CAP
1 *2250:C1 0
2 *2249:X 0.00111521
3 *242:18 0.00118189
4 *242:12 0.0022971
5 *242:12 *526:62 0.00130398
6 *242:12 *529:63 0.000157626
7 *242:18 *2193:D 4.96717e-05
8 *242:18 *2284:A 8.48502e-06
9 *242:18 *2284:B 4.79641e-05
10 *242:18 *2284:C 8.24045e-05
11 *242:18 *2285:A2 5.50049e-05
12 *242:18 *2308:A2 0.000207166
13 *242:18 *2308:B1 0.000438468
14 *242:18 *243:12 0
15 *242:18 *277:12 2.64616e-05
16 *242:18 *279:6 5.89817e-05
17 *242:18 *506:8 0.00010018
18 *242:18 *510:92 0
19 *242:18 *524:108 9.41704e-05
20 *191:60 *242:18 0
*RES
1 *2249:X *242:12 41.7879 
2 *242:12 *242:18 38.5936 
3 *242:18 *2250:C1 38 
*END

*D_NET *243 0.00246268
*CONN
*I *2251:B1 I *D sky130_fd_sc_hd__a21o_1
*I *2250:X O *D sky130_fd_sc_hd__a211o_1
*CAP
1 *2251:B1 0
2 *2250:X 7.69654e-05
3 *243:12 0.000886083
4 *243:8 0.000963048
5 *243:8 *2250:A1 5.41385e-05
6 *243:12 *510:92 0.000171838
7 *243:12 *551:141 0
8 *2227:B1 *243:12 0
9 *2257:B *243:12 0
10 *191:60 *243:12 0
11 *215:27 *243:12 0.000268221
12 *216:17 *243:12 0
13 *223:10 *243:12 0
14 *223:25 *243:12 0
15 *225:10 *243:12 0
16 *226:10 *243:12 4.23817e-05
17 *242:18 *243:12 0
*RES
1 *2250:X *243:8 39.0979 
2 *243:8 *243:12 30.9914 
3 *243:12 *2251:B1 23 
*END

*D_NET *244 0.000586949
*CONN
*I *2253:B I *D sky130_fd_sc_hd__xnor2_1
*I *2252:X O *D sky130_fd_sc_hd__o31a_1
*CAP
1 *2253:B 3.97742e-05
2 *2252:X 9.14006e-05
3 *244:8 0.000131175
4 *2253:B *246:8 0.000139352
5 *244:8 *274:8 3.88504e-05
6 *244:8 *506:16 6.33614e-05
7 *181:16 *2253:B 8.30364e-05
*RES
1 *2252:X *244:8 39.9057 
2 *244:8 *2253:B 39.5743 
*END

*D_NET *245 0.000595008
*CONN
*I *2254:B I *D sky130_fd_sc_hd__or2_1
*I *2255:B I *D sky130_fd_sc_hd__nand2_1
*I *2253:Y O *D sky130_fd_sc_hd__xnor2_1
*CAP
1 *2254:B 4.99432e-05
2 *2255:B 0
3 *2253:Y 0
4 *245:12 0.000125992
5 *245:4 0.000175935
6 *245:12 *274:8 0
7 *245:12 *326:16 0
8 *245:12 *506:16 0.000138727
9 *50:24 *245:12 0
10 *181:16 *2254:B 4.94008e-05
11 *181:16 *245:12 5.50106e-05
*RES
1 *2253:Y *245:4 23 
2 *245:4 *245:12 32.5271 
3 *245:12 *2255:B 23 
4 *245:4 *2254:B 24.1186 
*END

*D_NET *246 0.00138879
*CONN
*I *2256:A I *D sky130_fd_sc_hd__nand2_1
*I *2254:X O *D sky130_fd_sc_hd__or2_1
*CAP
1 *2256:A 0
2 *2254:X 0.000303822
3 *246:8 0.000303822
4 *246:8 *248:10 5.3304e-05
5 *2253:B *246:8 0.000139352
6 *181:16 *246:8 0.000194407
7 *192:30 *246:8 0.000394086
*RES
1 *2254:X *246:8 30.6643 
2 *246:8 *2256:A 23 
*END

*D_NET *247 0.0032465
*CONN
*I *2256:B I *D sky130_fd_sc_hd__nand2_1
*I *2284:A I *D sky130_fd_sc_hd__and3_1
*I *2285:A1 I *D sky130_fd_sc_hd__a21oi_1
*I *2255:Y O *D sky130_fd_sc_hd__nand2_1
*CAP
1 *2256:B 6.7731e-05
2 *2284:A 0.000451112
3 *2285:A1 0
4 *2255:Y 0.000218652
5 *247:14 0.000665689
6 *247:10 0.00050096
7 *2256:B *2252:A2 3.3746e-05
8 *2256:B *250:10 0.000126343
9 *2284:A *2284:C 0.000381573
10 *2284:A *2285:A2 6.17437e-06
11 *2284:A *2308:B1 5.36611e-05
12 *2284:A *277:12 5.50106e-05
13 *247:10 *2255:A 2.72222e-05
14 *247:10 *524:83 1.84833e-05
15 *247:10 *549:116 5.12254e-05
16 *247:14 *2252:A2 3.0647e-05
17 *247:14 *250:10 0.000427761
18 *247:14 *506:16 0
19 *247:14 *542:79 2.72055e-05
20 *191:32 *2256:B 6.16531e-05
21 *192:70 *247:14 3.31683e-05
22 *242:18 *2284:A 8.48502e-06
*RES
1 *2255:Y *247:10 41.0243 
2 *247:10 *247:14 20.7793 
3 *247:14 *2285:A1 23 
4 *247:14 *2284:A 29.8357 
5 *247:10 *2256:B 39.9057 
*END

*D_NET *248 0.00116213
*CONN
*I *2257:C I *D sky130_fd_sc_hd__and3_1
*I *2258:B1 I *D sky130_fd_sc_hd__a21o_1
*I *2256:Y O *D sky130_fd_sc_hd__nand2_1
*CAP
1 *2257:C 0.000190894
2 *2258:B1 0
3 *2256:Y 0.000169421
4 *248:10 0.000360314
5 *2257:C *2259:C_N 6.07611e-06
6 *2257:C *249:8 0
7 *248:10 *2259:C_N 3.97502e-05
8 *2228:A *2257:C 3.8382e-05
9 *2257:A *2257:C 0.000121787
10 *2257:A *248:10 6.07611e-06
11 *181:16 *248:10 1.14762e-05
12 *192:57 *248:10 8.4047e-05
13 *223:25 *248:10 8.06039e-05
14 *246:8 *248:10 5.3304e-05
*RES
1 *2256:Y *248:10 41.3557 
2 *248:10 *2258:B1 38 
3 *248:10 *2257:C 41.5629 
*END

*D_NET *249 0.000444725
*CONN
*I *2259:B I *D sky130_fd_sc_hd__or3b_1
*I *2257:X O *D sky130_fd_sc_hd__and3_1
*CAP
1 *2259:B 0
2 *2257:X 0.000122011
3 *249:8 0.000122011
4 *249:8 *506:16 4.73689e-05
5 *2257:C *249:8 0
6 *191:32 *249:8 8.94487e-05
7 *192:30 *249:8 6.38845e-05
*RES
1 *2257:X *249:8 40.9621 
2 *249:8 *2259:B 38 
*END

*D_NET *250 0.00422245
*CONN
*I *2259:C_N I *D sky130_fd_sc_hd__or3b_1
*I *2285:A2 I *D sky130_fd_sc_hd__a21oi_1
*I *2284:B I *D sky130_fd_sc_hd__and3_1
*I *2258:X O *D sky130_fd_sc_hd__a21o_1
*CAP
1 *2259:C_N 8.25644e-05
2 *2285:A2 3.148e-05
3 *2284:B 0.000137804
4 *2258:X 0
5 *250:20 0.000492183
6 *250:10 0.000776913
7 *250:6 0.000473618
8 *2259:C_N *551:141 5.50106e-05
9 *2284:B *2308:A2 9.67842e-05
10 *250:10 *277:8 1.37349e-05
11 *250:20 *2283:B 0.000139346
12 *250:20 *277:8 0.000166513
13 *250:20 *279:12 0.000111852
14 *250:20 *542:69 5.31444e-05
15 *2256:B *250:10 0.000126343
16 *2257:C *2259:C_N 6.07611e-06
17 *2284:A *2285:A2 6.17437e-06
18 *191:32 *2259:C_N 4.43717e-05
19 *191:32 *250:10 7.45175e-05
20 *191:60 *250:10 5.3365e-05
21 *191:60 *250:20 0
22 *192:36 *2259:C_N 2.93845e-05
23 *192:57 *250:10 0.000605214
24 *192:70 *250:10 0
25 *192:80 *250:20 1.22906e-05
26 *240:8 *250:20 6.32895e-05
27 *242:18 *2284:B 4.79641e-05
28 *242:18 *2285:A2 5.50049e-05
29 *247:14 *250:10 0.000427761
30 *248:10 *2259:C_N 3.97502e-05
*RES
1 *2258:X *250:6 38 
2 *250:6 *250:10 10.9786 
3 *250:10 *250:20 37.6436 
4 *250:20 *2284:B 40.0507 
5 *250:10 *2285:A2 38.6214 
6 *250:6 *2259:C_N 39.8229 
*END

*D_NET *251 0.00137035
*CONN
*I *2409:B I *D sky130_fd_sc_hd__or4b_1
*I *2043:A1 I *D sky130_fd_sc_hd__o211ai_2
*I *1971:Y O *D sky130_fd_sc_hd__inv_2
*CAP
1 *2409:B 0.000147459
2 *2043:A1 0.000186392
3 *1971:Y 0.000107644
4 *251:8 0.000441495
5 *2043:A1 *2409:C 1.23662e-05
6 *2043:A1 *475:67 0
7 *2043:A1 *517:62 0.000141386
8 *2043:A1 *547:36 0
9 *2409:B *2409:C 4.41619e-05
10 *2409:B *517:62 0.000112169
11 *251:8 *542:54 0.000139357
12 *2409:A *2409:B 4.79775e-06
13 *241:12 *2409:B 3.3123e-05
*RES
1 *1971:Y *251:8 39.5743 
2 *251:8 *2043:A1 42.0186 
3 *251:8 *2409:B 41.5836 
*END

*D_NET *252 0.000509197
*CONN
*I *2280:B I *D sky130_fd_sc_hd__nand2b_1
*I *2259:X O *D sky130_fd_sc_hd__or3b_1
*CAP
1 *2280:B 5.08986e-05
2 *2259:X 7.5314e-05
3 *252:8 0.000126213
4 *252:8 *274:8 0
5 *252:8 *506:16 0.00014411
6 *2228:A *2280:B 0.000112662
*RES
1 *2259:X *252:8 39.9057 
2 *252:8 *2280:B 39.2532 
*END

*D_NET *253 0.00208354
*CONN
*I *2268:A I *D sky130_fd_sc_hd__xnor2_1
*I *2267:A_N I *D sky130_fd_sc_hd__and2b_1
*I *2260:Y O *D sky130_fd_sc_hd__nor2_1
*CAP
1 *2268:A 0.000145038
2 *2267:A_N 0.000198037
3 *2260:Y 0.000449976
4 *253:8 0.00079305
5 *2267:A_N *2268:B 0
6 *2267:A_N *545:120 8.26672e-05
7 *2267:A_N *555:64 0
8 *253:8 *2238:B 0
9 *253:8 *545:120 0.000414771
10 *253:8 *555:64 0
*RES
1 *2260:Y *253:8 48.7093 
2 *253:8 *2267:A_N 41.8321 
3 *253:8 *2268:A 40.5271 
*END

*D_NET *254 0.000778531
*CONN
*I *2266:A I *D sky130_fd_sc_hd__xnor2_1
*I *2289:A1 I *D sky130_fd_sc_hd__o21ba_1
*I *2261:Y O *D sky130_fd_sc_hd__nand2_1
*CAP
1 *2266:A 7.01466e-05
2 *2289:A1 0
3 *2261:Y 0.000116801
4 *254:12 7.01466e-05
5 *254:10 0.000116801
6 *2266:A *258:6 0.000100061
7 *2266:A *284:10 2.93431e-05
8 *254:10 *2261:A 2.64616e-05
9 *254:10 *284:10 8.4047e-05
10 *254:10 *490:29 2.60152e-05
11 *254:10 *526:52 0.000138708
*RES
1 *2261:Y *254:10 40.5271 
2 *254:10 *254:12 15 
3 *254:12 *2289:A1 23 
4 *254:12 *2266:A 24.5743 
*END

*D_NET *255 0.000520229
*CONN
*I *2291:A2 I *D sky130_fd_sc_hd__a21oi_2
*I *2262:Y O *D sky130_fd_sc_hd__nand2_1
*CAP
1 *2291:A2 0
2 *2262:Y 0.000107789
3 *255:10 0.000107789
4 *255:10 *417:8 0.000110922
5 *255:10 *486:44 0
6 *255:10 *520:48 0.000138718
7 *255:10 *548:30 5.50106e-05
*RES
1 *2262:Y *255:10 40.5271 
2 *255:10 *2291:A2 38 
*END

*D_NET *256 0.0011195
*CONN
*I *2289:B1_N I *D sky130_fd_sc_hd__o21ba_1
*I *2265:A I *D sky130_fd_sc_hd__nor2_1
*I *2263:X O *D sky130_fd_sc_hd__and3_1
*CAP
1 *2289:B1_N 2.77483e-05
2 *2265:A 0.00016745
3 *2263:X 0.000130576
4 *256:10 0.000325774
5 *2265:A *2265:B 5.90675e-06
6 *2265:A *258:6 0.000182826
7 *2289:B1_N *286:10 1.59312e-05
8 *2289:B1_N *545:42 6.16531e-05
9 *256:10 *286:10 3.56537e-05
10 *256:10 *536:114 5.41288e-05
11 *256:10 *545:42 0.000111852
*RES
1 *2263:X *256:10 40.6514 
2 *256:10 *2265:A 41.3764 
3 *256:10 *2289:B1_N 38.8493 
*END

*D_NET *257 0.00112934
*CONN
*I *2265:B I *D sky130_fd_sc_hd__nor2_1
*I *2289:A2 I *D sky130_fd_sc_hd__o21ba_1
*I *2264:Y O *D sky130_fd_sc_hd__a21oi_1
*CAP
1 *2265:B 0.000125713
2 *2289:A2 0
3 *2264:Y 0.000109883
4 *257:12 0.000125713
5 *257:10 0.000109883
6 *2265:B *258:6 0.000141318
7 *2265:B *284:10 0.000228001
8 *257:10 *526:52 0.000166522
9 *257:10 *536:114 3.22879e-05
10 *257:10 *545:42 8.41115e-05
11 *2265:A *2265:B 5.90675e-06
*RES
1 *2264:Y *257:10 40.8793 
2 *257:10 *257:12 15 
3 *257:12 *2289:A2 23 
4 *257:12 *2265:B 26.9979 
*END

*D_NET *258 0.000929732
*CONN
*I *2266:B I *D sky130_fd_sc_hd__xnor2_1
*I *2265:Y O *D sky130_fd_sc_hd__nor2_1
*CAP
1 *2266:B 0
2 *2265:Y 0.000241772
3 *258:6 0.000241772
4 *258:6 *284:10 2.19845e-05
5 *2265:A *258:6 0.000182826
6 *2265:B *258:6 0.000141318
7 *2266:A *258:6 0.000100061
*RES
1 *2265:Y *258:6 28.3857 
2 *258:6 *2266:B 23 
*END

*D_NET *259 0.00779971
*CONN
*I *2268:B I *D sky130_fd_sc_hd__xnor2_1
*I *2267:B I *D sky130_fd_sc_hd__and2b_1
*I *2266:Y O *D sky130_fd_sc_hd__xnor2_1
*CAP
1 *2268:B 0.000177948
2 *2267:B 0
3 *2266:Y 0.00137399
4 *259:18 0.00121597
5 *259:6 0.002412
6 *2268:B *2297:A1 0.00012482
7 *2268:B *2298:A 2.24151e-05
8 *2268:B *260:8 2.46922e-05
9 *2268:B *263:10 0
10 *2268:B *293:8 5.33597e-05
11 *2268:B *545:120 0
12 *2268:B *555:60 2.64616e-05
13 *2268:B *555:64 6.25829e-05
14 *259:6 *2313:B 8.06804e-06
15 *259:6 *2445:A 2.93747e-05
16 *259:6 *305:14 0.00012672
17 *259:6 *305:29 1.94693e-05
18 *259:6 *309:10 1.48311e-05
19 *259:6 *527:6 1.61628e-05
20 *259:6 *527:12 8.97286e-06
21 *259:18 *2298:A 2.70469e-05
22 *259:18 *2385:A 7.03766e-05
23 *259:18 *292:14 0.000206253
24 *259:18 *293:8 0.000116314
25 *259:18 *328:8 0
26 *259:18 *334:22 5.05552e-05
27 *259:18 *334:37 0.000428596
28 *259:18 *360:10 7.90464e-05
29 *259:18 *388:10 0.000442355
30 *259:18 *405:10 0.000169665
31 *259:18 *431:10 0
32 *259:18 *438:18 0.000491673
33 *259:18 *545:120 0
34 *2267:A_N *2268:B 0
*RES
1 *2266:Y *259:6 40.2964 
2 *259:6 *259:18 43.4407 
3 *259:18 *2267:B 38 
4 *259:18 *2268:B 42.2879 
*END

*D_NET *260 0.00143761
*CONN
*I *2297:A1 I *D sky130_fd_sc_hd__o21ai_1
*I *2298:A I *D sky130_fd_sc_hd__or3_1
*I *2267:X O *D sky130_fd_sc_hd__and2b_1
*CAP
1 *2297:A1 9.24277e-05
2 *2298:A 0.000199306
3 *2267:X 3.41841e-06
4 *260:8 0.000295152
5 *2297:A1 *2298:B 1.59312e-05
6 *2297:A1 *261:10 3.71251e-05
7 *2297:A1 *263:10 4.21594e-06
8 *2297:A1 *292:10 2.81216e-05
9 *2297:A1 *555:60 9.84794e-05
10 *2298:A *292:10 0.000102696
11 *2298:A *292:14 0.000195248
12 *2298:A *293:8 0.000166513
13 *2268:B *2297:A1 0.00012482
14 *2268:B *2298:A 2.24151e-05
15 *2268:B *260:8 2.46922e-05
16 *259:18 *2298:A 2.70469e-05
*RES
1 *2267:X *260:8 38.3211 
2 *260:8 *2298:A 43.5618 
3 *260:8 *2297:A1 40.8275 
*END

*D_NET *261 0.00127069
*CONN
*I *2270:B1 I *D sky130_fd_sc_hd__a21oi_1
*I *2269:C I *D sky130_fd_sc_hd__and3_1
*I *2268:Y O *D sky130_fd_sc_hd__xnor2_1
*CAP
1 *2270:B1 6.42127e-05
2 *2269:C 2.67211e-05
3 *2268:Y 0.000181775
4 *261:12 9.09338e-05
5 *261:10 0.000181775
6 *2269:C *2269:A 8.25698e-05
7 *2269:C *2446:A 4.41689e-05
8 *2270:B1 *2269:A 9.5877e-05
9 *2270:B1 *2446:A 3.59538e-05
10 *2270:B1 *528:6 8.264e-05
11 *2270:B1 *541:66 9.67842e-05
12 *261:10 *263:10 8.62783e-05
13 *261:10 *263:36 0.000111852
14 *261:10 *541:51 5.20202e-05
15 *2297:A1 *261:10 3.71251e-05
*RES
1 *2268:Y *261:10 41.7079 
2 *261:10 *261:12 15 
3 *261:12 *2269:C 23.9321 
4 *261:12 *2270:B1 25.0507 
*END

*D_NET *262 0.000775417
*CONN
*I *1981:A2 I *D sky130_fd_sc_hd__a2111oi_1
*I *1972:Y O *D sky130_fd_sc_hd__inv_2
*CAP
1 *1981:A2 0.000207034
2 *1972:Y 9.34812e-05
3 *262:8 0.000300515
4 *262:8 *535:19 3.884e-05
5 *262:8 *552:50 0.000135547
*RES
1 *1972:Y *262:8 39.9057 
2 *262:8 *1981:A2 40.0507 
*END

*D_NET *263 0.00223526
*CONN
*I *2271:A I *D sky130_fd_sc_hd__nor2_1
*I *2297:A2 I *D sky130_fd_sc_hd__o21ai_1
*I *2298:B I *D sky130_fd_sc_hd__or3_1
*I *2269:X O *D sky130_fd_sc_hd__and3_1
*CAP
1 *2271:A 0
2 *2297:A2 0
3 *2298:B 0.000202873
4 *2269:X 0
5 *263:36 0.000291047
6 *263:10 0.00035263
7 *263:4 0.000440804
8 *2298:B *266:8 0
9 *2298:B *292:10 0.000155068
10 *2298:B *292:14 0.00014411
11 *2298:B *297:8 0
12 *2298:B *529:53 0
13 *263:10 *264:10 5.3304e-05
14 *263:10 *266:8 0
15 *263:10 *541:51 1.14452e-05
16 *263:10 *555:64 0
17 *263:36 *264:10 5.3304e-05
18 *263:36 *528:19 0.000136486
19 *263:36 *541:45 2.93747e-05
20 *263:36 *541:51 2.79064e-05
21 *263:36 *541:66 9.84767e-05
22 *263:36 *555:64 2.01531e-05
23 *2268:B *263:10 0
24 *2297:A1 *2298:B 1.59312e-05
25 *2297:A1 *263:10 4.21594e-06
26 *261:10 *263:10 8.62783e-05
27 *261:10 *263:36 0.000111852
*RES
1 *2269:X *263:4 23 
2 *263:4 *263:10 17.8793 
3 *263:10 *2298:B 42.7229 
4 *263:10 *2297:A2 38 
5 *263:4 *263:36 36.3386 
6 *263:36 *2271:A 23 
*END

*D_NET *264 0.0013341
*CONN
*I *2271:B I *D sky130_fd_sc_hd__nor2_1
*I *2270:Y O *D sky130_fd_sc_hd__a21oi_1
*CAP
1 *2271:B 0
2 *2270:Y 0.000360619
3 *264:10 0.000360619
4 *264:10 *2446:A 0.000393293
5 *264:10 *265:30 5.25997e-05
6 *264:10 *527:36 0
7 *264:10 *529:53 0
8 *264:10 *541:51 6.03634e-05
9 *2272:A *264:10 0
10 *263:10 *264:10 5.3304e-05
11 *263:36 *264:10 5.3304e-05
*RES
1 *2270:Y *264:10 45.7471 
2 *264:10 *2271:B 38 
*END

*D_NET *265 0.00129843
*CONN
*I *2272:B I *D sky130_fd_sc_hd__and2_1
*I *2274:A2 I *D sky130_fd_sc_hd__o21a_1
*I *2273:B I *D sky130_fd_sc_hd__nand2_1
*I *2271:Y O *D sky130_fd_sc_hd__nor2_1
*CAP
1 *2272:B 0
2 *2274:A2 0.000127264
3 *2273:B 0
4 *2271:Y 8.04043e-05
5 *265:30 9.49216e-05
6 *265:10 0.000211203
7 *265:6 0.000259265
8 *2274:A2 *267:6 4.66047e-05
9 *2274:A2 *270:20 0
10 *2274:A2 *541:45 1.03836e-05
11 *265:6 *541:45 0.000170394
12 *265:10 *541:45 0.000140259
13 *2272:A *265:30 5.01247e-05
14 *2274:A1 *2274:A2 5.50049e-05
15 *264:10 *265:30 5.25997e-05
*RES
1 *2271:Y *265:6 25.0507 
2 *265:6 *265:10 2.07143 
3 *265:10 *2273:B 23 
4 *265:10 *2274:A2 25.5479 
5 *265:6 *265:30 32.2579 
6 *265:30 *2272:B 23 
*END

*D_NET *266 0.000795661
*CONN
*I *2301:A I *D sky130_fd_sc_hd__nand2_1
*I *2300:A I *D sky130_fd_sc_hd__or2_1
*I *2272:X O *D sky130_fd_sc_hd__and2_1
*CAP
1 *2301:A 0
2 *2300:A 8.35447e-05
3 *2272:X 0.000229904
4 *266:10 8.35447e-05
5 *266:8 0.000229904
6 *2300:A *2300:B 5.50049e-05
7 *266:8 *529:53 0.000113759
8 *266:8 *541:51 0
9 *2298:B *266:8 0
10 *263:10 *266:8 0
*RES
1 *2272:X *266:8 42.7229 
2 *266:8 *266:10 15 
3 *266:10 *2300:A 24.5743 
4 *266:10 *2301:A 23 
*END

*D_NET *267 0.00112511
*CONN
*I *2278:B1 I *D sky130_fd_sc_hd__a221o_1
*I *2273:Y O *D sky130_fd_sc_hd__nand2_1
*CAP
1 *2278:B1 0
2 *2273:Y 0.000146003
3 *267:6 0.000146003
4 *267:6 *2278:B2 2.59862e-05
5 *267:6 *270:20 0.0001226
6 *267:6 *541:45 0.000524504
7 *2274:A1 *267:6 5.67058e-05
8 *2274:A2 *267:6 4.66047e-05
9 *2274:B1 *267:6 5.67058e-05
*RES
1 *2273:Y *267:6 28.8621 
2 *267:6 *2278:B1 23 
*END

*D_NET *268 0.000425821
*CONN
*I *2278:B2 I *D sky130_fd_sc_hd__a221o_1
*I *2274:X O *D sky130_fd_sc_hd__o21a_1
*CAP
1 *2278:B2 7.2801e-05
2 *2274:X 7.2801e-05
3 *2278:B2 *270:20 0.000254233
4 *267:6 *2278:B2 2.59862e-05
*RES
1 *2274:X *2278:B2 48.5737 
*END

*D_NET *269 0.000465632
*CONN
*I *2276:B2 I *D sky130_fd_sc_hd__o22a_1
*I *2275:Y O *D sky130_fd_sc_hd__a21oi_1
*CAP
1 *2276:B2 0.00012991
2 *2275:Y 0.00012991
3 *2276:B2 *541:34 0.00010018
4 *2276:B2 *541:45 0.000105631
*RES
1 *2275:Y *2276:B2 48.9 
*END

*D_NET *270 0.00138814
*CONN
*I *2278:C1 I *D sky130_fd_sc_hd__a221o_1
*I *2276:X O *D sky130_fd_sc_hd__o22a_1
*CAP
1 *2278:C1 0
2 *2276:X 0.000473539
3 *270:20 0.000473539
4 *270:20 *541:45 4.45125e-05
5 *2274:A2 *270:20 0
6 *2274:B1 *270:20 1.24376e-05
7 *2278:A2 *270:20 7.27694e-06
8 *2278:B2 *270:20 0.000254233
9 *267:6 *270:20 0.0001226
*RES
1 *2276:X *270:20 32.2386 
2 *270:20 *2278:C1 23 
*END

*D_NET *271 0.000208922
*CONN
*I *2279:B1 I *D sky130_fd_sc_hd__a211o_1
*I *2277:X O *D sky130_fd_sc_hd__a32o_1
*CAP
1 *2279:B1 7.81685e-05
2 *2277:X 7.81685e-05
3 *2279:B1 *2255:A 5.25848e-05
*RES
1 *2277:X *2279:B1 47.595 
*END

*D_NET *272 0.00642754
*CONN
*I *2279:C1 I *D sky130_fd_sc_hd__a211o_1
*I *2278:X O *D sky130_fd_sc_hd__a221o_1
*CAP
1 *2279:C1 0
2 *2278:X 3.66158e-05
3 *272:18 0.00302829
4 *272:10 0.00306491
5 *272:10 *525:112 7.20089e-05
6 *272:18 *326:16 4.21594e-06
7 *272:18 *326:20 2.87738e-05
8 *272:18 *551:44 4.74508e-05
9 *272:18 *551:92 0
10 *2249:B1 *272:10 7.20089e-05
11 *183:24 *272:18 4.74508e-05
12 *190:107 *272:18 0
13 *197:20 *272:18 2.5812e-05
*RES
1 *2278:X *272:10 47.0254 
2 *272:10 *272:18 30.3583 
3 *272:18 *2279:C1 23 
*END

*D_NET *273 0.0079347
*CONN
*I *2435:A I *D sky130_fd_sc_hd__buf_2
*I *2222:A I *D sky130_fd_sc_hd__xnor2_1
*I *2187:A1 I *D sky130_fd_sc_hd__a2111o_1
*I *1973:Y O *D sky130_fd_sc_hd__inv_2
*CAP
1 *2435:A 0.000115147
2 *2222:A 0.000334834
3 *2187:A1 6.13053e-05
4 *1973:Y 0.000455897
5 *273:39 0.00103018
6 *273:22 0.00106563
7 *273:10 0.000424122
8 *273:8 0.000455897
9 *2187:A1 *526:108 0.000171315
10 *2222:A *2229:A2 5.93774e-05
11 *2222:A *326:49 0
12 *2222:A *543:90 0
13 *2222:A *549:106 1.19796e-05
14 *2435:A *2186:B 5.3304e-05
15 *2435:A *498:27 3.59635e-05
16 *2435:A *516:6 2.32101e-05
17 *2435:A *516:16 2.02872e-05
18 *273:8 *2178:C1 0.000191157
19 *273:8 *510:75 0.000253463
20 *273:8 *510:92 8.68903e-05
21 *273:8 *516:151 7.76364e-06
22 *273:22 *2186:B 0.000181131
23 *273:22 *2250:A1 1.71678e-05
24 *273:22 *498:27 2.18409e-05
25 *273:22 *512:63 0.000114957
26 *273:39 *2250:A1 0.000112716
27 *273:39 *524:71 1.01436e-05
28 *273:39 *526:108 0.000550491
29 *273:39 *549:116 0.000523716
30 *2176:A *2435:A 1.14154e-05
31 *2177:B *2187:A1 0.000114083
32 *2177:B *273:22 0.000160003
33 *167:23 *273:22 2.08324e-05
34 *168:6 *273:22 0.000181925
35 *178:25 *273:22 1.27508e-05
36 *178:33 *273:39 0.000102998
37 *181:8 *2222:A 5.21024e-05
38 *191:51 *2222:A 0.000290634
39 *212:8 *2222:A 0
40 *213:12 *2222:A 3.98859e-05
41 *219:23 *273:8 0
42 *219:36 *2435:A 2.64616e-05
43 *219:50 *2435:A 5.92753e-05
44 *219:50 *273:22 2.65505e-05
45 *220:10 *2222:A 0.000230604
46 *221:14 *2222:A 0.000215293
*RES
1 *1973:Y *273:8 48.3571 
2 *273:8 *273:10 15 
3 *273:10 *273:22 22.7782 
4 *273:22 *2187:A1 40.3304 
5 *273:22 *273:39 44.7589 
6 *273:39 *2222:A 47.8393 
7 *273:10 *2435:A 25.6929 
*END

*D_NET *274 0.0010092
*CONN
*I *2280:A_N I *D sky130_fd_sc_hd__nand2b_1
*I *2279:X O *D sky130_fd_sc_hd__a211o_1
*CAP
1 *2280:A_N 0
2 *2279:X 0.000471226
3 *274:8 0.000471226
4 *274:8 *326:16 2.79004e-05
5 *274:8 *506:16 0
6 *197:18 *274:8 0
7 *244:8 *274:8 3.88504e-05
8 *245:12 *274:8 0
9 *252:8 *274:8 0
*RES
1 *2279:X *274:8 45.54 
2 *274:8 *2280:A_N 38 
*END

*D_NET *275 0.00087493
*CONN
*I *2282:B I *D sky130_fd_sc_hd__xor2_1
*I *2281:Y O *D sky130_fd_sc_hd__nand2_1
*CAP
1 *2282:B 0
2 *2281:Y 0.000138123
3 *275:8 0.000138123
4 *275:8 *497:46 0.000158547
5 *275:8 *538:14 6.16439e-05
6 *191:60 *275:8 0.000378492
*RES
1 *2281:Y *275:8 43.075 
2 *275:8 *2282:B 38 
*END

*D_NET *276 0.00156144
*CONN
*I *2283:B I *D sky130_fd_sc_hd__xnor2_1
*I *2338:A2 I *D sky130_fd_sc_hd__a21o_1
*I *2282:X O *D sky130_fd_sc_hd__xor2_1
*CAP
1 *2283:B 0.000170498
2 *2338:A2 0
3 *2282:X 0.000199875
4 *276:10 0.000370374
5 *2283:B *279:12 6.60455e-05
6 *276:10 *279:12 4.21594e-06
7 *276:10 *336:8 0
8 *276:10 *501:19 0.000141052
9 *276:10 *542:69 0
10 *192:80 *2283:B 0.000204337
11 *192:80 *276:10 0.000166522
12 *240:8 *2283:B 9.91701e-05
13 *250:20 *2283:B 0.000139346
*RES
1 *2282:X *276:10 41.8321 
2 *276:10 *2338:A2 38 
3 *276:10 *2283:B 43.0129 
*END

*D_NET *277 0.00147861
*CONN
*I *2284:C I *D sky130_fd_sc_hd__and3_1
*I *2285:B1 I *D sky130_fd_sc_hd__a21oi_1
*I *2283:Y O *D sky130_fd_sc_hd__xnor2_1
*CAP
1 *2284:C 8.21164e-05
2 *2285:B1 0
3 *2283:Y 6.80377e-05
4 *277:12 0.000105693
5 *277:8 9.16146e-05
6 *2284:C *2308:B1 0.000125931
7 *2284:C *506:8 9.84851e-05
8 *2284:A *2284:C 0.000381573
9 *2284:A *277:12 5.50106e-05
10 *192:70 *277:8 1.22803e-05
11 *192:80 *277:8 0.000168754
12 *242:18 *2284:C 8.24045e-05
13 *242:18 *277:12 2.64616e-05
14 *250:10 *277:8 1.37349e-05
15 *250:20 *277:8 0.000166513
*RES
1 *2283:Y *277:8 40.61 
2 *277:8 *277:12 15.6214 
3 *277:12 *2285:B1 23 
4 *277:12 *2284:C 27.2671 
*END

*D_NET *278 0.000491081
*CONN
*I *2308:A2 I *D sky130_fd_sc_hd__o31ai_1
*I *2284:X O *D sky130_fd_sc_hd__and3_1
*CAP
1 *2308:A2 5.51946e-05
2 *2284:X 5.51946e-05
3 *2308:A2 *279:6 7.67422e-05
4 *2284:B *2308:A2 9.67842e-05
5 *242:18 *2308:A2 0.000207166
*RES
1 *2284:X *2308:A2 48.2889 
*END

*D_NET *279 0.00108894
*CONN
*I *2308:A3 I *D sky130_fd_sc_hd__o31ai_1
*I *2338:B1 I *D sky130_fd_sc_hd__a21o_1
*I *2285:Y O *D sky130_fd_sc_hd__a21oi_1
*CAP
1 *2308:A3 0
2 *2338:B1 0
3 *2285:Y 0.000135159
4 *279:12 0.000213631
5 *279:6 0.000348791
6 *279:12 *542:69 7.35181e-05
7 *2283:B *279:12 6.60455e-05
8 *2308:A2 *279:6 7.67422e-05
9 *192:80 *279:12 0
10 *242:18 *279:6 5.89817e-05
11 *250:20 *279:12 0.000111852
12 *276:10 *279:12 4.21594e-06
*RES
1 *2285:Y *279:6 25.0507 
2 *279:6 *279:12 34.7229 
3 *279:12 *2338:B1 23 
4 *279:6 *2308:A3 23 
*END

*D_NET *280 0.00288271
*CONN
*I *2360:A1 I *D sky130_fd_sc_hd__a21o_1
*I *2330:A I *D sky130_fd_sc_hd__xnor2_1
*I *2288:A I *D sky130_fd_sc_hd__or2_1
*I *2286:X O *D sky130_fd_sc_hd__and4_1
*CAP
1 *2360:A1 0
2 *2330:A 0
3 *2288:A 0
4 *2286:X 0.000120978
5 *280:40 0.00022953
6 *280:23 0.000543275
7 *280:12 0.000373531
8 *280:8 0.000180764
9 *280:8 *281:8 0.000164045
10 *280:8 *525:88 0
11 *280:8 *538:120 9.2467e-06
12 *280:12 *2288:B 5.50049e-05
13 *280:12 *289:6 1.41077e-05
14 *280:23 *2288:B 9.84851e-05
15 *280:23 *2329:A 0.000349824
16 *280:23 *289:27 0.000134315
17 *280:23 *327:14 9.67842e-05
18 *280:40 *2327:B 0
19 *280:40 *2327:C 5.88354e-06
20 *280:40 *2329:A 8.43466e-05
21 *280:40 *2360:B1 5.50049e-05
22 *280:40 *325:12 0.000101757
23 *280:40 *325:27 6.03737e-05
24 *280:40 *327:6 4.17736e-05
25 *280:40 *327:14 5.50106e-05
26 *280:40 *529:53 0.000108672
*RES
1 *2286:X *280:8 40.61 
2 *280:8 *280:12 16.0979 
3 *280:12 *2288:A 23 
4 *280:12 *280:23 7.45714 
5 *280:23 *2330:A 23 
6 *280:23 *280:40 36.1314 
7 *280:40 *2360:A1 23 
*END

*D_NET *281 0.000782406
*CONN
*I *2288:B I *D sky130_fd_sc_hd__or2_1
*I *2287:Y O *D sky130_fd_sc_hd__a22oi_1
*CAP
1 *2288:B 4.42793e-05
2 *2287:Y 6.99989e-05
3 *281:8 0.000114278
4 *2288:B *289:6 4.96717e-05
5 *2288:B *289:27 2.4754e-05
6 *281:8 *538:120 0.000161888
7 *280:8 *281:8 0.000164045
8 *280:12 *2288:B 5.50049e-05
9 *280:23 *2288:B 9.84851e-05
*RES
1 *2287:Y *281:8 40.2579 
2 *281:8 *2288:B 39.5743 
*END

*D_NET *282 0.00220174
*CONN
*I *2296:A I *D sky130_fd_sc_hd__xnor2_1
*I *2295:A_N I *D sky130_fd_sc_hd__nand2b_1
*I *2288:X O *D sky130_fd_sc_hd__or2_1
*CAP
1 *2296:A 6.16353e-05
2 *2295:A_N 0.000311532
3 *2288:X 0.000274997
4 *282:10 0.000648164
5 *2295:A_N *2287:A1 1.24376e-05
6 *2295:A_N *2287:A2 8.50652e-06
7 *2296:A *289:12 0.000126343
8 *2296:A *544:29 0.000135557
9 *282:10 *289:6 0.000135037
10 *282:10 *289:12 0.000215801
11 *282:10 *289:27 5.50106e-05
12 *282:10 *544:29 0.000216721
*RES
1 *2288:X *282:10 43.0129 
2 *282:10 *2295:A_N 41.8529 
3 *282:10 *2296:A 39.9057 
*END

*D_NET *283 0.0184708
*CONN
*I *2169:C1 I *D sky130_fd_sc_hd__a211o_1
*I *2170:C1 I *D sky130_fd_sc_hd__o211a_1
*I *2130:A I *D sky130_fd_sc_hd__xnor2_1
*I *2086:B1 I *D sky130_fd_sc_hd__a21o_1
*I *2085:B1 I *D sky130_fd_sc_hd__a21oi_1
*I *2084:A I *D sky130_fd_sc_hd__and3_1
*I *2409:C I *D sky130_fd_sc_hd__or4b_1
*I *2029:A I *D sky130_fd_sc_hd__xnor2_2
*I *1974:Y O *D sky130_fd_sc_hd__inv_2
*CAP
1 *2169:C1 0
2 *2170:C1 2.34823e-05
3 *2130:A 0
4 *2086:B1 0
5 *2085:B1 0
6 *2084:A 0
7 *2409:C 0.000670554
8 *2029:A 9.43803e-06
9 *1974:Y 4.24857e-05
10 *283:131 0.000927603
11 *283:106 0.00100107
12 *283:99 0.000987558
13 *283:89 0.00201335
14 *283:75 0.000249325
15 *283:65 0.000476503
16 *283:52 0.000376218
17 *283:24 0.000810612
18 *283:20 0.0010782
19 *283:10 0.00168053
20 *283:8 0.00160221
21 *2029:A *478:29 2.26406e-05
22 *2409:C *516:76 0
23 *2409:C *547:36 0
24 *283:10 *471:87 3.88504e-05
25 *283:10 *513:8 5.50955e-05
26 *283:10 *531:22 0
27 *283:10 *536:70 1.34354e-05
28 *283:10 *542:33 0.000131803
29 *283:10 *543:26 2.96369e-05
30 *283:20 *2053:C1 0.000730668
31 *283:20 *477:24 4.77461e-05
32 *283:20 *516:52 4.51403e-05
33 *283:20 *543:26 9.60874e-05
34 *283:89 *471:87 0.000199333
35 *283:89 *531:125 0
36 *283:89 *536:70 0.000177369
37 *283:89 *536:142 0
38 *283:99 *497:20 9.41704e-05
39 *283:99 *497:22 4.27527e-05
40 *283:99 *499:23 0.000327756
41 *283:99 *501:6 6.37432e-05
42 *283:106 *499:23 3.34247e-05
43 *283:131 *2169:A1 1.37232e-05
44 *283:131 *499:23 0.000129511
45 *283:131 *510:75 0.000102482
46 *283:131 *516:38 0.000102606
47 *283:131 *549:106 7.39816e-05
48 *2043:A1 *2409:C 1.23662e-05
49 *2083:B *283:10 0
50 *2084:C *283:52 0.000182826
51 *2084:C *283:65 9.88123e-05
52 *2085:A1 *283:75 1.89075e-05
53 *2086:A2 *283:75 2.29883e-05
54 *2130:B *283:99 5.3304e-05
55 *2132:D *283:99 0.000110184
56 *2142:A1 *283:99 9.64943e-05
57 *2154:B *283:99 4.8612e-05
58 *2161:B1 *283:89 2.34364e-05
59 *2168:B *283:131 6.26408e-05
60 *2170:A1 *283:131 2.64616e-05
61 *2171:A *283:131 3.6862e-05
62 *2180:A_N *283:131 0.000225406
63 *2409:B *2409:C 4.41619e-05
64 *33:8 *2409:C 4.58924e-05
65 *44:8 *2029:A 2.33476e-05
66 *45:36 *283:10 0
67 *46:46 *283:10 0
68 *48:10 *283:10 0.00014411
69 *61:6 *283:8 5.50106e-05
70 *64:10 *283:10 0
71 *67:63 *283:99 0.000195805
72 *72:10 *283:20 4.83778e-05
73 *73:8 *283:20 5.21024e-05
74 *73:12 *283:52 0.000127725
75 *73:22 *283:65 7.33086e-05
76 *73:22 *283:75 0.000128951
77 *74:16 *283:75 1.11037e-05
78 *74:36 *283:20 0
79 *77:10 *283:75 1.48306e-05
80 *81:10 *283:52 0.000571494
81 *82:10 *283:75 0
82 *106:25 *283:89 0
83 *107:35 *283:89 1.86973e-05
84 *108:14 *283:89 0.000165593
85 *121:37 *283:99 9.58714e-05
86 *126:39 *283:89 1.27508e-05
87 *129:31 *283:89 6.93449e-05
88 *130:37 *283:89 0
89 *135:14 *283:99 0
90 *151:10 *283:89 8.76088e-05
91 *155:12 *283:131 0.000112656
92 *157:8 *283:89 8.06039e-05
93 *158:8 *283:89 0.00035999
94 *158:27 *283:131 1.83667e-05
95 *159:8 *283:89 0
96 *160:10 *283:131 8.85189e-05
97 *162:8 *283:131 0.000140518
98 *172:10 *283:131 0.000143655
*RES
1 *1974:Y *283:8 38.6214 
2 *283:8 *283:10 11.7657 
3 *283:10 *283:20 45.7739 
4 *283:20 *283:24 8.3136 
5 *283:24 *2029:A 46.3211 
6 *283:24 *2409:C 49.9497 
7 *283:10 *283:52 21.815 
8 *283:52 *2084:A 23 
9 *283:52 *283:65 4.97143 
10 *283:65 *283:75 35.1786 
11 *283:75 *2085:B1 23 
12 *283:65 *2086:B1 23 
13 *283:8 *283:89 37.33 
14 *283:89 *283:99 49.2229 
15 *283:99 *2130:A 23 
16 *283:89 *283:106 1.09786 
17 *283:106 *2170:C1 23.4971 
18 *283:106 *283:131 49.7614 
19 *283:131 *2169:C1 23 
*END

*D_NET *284 0.00270551
*CONN
*I *2293:A_N I *D sky130_fd_sc_hd__nand2b_1
*I *2294:A I *D sky130_fd_sc_hd__xnor2_1
*I *2289:X O *D sky130_fd_sc_hd__o21ba_1
*CAP
1 *2293:A_N 0.000115534
2 *2294:A 0
3 *2289:X 0.00048966
4 *284:12 0.000115534
5 *284:10 0.00048966
6 *2293:A_N *2293:B 0.0002246
7 *284:10 *490:29 0.000558542
8 *284:10 *526:52 0.000234675
9 *284:10 *555:43 0.000113929
10 *2265:B *284:10 0.000228001
11 *2266:A *284:10 2.93431e-05
12 *254:10 *284:10 8.4047e-05
13 *258:6 *284:10 2.19845e-05
*RES
1 *2289:X *284:10 49.4964 
2 *284:10 *284:12 15 
3 *284:12 *2294:A 23 
4 *284:12 *2293:A_N 25.5271 
*END

*D_NET *285 0.00171456
*CONN
*I *2315:B1 I *D sky130_fd_sc_hd__a31oi_2
*I *2291:B1 I *D sky130_fd_sc_hd__a21oi_2
*I *2290:X O *D sky130_fd_sc_hd__and3_1
*CAP
1 *2315:B1 9.92787e-05
2 *2291:B1 2.86502e-05
3 *2290:X 0.000134384
4 *285:10 0.000127929
5 *285:8 0.000134384
6 *2291:B1 *2405:A 1.76557e-05
7 *2291:B1 *2405:B 9.58714e-05
8 *2291:B1 *286:6 5.50049e-05
9 *2315:B1 *2405:A 4.21471e-05
10 *2315:B1 *2405:B 0.000308039
11 *2315:B1 *311:10 7.53384e-06
12 *2315:B1 *523:12 0.000137651
13 *285:8 *286:10 0.000351617
14 *285:8 *545:42 0.000174417
*RES
1 *2290:X *285:8 42.7229 
2 *285:8 *285:10 15 
3 *285:10 *2291:B1 24.0979 
4 *285:10 *2315:B1 26.48 
*END

*D_NET *286 0.00463335
*CONN
*I *2315:A3 I *D sky130_fd_sc_hd__a31oi_2
*I *2292:B I *D sky130_fd_sc_hd__xnor2_1
*I *2291:Y O *D sky130_fd_sc_hd__a21oi_2
*CAP
1 *2315:A3 0
2 *2292:B 0
3 *2291:Y 3.123e-05
4 *286:10 0.00111527
5 *286:6 0.0011465
6 *286:6 *2405:A 5.41385e-05
7 *286:6 *2405:B 2.18506e-05
8 *286:10 *518:142 0.000236946
9 *286:10 *523:81 0.000332775
10 *286:10 *524:14 0
11 *286:10 *545:36 0
12 *286:10 *545:42 2.75142e-05
13 *286:10 *545:44 2.76611e-06
14 *286:10 *545:101 0
15 *286:10 *548:18 0.000284116
16 *286:10 *548:104 0.000336072
17 *286:10 *548:112 8.72173e-05
18 *2289:B1_N *286:10 1.59312e-05
19 *2290:C *286:10 0.000164191
20 *2291:B1 *286:6 5.50049e-05
21 *38:31 *286:10 0.000334548
22 *256:10 *286:10 3.56537e-05
23 *285:8 *286:10 0.000351617
*RES
1 *2291:Y *286:6 24.0979 
2 *286:6 *286:10 43.3164 
3 *286:10 *2292:B 38 
4 *286:6 *2315:A3 23 
*END

*D_NET *287 0.00129716
*CONN
*I *2293:B I *D sky130_fd_sc_hd__nand2b_1
*I *2294:B I *D sky130_fd_sc_hd__xnor2_1
*I *2292:Y O *D sky130_fd_sc_hd__xnor2_1
*CAP
1 *2293:B 0.000184942
2 *2294:B 0
3 *2292:Y 0.000177121
4 *287:12 0.000184942
5 *287:10 0.000177121
6 *2293:B *289:6 9.60919e-05
7 *287:10 *490:29 8.26672e-05
8 *287:10 *526:52 0.000169674
9 *2293:A_N *2293:B 0.0002246
*RES
1 *2292:Y *287:10 41.8321 
2 *287:10 *287:12 15 
3 *287:12 *2294:B 23 
4 *287:12 *2293:B 27.1273 
*END

*D_NET *288 0.0016993
*CONN
*I *2328:A1 I *D sky130_fd_sc_hd__a21oi_1
*I *2327:A I *D sky130_fd_sc_hd__and3_1
*I *2293:Y O *D sky130_fd_sc_hd__nand2b_1
*CAP
1 *2328:A1 0.000283836
2 *2327:A 0
3 *2293:Y 3.93847e-05
4 *288:12 0.000552596
5 *288:8 0.000308144
6 *2328:A1 *2327:B 1.01882e-06
7 *2328:A1 *2327:C 0.000209489
8 *288:8 *525:88 0.000114092
9 *288:8 *540:55 0.000116314
10 *288:12 *534:98 7.44257e-05
*RES
1 *2293:Y *288:8 39.5536 
2 *288:8 *288:12 19.4329 
3 *288:12 *2327:A 23 
4 *288:12 *2328:A1 26.9771 
*END

*D_NET *289 0.00323585
*CONN
*I *2295:B I *D sky130_fd_sc_hd__nand2b_1
*I *2296:B I *D sky130_fd_sc_hd__xnor2_1
*I *2294:Y O *D sky130_fd_sc_hd__xnor2_1
*CAP
1 *2295:B 0
2 *2296:B 0
3 *2294:Y 0.000381838
4 *289:27 0.000306578
5 *289:12 0.000215879
6 *289:6 0.000904294
7 *289:12 *527:20 4.96264e-05
8 *289:12 *538:103 0
9 *289:12 *538:120 0.000188926
10 *289:12 *544:29 2.60049e-05
11 *289:27 *290:10 0.000114092
12 *289:27 *527:12 0.000197479
13 *289:27 *529:53 0
14 *2288:B *289:6 4.96717e-05
15 *2288:B *289:27 2.4754e-05
16 *2293:B *289:6 9.60919e-05
17 *2296:A *289:12 0.000126343
18 *280:12 *289:6 1.41077e-05
19 *280:23 *289:27 0.000134315
20 *282:10 *289:6 0.000135037
21 *282:10 *289:12 0.000215801
22 *282:10 *289:27 5.50106e-05
*RES
1 *2294:Y *289:6 29.3386 
2 *289:6 *289:12 35.4271 
3 *289:12 *2296:B 23 
4 *289:6 *289:27 36.7166 
5 *289:27 *2295:B 23 
*END

*D_NET *290 0.00141647
*CONN
*I *2328:A2 I *D sky130_fd_sc_hd__a21oi_1
*I *2327:B I *D sky130_fd_sc_hd__and3_1
*I *2295:Y O *D sky130_fd_sc_hd__nand2b_1
*CAP
1 *2328:A2 0
2 *2327:B 0.000200667
3 *2295:Y 0.000267693
4 *290:14 0.000224867
5 *290:10 0.000291892
6 *2327:B *2327:C 4.91749e-05
7 *2327:B *325:12 0
8 *290:10 *323:12 1.01436e-05
9 *290:10 *327:14 9.95114e-05
10 *290:10 *527:12 0.000102396
11 *290:10 *529:53 0
12 *290:14 *2327:C 5.50106e-05
13 *2328:A1 *2327:B 1.01882e-06
14 *280:40 *2327:B 0
15 *289:27 *290:10 0.000114092
*RES
1 *2295:Y *290:10 43.3443 
2 *290:10 *290:14 15.6214 
3 *290:14 *2327:B 26.2521 
4 *290:14 *2328:A2 23 
*END

*D_NET *291 0.00510546
*CONN
*I *2297:B1 I *D sky130_fd_sc_hd__o21ai_1
*I *2298:C I *D sky130_fd_sc_hd__or3_1
*I *2296:Y O *D sky130_fd_sc_hd__xnor2_1
*CAP
1 *2297:B1 0
2 *2298:C 0.00039676
3 *2296:Y 0.000301146
4 *291:25 0.000503269
5 *291:8 0.00120117
6 *2298:C *2306:A3 0.00052371
7 *291:8 *549:39 0.000769902
8 *291:8 *557:22 0.000382355
9 *291:25 *302:10 2.33476e-05
10 *291:25 *549:39 0.000480832
11 *291:25 *555:60 0.000298769
12 *291:25 *557:22 0.000224198
*RES
1 *2296:Y *291:8 48.3571 
2 *291:8 *2298:C 45.7886 
3 *291:8 *291:25 28.2986 
4 *291:25 *2297:B1 23 
*END

*D_NET *292 0.0025537
*CONN
*I *2299:A I *D sky130_fd_sc_hd__and2_1
*I *2331:A I *D sky130_fd_sc_hd__or2_1
*I *2333:A I *D sky130_fd_sc_hd__nand2_1
*I *2297:Y O *D sky130_fd_sc_hd__o21ai_1
*CAP
1 *2299:A 3.80122e-05
2 *2331:A 0
3 *2333:A 4.59409e-05
4 *2297:Y 0.000175398
5 *292:14 0.000346429
6 *292:10 0.000513899
7 *2299:A *2299:B 5.3304e-05
8 *2333:A *2331:B 5.67058e-05
9 *2333:A *329:12 5.50049e-05
10 *2333:A *331:10 5.37348e-06
11 *2333:A *334:22 5.50106e-05
12 *2333:A *514:58 1.56665e-05
13 *292:10 *555:60 0.000139346
14 *292:14 *297:8 0
15 *292:14 *297:14 0
16 *292:14 *328:8 0
17 *292:14 *329:12 0.000222113
18 *292:14 *529:53 0
19 *2297:A1 *292:10 2.81216e-05
20 *2298:A *292:10 0.000102696
21 *2298:A *292:14 0.000195248
22 *2298:B *292:10 0.000155068
23 *2298:B *292:14 0.00014411
24 *259:18 *292:14 0.000206253
*RES
1 *2297:Y *292:10 41.8321 
2 *292:10 *292:14 23.5964 
3 *292:14 *2333:A 24.5743 
4 *292:14 *2331:A 23 
5 *292:10 *2299:A 38.6214 
*END

*D_NET *293 0.000733736
*CONN
*I *2299:B I *D sky130_fd_sc_hd__and2_1
*I *2298:X O *D sky130_fd_sc_hd__or3_1
*CAP
1 *2299:B 0.000116902
2 *2298:X 5.52199e-05
3 *293:8 0.000172122
4 *2268:B *293:8 5.33597e-05
5 *2298:A *293:8 0.000166513
6 *2299:A *2299:B 5.3304e-05
7 *259:18 *293:8 0.000116314
*RES
1 *2298:X *293:8 40.2579 
2 *293:8 *2299:B 39.5743 
*END

*D_NET *294 0.0144404
*CONN
*I *2164:C1 I *D sky130_fd_sc_hd__o211a_1
*I *2009:A I *D sky130_fd_sc_hd__and3_1
*I *2010:B1 I *D sky130_fd_sc_hd__a21oi_1
*I *2049:A1 I *D sky130_fd_sc_hd__a221o_1
*I *2079:A I *D sky130_fd_sc_hd__xnor2_1
*I *1975:Y O *D sky130_fd_sc_hd__inv_2
*CAP
1 *2164:C1 0
2 *2009:A 0.000103818
3 *2010:B1 3.68618e-05
4 *2049:A1 0
5 *2079:A 0.000221785
6 *1975:Y 0
7 *294:70 0.00167842
8 *294:35 0.000296101
9 *294:20 0.00147465
10 *294:14 0.0010696
11 *294:12 0.00108985
12 *294:6 0.00258848
13 *2009:A *2027:A0 0.000139357
14 *2010:B1 *2042:A2 9.84851e-05
15 *2010:B1 *475:10 4.34745e-05
16 *2010:B1 *518:85 9.84851e-05
17 *2010:B1 *518:91 1.21972e-05
18 *2079:A *2079:B 0.00031495
19 *294:12 *2051:B 5.33597e-05
20 *294:12 *470:10 1.78655e-05
21 *294:12 *475:23 2.71291e-05
22 *294:12 *475:84 0.000973195
23 *294:12 *516:84 0.000263582
24 *294:12 *517:56 0
25 *294:12 *517:58 0
26 *294:12 *520:84 0
27 *294:12 *543:101 6.16531e-05
28 *294:12 *550:104 0.000415819
29 *294:14 *475:23 6.7911e-05
30 *294:14 *476:10 0.000128583
31 *294:14 *516:84 1.47563e-05
32 *294:20 *2034:A0 0.000118143
33 *294:20 *2034:S 0.000139346
34 *294:20 *2079:B 8.6949e-05
35 *294:20 *459:14 0
36 *294:20 *460:10 4.49946e-05
37 *294:20 *476:10 0.000188916
38 *294:20 *484:10 0.00031495
39 *294:20 *485:10 0.000143655
40 *294:20 *518:85 6.48142e-05
41 *294:35 *485:10 0
42 *294:35 *543:26 0
43 *294:70 *497:46 0.000204405
44 *294:70 *537:32 1.22906e-05
45 *294:70 *543:101 0.000636449
46 *294:70 *550:104 0.000168744
47 *31:8 *2009:A 1.76557e-05
48 *32:6 *294:20 0.000699309
49 *34:36 *294:35 0
50 *107:12 *294:70 0.000195378
51 *191:68 *294:70 0.000114074
52 *219:23 *294:70 0
*RES
1 *1975:Y *294:6 38 
2 *294:6 *294:12 22.04 
3 *294:12 *294:14 2.25786 
4 *294:14 *294:20 38.7179 
5 *294:20 *2079:A 27.8057 
6 *294:20 *294:35 34.7229 
7 *294:35 *2049:A1 23 
8 *294:14 *2010:B1 39.5743 
9 *294:12 *2009:A 40.0507 
10 *294:6 *294:70 43.13 
11 *294:70 *2164:C1 23 
*END

*D_NET *295 0.000350509
*CONN
*I *2300:B I *D sky130_fd_sc_hd__or2_1
*I *2301:B I *D sky130_fd_sc_hd__nand2_1
*I *2299:X O *D sky130_fd_sc_hd__and2_1
*CAP
1 *2300:B 0.000117637
2 *2301:B 0
3 *2299:X 3.01153e-05
4 *295:6 0.000147752
5 *2300:A *2300:B 5.50049e-05
*RES
1 *2299:X *295:6 23.6214 
2 *295:6 *2301:B 23 
3 *295:6 *2300:B 25.0714 
*END

*D_NET *296 0.00133649
*CONN
*I *2306:A2 I *D sky130_fd_sc_hd__a311o_1
*I *2300:X O *D sky130_fd_sc_hd__or2_1
*CAP
1 *2306:A2 0
2 *2300:X 0.00049611
3 *296:10 0.00049611
4 *296:10 *514:33 0.000167535
5 *296:10 *514:35 1.14452e-05
6 *296:10 *544:29 0.000165294
*RES
1 *2300:X *296:10 45.1671 
2 *296:10 *2306:A2 38 
*END

*D_NET *297 0.00316333
*CONN
*I *2306:A3 I *D sky130_fd_sc_hd__a311o_1
*I *2336:A I *D sky130_fd_sc_hd__nor2_1
*I *2335:A I *D sky130_fd_sc_hd__nand2_1
*I *2337:A1 I *D sky130_fd_sc_hd__o21a_1
*I *2301:Y O *D sky130_fd_sc_hd__nand2_1
*CAP
1 *2306:A3 0.000343046
2 *2336:A 0
3 *2335:A 2.01583e-05
4 *2337:A1 3.2572e-05
5 *2301:Y 0.000120942
6 *297:18 0.000388223
7 *297:14 0.000532175
8 *297:8 0.00066067
9 *2335:A *2337:A2 1.13457e-05
10 *2337:A1 *2337:A2 2.93747e-05
11 *297:8 *529:53 0
12 *297:14 *331:10 4.6318e-06
13 *297:14 *332:12 5.50049e-05
14 *297:14 *529:53 0
15 *297:18 *2336:B 5.90675e-06
16 *297:18 *2337:A2 4.21378e-05
17 *297:18 *332:12 0.000393433
18 *2298:B *297:8 0
19 *2298:C *2306:A3 0.00052371
20 *292:14 *297:8 0
21 *292:14 *297:14 0
*RES
1 *2301:Y *297:8 40.2579 
2 *297:8 *297:14 18.2314 
3 *297:14 *297:18 7.31214 
4 *297:18 *2337:A1 23.6214 
5 *297:18 *2335:A 23.4971 
6 *297:14 *2336:A 23 
7 *297:8 *2306:A3 45.2914 
*END

*D_NET *298 0.00107108
*CONN
*I *2303:B2 I *D sky130_fd_sc_hd__o22a_1
*I *2302:Y O *D sky130_fd_sc_hd__a21oi_1
*CAP
1 *2303:B2 0
2 *2302:Y 0.000265558
3 *298:10 0.000265558
4 *298:10 *519:52 4.21594e-06
5 *298:10 *519:61 4.66053e-05
6 *298:10 *519:72 5.08932e-05
7 *298:10 *525:112 0.000339769
8 *199:56 *298:10 9.84794e-05
*RES
1 *2302:Y *298:10 43.8207 
2 *298:10 *2303:B2 38 
*END

*D_NET *299 0.000713285
*CONN
*I *2306:B1 I *D sky130_fd_sc_hd__a311o_1
*I *2303:X O *D sky130_fd_sc_hd__o22a_1
*CAP
1 *2306:B1 0
2 *2303:X 0.000228511
3 *299:10 0.000228511
4 *299:10 *2337:B1 2.92953e-05
5 *299:10 *300:10 1.14452e-05
6 *299:10 *333:10 0.000110383
7 *299:10 *335:10 5.02625e-05
8 *299:10 *514:35 2.88615e-05
9 *299:10 *514:58 2.60152e-05
10 *299:10 *525:112 0
11 *299:10 *538:103 0
*RES
1 *2303:X *299:10 42.8886 
2 *299:10 *2306:B1 38 
*END

*D_NET *300 0.000435212
*CONN
*I *2306:C1 I *D sky130_fd_sc_hd__a311o_1
*I *2304:X O *D sky130_fd_sc_hd__and2_1
*CAP
1 *2306:C1 0
2 *2304:X 0.000185924
3 *300:10 0.000185924
4 *300:10 *335:10 4.6318e-06
5 *300:10 *514:33 4.48305e-05
6 *300:10 *519:93 2.45549e-06
7 *300:10 *525:112 0
8 *299:10 *300:10 1.14452e-05
*RES
1 *2304:X *300:10 40.8793 
2 *300:10 *2306:C1 38 
*END

*D_NET *301 0.000600681
*CONN
*I *2307:B1 I *D sky130_fd_sc_hd__a211oi_1
*I *2305:X O *D sky130_fd_sc_hd__a32o_1
*CAP
1 *2307:B1 0
2 *2305:X 0.000143266
3 *301:10 0.000143266
4 *301:10 *2454:A 0.000139352
5 *301:10 *303:8 8.62783e-05
6 *301:10 *326:65 8.85189e-05
*RES
1 *2305:X *301:10 40.7757 
2 *301:10 *2307:B1 38 
*END

*D_NET *302 0.00701519
*CONN
*I *2307:C1 I *D sky130_fd_sc_hd__a211oi_1
*I *2306:X O *D sky130_fd_sc_hd__a311o_1
*CAP
1 *2307:C1 0
2 *2306:X 8.48803e-06
3 *302:18 0.00199763
4 *302:10 0.00200612
5 *302:10 *557:22 2.33476e-05
6 *302:18 *2248:A2 0
7 *302:18 *2349:A1 0.00038007
8 *302:18 *326:65 1.27321e-05
9 *302:18 *438:18 0.000549946
10 *302:18 *490:55 0.000562816
11 *302:18 *519:114 3.41592e-05
12 *302:18 *537:58 0.00128236
13 *302:18 *538:74 0
14 *302:18 *554:92 0.000129667
15 *302:18 *555:43 4.49573e-06
16 *291:25 *302:10 2.33476e-05
*RES
1 *2306:X *302:10 46.3211 
2 *302:10 *302:18 29.9888 
3 *302:18 *2307:C1 23 
*END

*D_NET *303 0.00223708
*CONN
*I *2308:B1 I *D sky130_fd_sc_hd__o31ai_1
*I *2307:Y O *D sky130_fd_sc_hd__a211oi_1
*CAP
1 *2308:B1 0.000159951
2 *2307:Y 0.000268907
3 *303:8 0.000428859
4 *303:8 *326:65 0.000246356
5 *303:8 *538:51 0
6 *2284:A *2308:B1 5.36611e-05
7 *2284:C *2308:B1 0.000125931
8 *197:20 *303:8 0.000238454
9 *197:26 *303:8 0.000190218
10 *242:18 *2308:B1 0.000438468
11 *301:10 *303:8 8.62783e-05
*RES
1 *2307:Y *303:8 45.8921 
2 *303:8 *2308:B1 42.9093 
*END

*D_NET *304 0.00134195
*CONN
*I *2135:A1 I *D sky130_fd_sc_hd__o21bai_1
*I *2136:A1_N I *D sky130_fd_sc_hd__o2bb2a_1
*I *1976:Y O *D sky130_fd_sc_hd__inv_2
*CAP
1 *2135:A1 0.000105296
2 *2136:A1_N 0
3 *1976:Y 0.000146284
4 *304:14 0.000201634
5 *304:6 0.000453213
6 *2135:A1 *2120:A 0
7 *304:6 *2120:A 9.76358e-05
8 *304:14 *539:18 0.000130148
9 *2120:B *2135:A1 7.59794e-05
10 *2120:B *304:6 6.17437e-06
11 *2120:B *304:14 1.97329e-05
12 *2135:B1_N *2135:A1 6.09174e-05
13 *2136:B1 *304:14 1.37702e-05
14 *112:14 *2135:A1 1.14876e-05
15 *112:14 *304:14 0
16 *113:8 *2135:A1 5.90675e-06
17 *113:20 *304:14 1.37702e-05
*RES
1 *1976:Y *304:6 25.5271 
2 *304:6 *304:14 33.827 
3 *304:14 *2136:A1_N 23 
4 *304:6 *2135:A1 25.5479 
*END

*D_NET *305 0.00224919
*CONN
*I *2312:B1 I *D sky130_fd_sc_hd__o21a_1
*I *2313:A I *D sky130_fd_sc_hd__nor3_1
*I *2309:Y O *D sky130_fd_sc_hd__nand2_1
*CAP
1 *2312:B1 0
2 *2313:A 0
3 *2309:Y 0.000112643
4 *305:29 0.000246799
5 *305:14 0.000414064
6 *305:10 0.000279908
7 *305:10 *519:52 0.000141879
8 *305:10 *523:127 3.70553e-06
9 *305:10 *527:127 5.37348e-06
10 *305:10 *540:77 6.79006e-05
11 *305:14 *2313:B 5.50106e-05
12 *305:14 *525:70 9.0102e-05
13 *305:29 *2312:A1 6.68587e-05
14 *305:29 *2312:A2 0.000140006
15 *305:29 *2313:B 7.65615e-05
16 *305:29 *525:70 0.000160182
17 *305:29 *527:127 2.93845e-05
18 *305:29 *534:108 0
19 *305:29 *538:120 0.000212621
20 *259:6 *305:14 0.00012672
21 *259:6 *305:29 1.94693e-05
*RES
1 *2309:Y *305:10 40.5271 
2 *305:10 *305:14 18.9564 
3 *305:14 *2313:A 23 
4 *305:14 *305:29 36.67 
5 *305:29 *2312:B1 23 
*END

*D_NET *306 0.00327864
*CONN
*I *2361:A1 I *D sky130_fd_sc_hd__o211a_1
*I *2362:B1 I *D sky130_fd_sc_hd__a211oi_1
*I *2313:B I *D sky130_fd_sc_hd__nor3_1
*I *2312:A1 I *D sky130_fd_sc_hd__o21a_1
*I *2310:X O *D sky130_fd_sc_hd__and4_1
*CAP
1 *2361:A1 1.5965e-05
2 *2362:B1 0.000140937
3 *2313:B 0.000247249
4 *2312:A1 0.000115481
5 *2310:X 0
6 *306:30 0.000678357
7 *306:6 0.000362729
8 *306:4 0.000521456
9 *2312:A1 *2312:A2 0
10 *2312:A1 *525:49 0
11 *2313:B *525:49 0
12 *2313:B *525:60 0
13 *2313:B *525:70 0.000213486
14 *2313:B *534:108 5.21127e-05
15 *2361:A1 *323:12 5.46706e-05
16 *2361:A1 *529:14 3.3123e-05
17 *2362:B1 *2362:C1 1.59094e-05
18 *2362:B1 *323:12 0.000192087
19 *2362:B1 *529:14 9.39159e-05
20 *306:30 *2311:A1 0.000181131
21 *306:30 *2311:A2 8.50652e-06
22 *306:30 *2361:A2 4.39607e-05
23 *306:30 *534:108 0.000101068
24 *259:6 *2313:B 8.06804e-06
25 *305:14 *2313:B 5.50106e-05
26 *305:29 *2312:A1 6.68587e-05
27 *305:29 *2313:B 7.65615e-05
*RES
1 *2310:X *306:4 23 
2 *306:4 *306:6 15 
3 *306:6 *2312:A1 40.2579 
4 *306:6 *2313:B 42.8886 
5 *306:4 *306:30 21.815 
6 *306:30 *2362:B1 41.2314 
7 *306:30 *2361:A1 38.8493 
*END

*D_NET *307 0.00146094
*CONN
*I *2313:C I *D sky130_fd_sc_hd__nor3_1
*I *2312:A2 I *D sky130_fd_sc_hd__o21a_1
*I *2311:Y O *D sky130_fd_sc_hd__a22oi_1
*CAP
1 *2313:C 8.06923e-05
2 *2312:A2 0.00013994
3 *2311:Y 0
4 *307:6 0.000220633
5 *2312:A2 *527:127 3.17516e-05
6 *2312:A2 *535:49 0.000143655
7 *2312:A2 *538:120 3.70094e-05
8 *2312:A2 *544:29 0.000243587
9 *2313:C *538:120 0.000205648
10 *2313:C *544:29 0.000218013
11 *2312:A1 *2312:A2 0
12 *305:29 *2312:A2 0.000140006
*RES
1 *2311:Y *307:6 38 
2 *307:6 *2312:A2 42.8886 
3 *307:6 *2313:C 40.9621 
*END

*D_NET *308 0.00011727
*CONN
*I *2314:A I *D sky130_fd_sc_hd__nor2_1
*I *2312:X O *D sky130_fd_sc_hd__o21a_1
*CAP
1 *2314:A 3.21736e-05
2 *2312:X 3.21736e-05
3 *2314:A *527:127 2.64616e-05
4 *2314:A *535:49 2.64616e-05
*RES
1 *2312:X *2314:A 46.6214 
*END

*D_NET *309 0.00211628
*CONN
*I *2361:A2 I *D sky130_fd_sc_hd__o211a_1
*I *2362:C1 I *D sky130_fd_sc_hd__a211oi_1
*I *2314:B I *D sky130_fd_sc_hd__nor2_1
*I *2313:Y O *D sky130_fd_sc_hd__nor3_1
*CAP
1 *2361:A2 0.000150472
2 *2362:C1 0.000171037
3 *2314:B 0
4 *2313:Y 0.000280852
5 *309:14 0.000342905
6 *309:10 0.000603192
7 *2361:A2 *534:108 9.84851e-05
8 *2362:C1 *527:127 0.00014196
9 *2362:C1 *535:49 4.65917e-05
10 *309:10 *527:12 4.6318e-06
11 *309:10 *527:109 0
12 *309:10 *557:22 6.07826e-05
13 *309:14 *323:12 0
14 *309:14 *527:117 3.65271e-05
15 *309:14 *557:22 0.000104143
16 *2362:B1 *2362:C1 1.59094e-05
17 *259:6 *309:10 1.48311e-05
18 *306:30 *2361:A2 4.39607e-05
*RES
1 *2313:Y *309:10 41.9564 
2 *309:10 *309:14 17.9621 
3 *309:14 *2314:B 23 
4 *309:14 *2362:C1 26.9979 
5 *309:10 *2361:A2 41.0243 
*END

*D_NET *310 0.00167005
*CONN
*I *2325:A I *D sky130_fd_sc_hd__nand2_1
*I *2324:A I *D sky130_fd_sc_hd__or2_1
*I *2314:Y O *D sky130_fd_sc_hd__nor2_1
*CAP
1 *2325:A 0.000166738
2 *2324:A 0
3 *2314:Y 0.000199214
4 *310:12 0.000280621
5 *310:8 0.000313097
6 *2325:A *2325:B 0.000117686
7 *2325:A *2326:A 5.67058e-05
8 *2325:A *2383:C 0
9 *2325:A *322:12 9.88574e-06
10 *2325:A *323:8 0.000143655
11 *310:8 *323:12 0
12 *310:8 *557:22 0.000162147
13 *310:12 *2325:B 5.70419e-05
14 *310:12 *320:12 0.00010655
15 *310:12 *323:8 5.67058e-05
*RES
1 *2314:Y *310:8 42.3707 
2 *310:8 *310:12 18.0036 
3 *310:12 *2324:A 23 
4 *310:12 *2325:A 27.4536 
*END

*D_NET *311 0.00248004
*CONN
*I *2323:A I *D sky130_fd_sc_hd__xnor2_1
*I *2322:A I *D sky130_fd_sc_hd__or3_1
*I *2315:Y O *D sky130_fd_sc_hd__a31oi_2
*CAP
1 *2323:A 0
2 *2322:A 0.000210927
3 *2315:Y 0.000408985
4 *311:10 0.000619912
5 *2322:A *2321:A 3.36539e-05
6 *2322:A *2321:B 5.67058e-05
7 *2322:A *318:8 0.000140958
8 *2322:A *519:27 0.000140958
9 *311:10 *2368:B 0.000102093
10 *311:10 *2405:B 2.80394e-05
11 *311:10 *2421:A1 0.000143655
12 *311:10 *318:8 3.92407e-05
13 *311:10 *320:8 0
14 *311:10 *364:8 5.9876e-05
15 *311:10 *426:10 0.000226295
16 *311:10 *519:27 0.000182854
17 *311:10 *537:88 5.50106e-05
18 *311:10 *555:12 1.59094e-05
19 *311:10 *555:18 7.43025e-06
20 *311:10 *557:22 0
21 *2315:B1 *311:10 7.53384e-06
*RES
1 *2315:Y *311:10 48.3779 
2 *311:10 *2322:A 42.9507 
3 *311:10 *2323:A 38 
*END

*D_NET *312 0.00198435
*CONN
*I *2319:B1 I *D sky130_fd_sc_hd__o21a_1
*I *2320:A I *D sky130_fd_sc_hd__nor3_1
*I *2316:Y O *D sky130_fd_sc_hd__nand2_1
*CAP
1 *2319:B1 7.25466e-05
2 *2320:A 0
3 *2316:Y 0.000123663
4 *312:12 0.000102531
5 *312:6 0.000298741
6 *2319:B1 *313:6 0.000139352
7 *2319:B1 *313:23 5.54967e-05
8 *2319:B1 *520:10 0
9 *2319:B1 *558:14 9.16459e-05
10 *312:6 *2316:A 0.000139346
11 *312:6 *313:6 0.000224605
12 *312:6 *375:14 0.00024106
13 *312:6 *518:33 1.76557e-05
14 *312:6 *520:10 0.000253642
15 *312:6 *558:14 7.53384e-06
16 *312:12 *316:8 3.01561e-05
17 *312:12 *317:8 6.70363e-05
18 *312:12 *375:14 5.94125e-05
19 *312:12 *519:12 5.99257e-05
*RES
1 *2316:Y *312:6 28.3857 
2 *312:6 *312:12 32.61 
3 *312:12 *2320:A 23 
4 *312:6 *2319:B1 25.5479 
*END

*D_NET *313 0.00336702
*CONN
*I *2319:A1 I *D sky130_fd_sc_hd__o21a_1
*I *2375:A I *D sky130_fd_sc_hd__nor3_1
*I *2376:A1 I *D sky130_fd_sc_hd__o21a_1
*I *2320:B I *D sky130_fd_sc_hd__nor3_1
*I *2317:X O *D sky130_fd_sc_hd__and3_1
*CAP
1 *2319:A1 0
2 *2375:A 8.07282e-05
3 *2376:A1 0.00022796
4 *2320:B 0
5 *2317:X 0.000123165
6 *313:29 0.000403244
7 *313:23 0.000270392
8 *313:14 9.49177e-05
9 *313:6 0.00039392
10 *2375:A *2375:B 2.4754e-05
11 *2375:A *2375:C 4.34745e-05
12 *2375:A *376:10 0.00010018
13 *2376:A1 *2375:C 0.000225393
14 *2376:A1 *2376:A2 2.4754e-05
15 *2376:A1 *314:10 1.76557e-05
16 *2376:A1 *375:18 5.50106e-05
17 *2376:A1 *448:48 0
18 *2376:A1 *448:58 0
19 *313:6 *375:14 0.000265472
20 *313:14 *2320:C 1.24376e-05
21 *313:14 *316:8 0.000110913
22 *313:14 *317:36 5.3304e-05
23 *313:14 *375:14 1.12487e-05
24 *313:14 *377:8 0.000136486
25 *313:14 *490:12 1.21972e-05
26 *313:23 *557:8 0
27 *313:23 *558:14 3.65917e-05
28 *313:29 *2320:C 1.14452e-05
29 *313:29 *314:10 0.000163361
30 *313:29 *376:10 3.71198e-05
31 *313:29 *557:20 1.14452e-05
32 *313:29 *558:14 0
33 *2319:B1 *313:6 0.000139352
34 *2319:B1 *313:23 5.54967e-05
35 *312:6 *313:6 0.000224605
*RES
1 *2317:X *313:6 26.9564 
2 *313:6 *313:14 32.5271 
3 *313:14 *2320:B 23 
4 *313:6 *313:23 2.9 
5 *313:23 *313:29 32.2579 
6 *313:29 *2376:A1 27.4536 
7 *313:29 *2375:A 25.0507 
8 *313:23 *2319:A1 23 
*END

*D_NET *314 0.00221428
*CONN
*I *2320:C I *D sky130_fd_sc_hd__nor3_1
*I *2319:A2 I *D sky130_fd_sc_hd__o21a_1
*I *2318:Y O *D sky130_fd_sc_hd__a21oi_1
*CAP
1 *2320:C 0.000177452
2 *2319:A2 0
3 *2318:Y 0.000358691
4 *314:10 0.000536143
5 *2320:C *2377:B 9.67842e-05
6 *2320:C *317:36 0.000195642
7 *2320:C *377:8 2.60152e-05
8 *2320:C *490:12 2.32004e-05
9 *2320:C *557:20 0.000105072
10 *314:10 *2318:B1 5.37348e-06
11 *314:10 *2375:B 4.17736e-05
12 *314:10 *2376:A2 0.000230604
13 *314:10 *317:36 0.00021263
14 *2376:A1 *314:10 1.76557e-05
15 *313:14 *2320:C 1.24376e-05
16 *313:29 *2320:C 1.14452e-05
17 *313:29 *314:10 0.000163361
*RES
1 *2318:Y *314:10 46.2236 
2 *314:10 *2319:A2 38 
3 *314:10 *2320:C 43.0336 
*END

*D_NET *315 0.00271914
*CONN
*I *2200:C I *D sky130_fd_sc_hd__or4b_4
*I *1978:B I *D sky130_fd_sc_hd__and3b_2
*I *2195:D1 I *D sky130_fd_sc_hd__o2111a_1
*I *1977:Y O *D sky130_fd_sc_hd__nor2_1
*CAP
1 *2200:C 0
2 *1978:B 0
3 *2195:D1 5.29054e-05
4 *1977:Y 0.000241742
5 *315:36 8.53081e-05
6 *315:23 0.000362353
7 *315:8 0.000571692
8 *2195:D1 *326:12 5.67058e-05
9 *2195:D1 *530:61 4.68476e-05
10 *315:8 *1977:A 0
11 *315:8 *2205:A_N 0.000171906
12 *315:8 *500:43 0.000150977
13 *315:8 *511:46 0.000219882
14 *315:8 *530:55 2.24973e-05
15 *315:8 *530:61 5.7203e-05
16 *315:36 *2200:B 1.14452e-05
17 *315:36 *511:77 8.62876e-05
18 *2195:B1 *2195:D1 4.18957e-05
19 *2195:B1 *315:8 5.31444e-05
20 *192:8 *315:36 2.1199e-05
21 *197:62 *2195:D1 2.93747e-05
22 *197:62 *315:23 0.000348911
23 *197:116 *315:23 1.32314e-05
24 *197:116 *315:36 4.34745e-05
25 *230:32 *315:8 3.01561e-05
*RES
1 *1977:Y *315:8 44.8357 
2 *315:8 *2195:D1 39.8229 
3 *315:8 *315:23 18.9564 
4 *315:23 *1978:B 23 
5 *315:23 *315:36 31.8229 
6 *315:36 *2200:C 23 
*END

*D_NET *316 0.00139359
*CONN
*I *2321:A I *D sky130_fd_sc_hd__nor2_1
*I *2322:B I *D sky130_fd_sc_hd__or3_1
*I *2319:X O *D sky130_fd_sc_hd__o21a_1
*CAP
1 *2321:A 9.95696e-05
2 *2322:B 0
3 *2319:X 0.000229407
4 *316:10 9.95696e-05
5 *316:8 0.000229407
6 *316:8 *2422:B1 7.45278e-05
7 *316:8 *317:8 0.000435013
8 *316:8 *375:14 1.01436e-05
9 *316:8 *377:8 2.84912e-05
10 *316:8 *557:20 0
11 *316:8 *557:22 1.27424e-05
12 *2322:A *2321:A 3.36539e-05
13 *312:12 *316:8 3.01561e-05
14 *313:14 *316:8 0.000110913
*RES
1 *2319:X *316:8 44.8357 
2 *316:8 *316:10 15 
3 *316:10 *2322:B 23 
4 *316:10 *2321:A 24.9679 
*END

*D_NET *317 0.00376919
*CONN
*I *2375:B I *D sky130_fd_sc_hd__nor3_1
*I *2376:A2 I *D sky130_fd_sc_hd__o21a_1
*I *2322:C I *D sky130_fd_sc_hd__or3_1
*I *2321:B I *D sky130_fd_sc_hd__nor2_1
*I *2320:Y O *D sky130_fd_sc_hd__nor3_1
*CAP
1 *2375:B 7.02011e-05
2 *2376:A2 3.2816e-05
3 *2322:C 5.19253e-05
4 *2321:B 7.47757e-05
5 *2320:Y 0
6 *317:36 0.00045536
7 *317:8 0.000357151
8 *317:4 0.000582792
9 *2375:B *2375:C 0.000139352
10 *2376:A2 *2375:C 0.000128723
11 *2376:A2 *375:18 5.67058e-05
12 *317:8 *519:12 7.75329e-06
13 *317:8 *519:27 0.000144455
14 *317:8 *557:22 2.72055e-05
15 *317:36 *375:14 0
16 *317:36 *377:8 0.000289695
17 *317:36 *490:12 8.06804e-06
18 *2320:C *317:36 0.000195642
19 *2322:A *2321:B 5.67058e-05
20 *2375:A *2375:B 2.4754e-05
21 *2376:A1 *2376:A2 2.4754e-05
22 *312:12 *317:8 6.70363e-05
23 *313:14 *317:36 5.3304e-05
24 *314:10 *2375:B 4.17736e-05
25 *314:10 *2376:A2 0.000230604
26 *314:10 *317:36 0.00021263
27 *316:8 *317:8 0.000435013
*RES
1 *2320:Y *317:4 23 
2 *317:4 *317:8 21.8357 
3 *317:8 *2321:B 39.2429 
4 *317:8 *2322:C 38.6214 
5 *317:4 *317:36 37.1257 
6 *317:36 *2376:A2 25.5271 
7 *317:36 *2375:B 25.0507 
*END

*D_NET *318 0.000364157
*CONN
*I *2323:B I *D sky130_fd_sc_hd__xnor2_1
*I *2321:Y O *D sky130_fd_sc_hd__nor2_1
*CAP
1 *2323:B 0
2 *2321:Y 9.1979e-05
3 *318:8 9.1979e-05
4 *318:8 *557:22 0
5 *2322:A *318:8 0.000140958
6 *311:10 *318:8 3.92407e-05
*RES
1 *2321:Y *318:8 40.2579 
2 *318:8 *2323:B 38 
*END

*D_NET *319 0.00244862
*CONN
*I *2381:A1 I *D sky130_fd_sc_hd__a21oi_1
*I *2380:A I *D sky130_fd_sc_hd__and3_1
*I *2322:X O *D sky130_fd_sc_hd__or3_1
*CAP
1 *2381:A1 7.05767e-05
2 *2380:A 0
3 *2322:X 0.000444674
4 *319:12 0.000431139
5 *319:8 0.000805236
6 *2381:A1 *2381:A2 3.98818e-05
7 *2381:A1 *2381:B1 0.000179569
8 *2381:A1 *322:25 1.73399e-05
9 *2381:A1 *381:12 0.000106046
10 *2381:A1 *383:10 4.04598e-06
11 *319:8 *2379:A 0.000103647
12 *319:12 *381:8 0.000246469
13 *319:12 *533:16 0
*RES
1 *2322:X *319:8 43.8621 
2 *319:8 *319:12 22.1879 
3 *319:12 *2380:A 23 
4 *319:12 *2381:A1 26.0036 
*END

*D_NET *320 0.00252314
*CONN
*I *2325:B I *D sky130_fd_sc_hd__nand2_1
*I *2324:B I *D sky130_fd_sc_hd__or2_1
*I *2323:Y O *D sky130_fd_sc_hd__xnor2_1
*CAP
1 *2325:B 0.000161389
2 *2324:B 2.34823e-05
3 *2323:Y 0.00023921
4 *320:12 0.000359423
5 *320:8 0.000413762
6 *2325:B *2326:A 5.67058e-05
7 *2325:B *322:12 2.93845e-05
8 *320:8 *519:27 0
9 *320:8 *544:16 0.000141879
10 *320:8 *544:27 0.000227497
11 *320:8 *557:22 0.000589133
12 *2325:A *2325:B 0.000117686
13 *310:12 *2325:B 5.70419e-05
14 *310:12 *320:12 0.00010655
15 *311:10 *320:8 0
*RES
1 *2323:Y *320:8 45.8921 
2 *320:8 *320:12 18.48 
3 *320:12 *2324:B 23.4971 
4 *320:12 *2325:B 27.4536 
*END

*D_NET *321 0.000126903
*CONN
*I *2326:A I *D sky130_fd_sc_hd__nand2_1
*I *2324:X O *D sky130_fd_sc_hd__or2_1
*CAP
1 *2326:A 6.74574e-06
2 *2324:X 6.74574e-06
3 *2325:A *2326:A 5.67058e-05
4 *2325:B *2326:A 5.67058e-05
*RES
1 *2324:X *2326:A 46.6214 
*END

*D_NET *322 0.000999578
*CONN
*I *2381:A2 I *D sky130_fd_sc_hd__a21oi_1
*I *2380:B I *D sky130_fd_sc_hd__and3_1
*I *2326:B I *D sky130_fd_sc_hd__nand2_1
*I *2325:Y O *D sky130_fd_sc_hd__nand2_1
*CAP
1 *2381:A2 0.00015849
2 *2380:B 0
3 *2326:B 0
4 *2325:Y 0
5 *322:25 0.000274105
6 *322:12 0.000165978
7 *322:4 0.000281594
8 *322:12 *2382:A1 0
9 *322:25 *382:8 2.29192e-05
10 *2325:A *322:12 9.88574e-06
11 *2325:B *322:12 2.93845e-05
12 *2381:A1 *2381:A2 3.98818e-05
13 *2381:A1 *322:25 1.73399e-05
*RES
1 *2325:Y *322:4 23 
2 *322:4 *322:12 32.2993 
3 *322:12 *2326:B 23 
4 *322:4 *322:25 31.8229 
5 *322:25 *2380:B 23 
6 *322:25 *2381:A2 25.7757 
*END

*D_NET *323 0.00334822
*CONN
*I *2328:B1 I *D sky130_fd_sc_hd__a21oi_1
*I *2327:C I *D sky130_fd_sc_hd__and3_1
*I *2326:Y O *D sky130_fd_sc_hd__nand2_1
*CAP
1 *2328:B1 0
2 *2327:C 0.000154915
3 *2326:Y 0.000119882
4 *323:12 0.000824576
5 *323:8 0.000789544
6 *2327:C *325:12 3.7122e-06
7 *323:12 *327:14 1.01436e-05
8 *323:12 *527:12 0.000167153
9 *323:12 *527:109 0.000166513
10 *323:12 *527:117 7.87577e-05
11 *323:12 *529:14 6.78567e-05
12 *323:12 *529:40 5.08795e-05
13 *323:12 *529:53 0.000137462
14 *323:12 *557:22 0
15 *2325:A *323:8 0.000143655
16 *2327:B *2327:C 4.91749e-05
17 *2328:A1 *2327:C 0.000209489
18 *2361:A1 *323:12 5.46706e-05
19 *2362:B1 *323:12 0.000192087
20 *280:40 *2327:C 5.88354e-06
21 *290:10 *323:12 1.01436e-05
22 *290:14 *2327:C 5.50106e-05
23 *309:14 *323:12 0
24 *310:8 *323:12 0
25 *310:12 *323:8 5.67058e-05
*RES
1 *2326:Y *323:8 40.0507 
2 *323:8 *323:12 31.3436 
3 *323:12 *2327:C 27.2464 
4 *323:12 *2328:B1 23 
*END

*D_NET *324 0.00177758
*CONN
*I *2329:A I *D sky130_fd_sc_hd__nor2_1
*I *2327:X O *D sky130_fd_sc_hd__and3_1
*CAP
1 *2329:A 0.000411617
2 *2327:X 0.000106275
3 *324:8 0.000517892
4 *2329:A *327:6 9.30151e-05
5 *324:8 *527:12 0.000105553
6 *324:8 *557:22 0.00010906
7 *280:23 *2329:A 0.000349824
8 *280:40 *2329:A 8.43466e-05
*RES
1 *2327:X *324:8 40.9621 
2 *324:8 *2329:A 45.7886 
*END

*D_NET *325 0.00122469
*CONN
*I *2329:B I *D sky130_fd_sc_hd__nor2_1
*I *2360:B1 I *D sky130_fd_sc_hd__a21o_1
*I *2328:Y O *D sky130_fd_sc_hd__a21oi_1
*CAP
1 *2329:B 0
2 *2360:B1 4.53857e-05
3 *2328:Y 0.000249496
4 *325:27 0.000182767
5 *325:12 0.000477648
6 *325:12 *360:10 1.32314e-05
7 *325:27 *360:10 3.53115e-05
8 *325:27 *388:10 0
9 *2327:B *325:12 0
10 *2327:C *325:12 3.7122e-06
11 *280:40 *2360:B1 5.50049e-05
12 *280:40 *325:12 0.000101757
13 *280:40 *325:27 6.03737e-05
*RES
1 *2328:Y *325:12 27.495 
2 *325:12 *2360:B1 24.0979 
3 *325:12 *325:27 33.7079 
4 *325:27 *2329:B 23 
*END

*D_NET *326 0.0155653
*CONN
*I *2279:A1 I *D sky130_fd_sc_hd__a211o_1
*I *2307:A1 I *D sky130_fd_sc_hd__a211oi_1
*I *2431:B2 I *D sky130_fd_sc_hd__a32o_1
*I *2394:A1 I *D sky130_fd_sc_hd__a211o_1
*I *2351:A1 I *D sky130_fd_sc_hd__a31o_1
*I *2227:A1 I *D sky130_fd_sc_hd__a22o_1
*I *2189:B1 I *D sky130_fd_sc_hd__o21a_1
*I *2250:A1 I *D sky130_fd_sc_hd__a211o_1
*I *1978:X O *D sky130_fd_sc_hd__and3b_2
*CAP
1 *2279:A1 0
2 *2307:A1 0
3 *2431:B2 0
4 *2394:A1 0
5 *2351:A1 0.000121124
6 *2227:A1 0
7 *2189:B1 0
8 *2250:A1 0.000305387
9 *1978:X 0.000863704
10 *326:90 0.000244451
11 *326:80 0.00102761
12 *326:67 0.00102116
13 *326:65 0.000694789
14 *326:49 0.000801183
15 *326:41 0.000801183
16 *326:26 0.00149313
17 *326:20 0.00186764
18 *326:16 0.000192026
19 *326:12 0.000953746
20 *2250:A1 *2250:A2 3.46255e-05
21 *2250:A1 *510:92 3.95159e-06
22 *2250:A1 *516:16 0.000180212
23 *2250:A1 *529:77 3.7122e-06
24 *2351:A1 *343:23 0
25 *2351:A1 *351:10 0
26 *326:12 *1978:A_N 0.000243938
27 *326:12 *520:124 0.000953251
28 *326:12 *530:61 9.84851e-05
29 *326:26 *510:92 3.16784e-05
30 *326:49 *510:92 5.3304e-05
31 *326:49 *543:90 0
32 *326:49 *549:106 0
33 *326:65 *538:51 0
34 *326:67 *351:10 0
35 *326:67 *538:51 0
36 *326:90 *2431:B1 1.6318e-05
37 *326:90 *437:10 4.03402e-06
38 *326:90 *440:12 1.14452e-05
39 *326:90 *492:37 0.000346913
40 *326:90 *492:94 4.00259e-06
41 *326:90 *515:8 0.000379413
42 *326:90 *532:18 0
43 *2195:A1 *326:12 2.64616e-05
44 *2195:B1 *326:12 5.67058e-05
45 *2195:D1 *326:12 5.67058e-05
46 *2222:A *326:49 0
47 *2226:A1 *326:26 2.03764e-06
48 *2226:B1 *326:26 0.000111023
49 *2227:B1 *2250:A1 1.01436e-05
50 *2227:B1 *326:26 0.000115013
51 *2227:B2 *326:26 9.76261e-05
52 *50:24 *2351:A1 0.000221174
53 *50:24 *326:20 0.000160191
54 *50:24 *326:65 0.000448914
55 *50:24 *326:67 0.000179693
56 *178:25 *2250:A1 0.000178946
57 *178:33 *2250:A1 3.47781e-05
58 *178:33 *326:26 0.000107101
59 *178:33 *326:49 5.3304e-05
60 *180:10 *326:49 0.000102365
61 *192:70 *326:26 5.32588e-05
62 *197:18 *326:12 1.25306e-05
63 *197:18 *326:16 0
64 *197:20 *326:65 9.18447e-05
65 *197:62 *326:12 5.93544e-05
66 *218:10 *326:49 3.52937e-05
67 *240:8 *2250:A1 5.90675e-06
68 *243:8 *2250:A1 5.41385e-05
69 *245:12 *326:16 0
70 *272:18 *326:16 4.21594e-06
71 *272:18 *326:20 2.87738e-05
72 *273:22 *2250:A1 1.71678e-05
73 *273:39 *2250:A1 0.000112716
74 *274:8 *326:16 2.79004e-05
75 *301:10 *326:65 8.85189e-05
76 *302:18 *326:65 1.27321e-05
77 *303:8 *326:65 0.000246356
*RES
1 *1978:X *326:12 39.0536 
2 *326:12 *326:16 16.9057 
3 *326:16 *326:20 17.2579 
4 *326:20 *326:26 31.4679 
5 *326:26 *2250:A1 46.5757 
6 *326:26 *326:41 15 
7 *326:41 *326:49 44.2929 
8 *326:49 *2189:B1 23 
9 *326:41 *2227:A1 23 
10 *326:20 *326:65 29.0443 
11 *326:65 *326:67 2.61 
12 *326:67 *2351:A1 40.9621 
13 *326:67 *326:80 28.0086 
14 *326:80 *326:90 37.0221 
15 *326:90 *2394:A1 23 
16 *326:80 *2431:B2 23 
17 *326:65 *2307:A1 38 
18 *326:16 *2279:A1 38 
*END

*D_NET *327 0.00109063
*CONN
*I *2330:B I *D sky130_fd_sc_hd__xnor2_1
*I *2360:A2 I *D sky130_fd_sc_hd__a21o_1
*I *2329:Y O *D sky130_fd_sc_hd__nor2_1
*CAP
1 *2330:B 0
2 *2360:A2 0
3 *2329:Y 0.000105356
4 *327:14 0.000188024
5 *327:6 0.00029338
6 *327:14 *529:53 0.00010763
7 *2329:A *327:6 9.30151e-05
8 *280:23 *327:14 9.67842e-05
9 *280:40 *327:6 4.17736e-05
10 *280:40 *327:14 5.50106e-05
11 *290:10 *327:14 9.95114e-05
12 *323:12 *327:14 1.01436e-05
*RES
1 *2329:Y *327:6 25.5271 
2 *327:6 *327:14 34.5364 
3 *327:14 *2360:A2 23 
4 *327:6 *2330:B 23 
*END

*D_NET *328 0.00171197
*CONN
*I *2333:B I *D sky130_fd_sc_hd__nand2_1
*I *2331:B I *D sky130_fd_sc_hd__or2_1
*I *2330:Y O *D sky130_fd_sc_hd__xnor2_1
*CAP
1 *2333:B 0
2 *2331:B 6.12394e-05
3 *2330:Y 0.000688768
4 *328:10 6.12394e-05
5 *328:8 0.000688768
6 *2331:B *331:10 1.32939e-05
7 *2331:B *514:58 0.00014196
8 *328:8 *334:22 0
9 *328:8 *388:10 0
10 *328:8 *529:53 0
11 *2333:A *2331:B 5.67058e-05
12 *259:18 *328:8 0
13 *292:14 *328:8 0
*RES
1 *2330:Y *328:8 48.7093 
2 *328:8 *328:10 15 
3 *328:10 *2331:B 25.0714 
4 *328:10 *2333:B 23 
*END

*D_NET *329 0.00434507
*CONN
*I *2332:A I *D sky130_fd_sc_hd__inv_2
*I *2387:A I *D sky130_fd_sc_hd__xnor2_1
*I *2334:A I *D sky130_fd_sc_hd__nand2_1
*I *2331:X O *D sky130_fd_sc_hd__or2_1
*CAP
1 *2332:A 0.00069352
2 *2387:A 2.96061e-05
3 *2334:A 0
4 *2331:X 0
5 *329:23 0.00109871
6 *329:12 0.000169764
7 *329:4 0.000545347
8 *2332:A *2387:B 5.24575e-05
9 *2332:A *2402:A1 0.000170609
10 *2332:A *2433:A2 0.000351513
11 *2332:A *404:10 0.000184848
12 *2387:A *508:10 6.16439e-05
13 *2387:A *545:120 2.96051e-05
14 *329:12 *331:10 8.16253e-05
15 *329:12 *334:22 4.6595e-05
16 *329:12 *529:53 0
17 *329:23 *2388:B 0.000269775
18 *329:23 *334:14 2.18506e-05
19 *329:23 *334:22 4.05745e-05
20 *329:23 *508:10 0.000141879
21 *329:23 *545:120 7.80251e-05
22 *2333:A *329:12 5.50049e-05
23 *292:14 *329:12 0.000222113
*RES
1 *2331:X *329:4 23 
2 *329:4 *329:12 34.5364 
3 *329:12 *2334:A 23 
4 *329:4 *329:23 23.12 
5 *329:23 *2387:A 38.8493 
6 *329:23 *2332:A 49.1443 
*END

*D_NET *330 0.000263072
*CONN
*I *2402:A1 I *D sky130_fd_sc_hd__o21ai_1
*I *2332:Y O *D sky130_fd_sc_hd__inv_2
*CAP
1 *2402:A1 2.81466e-05
2 *2332:Y 2.81466e-05
3 *2402:A1 *404:10 3.61695e-05
4 *2332:A *2402:A1 0.000170609
*RES
1 *2332:Y *2402:A1 47.595 
*END

*D_NET *331 0.000398074
*CONN
*I *2334:B I *D sky130_fd_sc_hd__nand2_1
*I *2333:Y O *D sky130_fd_sc_hd__nand2_1
*CAP
1 *2334:B 0
2 *2333:Y 0.000146575
3 *331:10 0.000146575
4 *331:10 *529:53 0
5 *2331:B *331:10 1.32939e-05
6 *2333:A *331:10 5.37348e-06
7 *297:14 *331:10 4.6318e-06
8 *329:12 *331:10 8.16253e-05
*RES
1 *2333:Y *331:10 40.8793 
2 *331:10 *2334:B 38 
*END

*D_NET *332 0.00178855
*CONN
*I *2336:B I *D sky130_fd_sc_hd__nor2_1
*I *2337:A2 I *D sky130_fd_sc_hd__o21a_1
*I *2335:B I *D sky130_fd_sc_hd__nand2_1
*I *2334:Y O *D sky130_fd_sc_hd__nand2_1
*CAP
1 *2336:B 2.14194e-05
2 *2337:A2 0.000142793
3 *2335:B 0
4 *2334:Y 5.79825e-05
5 *332:12 0.00048517
6 *332:6 0.000421779
7 *2337:A2 *333:10 9.67842e-05
8 *332:6 *334:10 2.13733e-05
9 *332:12 *334:10 4.04598e-06
10 *2335:A *2337:A2 1.13457e-05
11 *2337:A1 *2337:A2 2.93747e-05
12 *188:90 *2337:A2 0
13 *297:14 *332:12 5.50049e-05
14 *297:18 *2336:B 5.90675e-06
15 *297:18 *2337:A2 4.21378e-05
16 *297:18 *332:12 0.000393433
*RES
1 *2334:Y *332:6 24.0979 
2 *332:6 *332:12 7.45714 
3 *332:12 *2335:B 23 
4 *332:12 *2337:A2 26.045 
5 *332:6 *2336:B 23.4971 
*END

*D_NET *333 0.00114381
*CONN
*I *2350:B1 I *D sky130_fd_sc_hd__a221o_1
*I *2335:Y O *D sky130_fd_sc_hd__nand2_1
*CAP
1 *2350:B1 0.000195113
2 *2335:Y 0.000175513
3 *333:10 0.000370626
4 *2350:B1 *2350:B2 1.28818e-05
5 *2350:B1 *347:8 6.80406e-05
6 *333:10 *2337:B1 6.17437e-06
7 *333:10 *514:35 0.000108293
8 *2337:A2 *333:10 9.67842e-05
9 *299:10 *333:10 0.000110383
*RES
1 *2335:Y *333:10 41.1279 
2 *333:10 *2350:B1 41.0036 
*END

*D_NET *334 0.00452879
*CONN
*I *2388:A I *D sky130_fd_sc_hd__or2_1
*I *2389:A I *D sky130_fd_sc_hd__nand2_1
*I *2402:A2 I *D sky130_fd_sc_hd__o21ai_1
*I *2336:Y O *D sky130_fd_sc_hd__nor2_1
*CAP
1 *2388:A 0
2 *2389:A 0
3 *2402:A2 0
4 *2336:Y 0.000622427
5 *334:37 0.000445501
6 *334:22 0.000305628
7 *334:14 0.000814093
8 *334:12 6.29646e-05
9 *334:10 0.000622427
10 *334:10 *438:18 0
11 *334:10 *545:120 0
12 *334:14 *2388:B 9.84794e-05
13 *334:14 *514:58 4.08664e-05
14 *334:22 *388:10 2.96051e-05
15 *334:22 *514:58 0.000221992
16 *334:37 *2389:B 6.29487e-05
17 *334:37 *2395:A1 0.000270453
18 *334:37 *392:10 0
19 *334:37 *431:10 0
20 *334:37 *438:18 0.000163343
21 *334:37 *509:10 0
22 *334:37 *514:58 9.94675e-05
23 *2333:A *334:22 5.50106e-05
24 *259:18 *334:22 5.05552e-05
25 *259:18 *334:37 0.000428596
26 *328:8 *334:22 0
27 *329:12 *334:22 4.6595e-05
28 *329:23 *334:14 2.18506e-05
29 *329:23 *334:22 4.05745e-05
30 *332:6 *334:10 2.13733e-05
31 *332:12 *334:10 4.04598e-06
*RES
1 *2336:Y *334:10 45.9957 
2 *334:10 *334:12 15 
3 *334:12 *334:14 1.57429 
4 *334:14 *334:22 35.8414 
5 *334:22 *2402:A2 23 
6 *334:14 *334:37 40.3157 
7 *334:37 *2389:A 23 
8 *334:12 *2388:A 23 
*END

*D_NET *335 0.000427342
*CONN
*I *2350:B2 I *D sky130_fd_sc_hd__a221o_1
*I *2337:X O *D sky130_fd_sc_hd__o21a_1
*CAP
1 *2350:B2 5.62361e-06
2 *2337:X 0.000135638
3 *335:10 0.000141262
4 *2350:B2 *347:8 1.28818e-05
5 *335:10 *525:112 6.41609e-05
6 *2350:B1 *2350:B2 1.28818e-05
7 *299:10 *335:10 5.02625e-05
8 *300:10 *335:10 4.6318e-06
*RES
1 *2337:X *335:10 40.5271 
2 *335:10 *2350:B2 38.1502 
*END

*D_NET *336 0.00211602
*CONN
*I *2345:A I *D sky130_fd_sc_hd__or2_1
*I *2344:A I *D sky130_fd_sc_hd__nand2_1
*I *2338:X O *D sky130_fd_sc_hd__a21o_1
*CAP
1 *2345:A 0.00010116
2 *2344:A 0.000208625
3 *2338:X 0.000186051
4 *336:8 0.000495836
5 *2344:A *2344:B 2.91071e-05
6 *2344:A *538:25 0.000118889
7 *2344:A *542:69 0.000241355
8 *2345:A *499:23 4.57742e-05
9 *336:8 *538:25 4.95339e-05
10 *336:8 *542:69 0.000317509
11 *2346:A_N *2344:A 9.84851e-05
12 *192:80 *2344:A 0.000223698
13 *192:80 *336:8 0
14 *276:10 *336:8 0
*RES
1 *2338:X *336:8 42.3707 
2 *336:8 *2344:A 44.3386 
3 *336:8 *2345:A 39.5743 
*END

*D_NET *337 0.00488351
*CONN
*I *1981:C1 I *D sky130_fd_sc_hd__a2111oi_1
*I *2191:A I *D sky130_fd_sc_hd__or2_1
*I *1984:C1 I *D sky130_fd_sc_hd__a211o_1
*I *1982:A4 I *D sky130_fd_sc_hd__o41ai_4
*I *2024:B1 I *D sky130_fd_sc_hd__a21o_1
*I *1988:B1 I *D sky130_fd_sc_hd__a211oi_2
*I *1979:X O *D sky130_fd_sc_hd__or4_4
*CAP
1 *1981:C1 0.000202843
2 *2191:A 0.00014364
3 *1984:C1 0
4 *1982:A4 0
5 *2024:B1 9.7203e-05
6 *1988:B1 6.57126e-05
7 *1979:X 0
8 *337:64 0.000470448
9 *337:55 0.000167662
10 *337:42 0.000327564
11 *337:38 0.000513539
12 *337:10 0.000376193
13 *337:4 0.00044295
14 *1981:C1 *1981:D1 4.08664e-05
15 *1981:C1 *2190:A 2.79543e-05
16 *1981:C1 *2190:C 9.67842e-05
17 *1988:B1 *454:32 1.34542e-05
18 *1988:B1 *540:17 5.50049e-05
19 *2024:B1 *1979:A 1.22906e-05
20 *2024:B1 *2024:A1 0.000154196
21 *2024:B1 *423:8 2.93747e-05
22 *2024:B1 *454:32 5.24779e-05
23 *2024:B1 *524:30 3.22879e-05
24 *337:10 *1979:A 0.000106987
25 *337:10 *2024:A1 4.77461e-05
26 *337:10 *454:32 5.82825e-05
27 *337:10 *540:34 0.000151793
28 *337:38 *540:34 0.000301051
29 *337:38 *545:23 0.000128606
30 *337:42 *520:98 0
31 *337:42 *549:29 9.98954e-05
32 *337:55 *1984:B1 0.00015795
33 *337:55 *517:124 0.000139346
34 *337:55 *547:130 4.21594e-06
35 *337:55 *549:29 0.000133316
36 *337:55 *550:86 1.37246e-05
37 *337:55 *550:94 7.15126e-05
38 *337:64 *520:98 0
39 *337:64 *549:29 9.18471e-05
40 *182:8 *2191:A 5.47927e-05
*RES
1 *1979:X *337:4 23 
2 *337:4 *337:10 19.7125 
3 *337:10 *1988:B1 39.5639 
4 *337:10 *2024:B1 41.0554 
5 *337:4 *337:38 21.3386 
6 *337:38 *337:42 17.9621 
7 *337:42 *1982:A4 23 
8 *337:42 *337:55 34.1843 
9 *337:55 *1984:C1 23 
10 *337:38 *337:64 17.61 
11 *337:64 *2191:A 25.5271 
12 *337:64 *1981:C1 26.5007 
*END

*D_NET *338 0.00184181
*CONN
*I *2353:B1 I *D sky130_fd_sc_hd__a21o_1
*I *2340:B I *D sky130_fd_sc_hd__xnor2_1
*I *2339:X O *D sky130_fd_sc_hd__o21a_1
*CAP
1 *2353:B1 0.000102363
2 *2340:B 0.000134082
3 *2339:X 0.000195987
4 *338:10 0.000432433
5 *2340:B *2354:A 6.17437e-06
6 *2340:B *537:32 5.41385e-05
7 *2340:B *549:89 0.000262858
8 *2353:B1 *2354:A 1.22906e-05
9 *2353:B1 *352:10 0.000162422
10 *2353:B1 *475:94 2.04774e-05
11 *338:10 *2354:A 4.96264e-05
12 *338:10 *546:25 3.70553e-06
13 *2398:A2 *2340:B 8.48502e-06
14 *182:22 *2353:B1 7.34858e-05
15 *182:22 *338:10 9.5877e-05
16 *191:68 *2340:B 3.84903e-05
17 *191:74 *2353:B1 8.02348e-05
18 *191:74 *338:10 0.000108681
*RES
1 *2339:X *338:10 41.1279 
2 *338:10 *2340:B 41.5007 
3 *338:10 *2353:B1 41.3143 
*END

*D_NET *339 0.00157659
*CONN
*I *2342:B I *D sky130_fd_sc_hd__nand2_1
*I *2341:B I *D sky130_fd_sc_hd__or2_1
*I *2340:Y O *D sky130_fd_sc_hd__xnor2_1
*CAP
1 *2342:B 0
2 *2341:B 0.00011246
3 *2340:Y 0.000328478
4 *339:12 0.00011246
5 *339:10 0.000328478
6 *2341:B *2342:A 5.67058e-05
7 *2341:B *537:22 4.21378e-05
8 *2341:B *554:62 0
9 *339:10 *475:94 0.000141879
10 *339:10 *538:25 0.000138727
11 *2398:A2 *339:10 0.00022109
12 *191:68 *339:10 9.41704e-05
*RES
1 *2340:Y *339:10 43.3857 
2 *339:10 *339:12 15 
3 *339:12 *2341:B 25.0714 
4 *339:12 *2342:B 23 
*END

*D_NET *340 0.000479864
*CONN
*I *2343:A I *D sky130_fd_sc_hd__and2_1
*I *2341:X O *D sky130_fd_sc_hd__or2_1
*CAP
1 *2343:A 5.145e-05
2 *2341:X 4.66032e-05
3 *340:8 9.80532e-05
4 *340:8 *341:10 0.000141879
5 *340:8 *499:31 0.000141879
*RES
1 *2341:X *340:8 39.9057 
2 *340:8 *2343:A 38.6214 
*END

*D_NET *341 0.00250066
*CONN
*I *2357:A1 I *D sky130_fd_sc_hd__a21oi_1
*I *2358:A1 I *D sky130_fd_sc_hd__a31o_1
*I *2343:B I *D sky130_fd_sc_hd__and2_1
*I *2342:Y O *D sky130_fd_sc_hd__nand2_1
*CAP
1 *2357:A1 0.000255161
2 *2358:A1 0
3 *2343:B 0
4 *2342:Y 0.000250013
5 *341:19 0.000604727
6 *341:12 0.000349566
7 *341:10 0.000250013
8 *2357:A1 *2357:A2 6.9805e-05
9 *2357:A1 *2357:B1 0
10 *2357:A1 *2359:B 9.41704e-05
11 *341:10 *499:31 2.60256e-05
12 *341:10 *537:22 0.000310653
13 *341:19 *342:10 5.12254e-05
14 *50:24 *341:10 9.74235e-05
15 *340:8 *341:10 0.000141879
*RES
1 *2342:Y *341:10 44.09 
2 *341:10 *341:12 15 
3 *341:12 *2343:B 23 
4 *341:12 *341:19 5.86214 
5 *341:19 *2358:A1 23 
6 *341:19 *2357:A1 26.8529 
*END

*D_NET *342 0.00187961
*CONN
*I *2345:B I *D sky130_fd_sc_hd__or2_1
*I *2344:B I *D sky130_fd_sc_hd__nand2_1
*I *2343:X O *D sky130_fd_sc_hd__and2_1
*CAP
1 *2345:B 0.000173356
2 *2344:B 0.000347992
3 *2343:X 0.000126925
4 *342:10 0.000648273
5 *2344:B *499:31 2.24608e-05
6 *2345:B *499:31 0.000115299
7 *2345:B *542:69 0
8 *342:10 *499:31 3.05976e-05
9 *2344:A *2344:B 2.91071e-05
10 *2346:A_N *2344:B 8.22426e-05
11 *50:24 *2345:B 0.000154036
12 *50:24 *342:10 3.27534e-05
13 *192:80 *2344:B 0
14 *192:93 *2344:B 6.53382e-05
15 *341:19 *342:10 5.12254e-05
*RES
1 *2343:X *342:10 40.1232 
2 *342:10 *2344:B 43.5618 
3 *342:10 *2345:B 42.1946 
*END

*D_NET *343 0.00298839
*CONN
*I *2357:A2 I *D sky130_fd_sc_hd__a21oi_1
*I *2358:A2 I *D sky130_fd_sc_hd__a31o_1
*I *2346:B I *D sky130_fd_sc_hd__and3b_1
*I *2344:Y O *D sky130_fd_sc_hd__nand2_1
*CAP
1 *2357:A2 6.93287e-05
2 *2358:A2 0
3 *2346:B 0
4 *2344:Y 0.000223715
5 *343:23 0.000734409
6 *343:6 0.000888795
7 *2357:A2 *2357:B1 0.000137651
8 *2357:A2 *2359:B 5.3304e-05
9 *343:23 *2351:B1 0.000139352
10 *343:23 *351:10 0.000230604
11 *343:23 *357:8 1.19796e-05
12 *343:23 *454:32 0
13 *343:23 *546:38 0
14 *2351:A1 *343:23 0
15 *2357:A1 *2357:A2 6.9805e-05
16 *192:80 *343:6 0.000221997
17 *192:93 *343:6 1.21972e-05
18 *192:93 *343:23 0.000103525
19 *192:99 *343:23 6.79006e-05
20 *192:110 *343:23 2.38288e-05
*RES
1 *2344:Y *343:6 26.0036 
2 *343:6 *2346:B 23 
3 *343:6 *343:23 41.7243 
4 *343:23 *2358:A2 23 
5 *343:23 *2357:A2 25.0507 
*END

*D_NET *344 0.000688766
*CONN
*I *2346:C I *D sky130_fd_sc_hd__and3b_1
*I *2345:X O *D sky130_fd_sc_hd__or2_1
*CAP
1 *2346:C 0
2 *2345:X 0.000128164
3 *344:10 0.000128164
4 *344:10 *499:23 5.3304e-05
5 *344:10 *499:31 0.000191148
6 *344:10 *542:69 0.000187986
*RES
1 *2345:X *344:10 41.2314 
2 *344:10 *2346:C 38 
*END

*D_NET *345 0.000337384
*CONN
*I *2351:B1 I *D sky130_fd_sc_hd__a31o_1
*I *2346:X O *D sky130_fd_sc_hd__and3b_1
*CAP
1 *2351:B1 7.36422e-05
2 *2346:X 7.36422e-05
3 *192:80 *2351:B1 0
4 *192:93 *2351:B1 5.07481e-05
5 *343:23 *2351:B1 0.000139352
*RES
1 *2346:X *2351:B1 48.0714 
*END

*D_NET *346 0.00068221
*CONN
*I *2348:B2 I *D sky130_fd_sc_hd__o22a_1
*I *2347:Y O *D sky130_fd_sc_hd__a21oi_1
*CAP
1 *2348:B2 0
2 *2347:Y 0.00013739
3 *346:10 0.00013739
4 *346:10 *490:29 6.38845e-05
5 *346:10 *490:42 3.54432e-05
6 *346:10 *519:52 0
7 *346:10 *537:66 6.0643e-05
8 *346:10 *537:76 5.67058e-05
9 *346:10 *538:86 2.95125e-05
10 *2347:B1 *346:10 0.00010973
11 *190:24 *346:10 5.15096e-05
*RES
1 *2347:Y *346:10 41.9357 
2 *346:10 *2348:B2 38 
*END

*D_NET *347 0.000701909
*CONN
*I *2350:C1 I *D sky130_fd_sc_hd__a221o_1
*I *2348:X O *D sky130_fd_sc_hd__o22a_1
*CAP
1 *2350:C1 0
2 *2348:X 0.000206225
3 *347:8 0.000206225
4 *347:8 *2350:A1 3.42179e-05
5 *347:8 *350:16 5.50049e-05
6 *2350:A2 *347:8 0.000119315
7 *2350:B1 *347:8 6.80406e-05
8 *2350:B2 *347:8 1.28818e-05
*RES
1 *2348:X *347:8 27.4536 
2 *347:8 *2350:C1 23 
*END

*D_NET *348 0.0022136
*CONN
*I *1981:D1 I *D sky130_fd_sc_hd__a2111oi_1
*I *2190:C I *D sky130_fd_sc_hd__or3_1
*I *1982:A3 I *D sky130_fd_sc_hd__o41ai_4
*I *1984:B1 I *D sky130_fd_sc_hd__a211o_1
*I *1980:X O *D sky130_fd_sc_hd__or2_2
*CAP
1 *1981:D1 2.5007e-05
2 *2190:C 3.41136e-05
3 *1982:A3 0
4 *1984:B1 0.000130381
5 *1980:X 3.14462e-05
6 *348:34 0.000184511
7 *348:10 0.000216429
8 *348:8 0.000242884
9 *1981:D1 *2190:A 2.64616e-05
10 *1984:B1 *1986:B 5.70419e-05
11 *1984:B1 *380:16 2.93104e-06
12 *1984:B1 *549:29 9.58714e-05
13 *1984:B1 *550:86 0.000160191
14 *2190:C *2190:A 5.12254e-05
15 *348:8 *540:34 5.3304e-05
16 *348:8 *545:23 1.05235e-05
17 *348:10 *2190:A 0.000124873
18 *348:10 *549:29 8.60265e-05
19 *348:10 *550:86 6.48049e-05
20 *348:34 *2190:A 0.000151286
21 *348:34 *358:8 5.80693e-05
22 *348:34 *549:29 0.000103047
23 *348:34 *549:74 7.57281e-06
24 *1981:C1 *1981:D1 4.08664e-05
25 *1981:C1 *2190:C 9.67842e-05
26 *337:55 *1984:B1 0.00015795
*RES
1 *1980:X *348:8 38.6214 
2 *348:8 *348:10 2.61 
3 *348:10 *1984:B1 41.8529 
4 *348:10 *1982:A3 38 
5 *348:8 *348:34 18.3143 
6 *348:34 *2190:C 24.0979 
7 *348:34 *1981:D1 23.6214 
*END

*D_NET *349 0.000499226
*CONN
*I *2352:A I *D sky130_fd_sc_hd__or3_1
*I *2349:X O *D sky130_fd_sc_hd__a32o_1
*CAP
1 *2352:A 0
2 *2349:X 0.000161735
3 *349:10 0.000161735
4 *349:10 *2454:A 9.84851e-05
5 *349:10 *507:12 3.73877e-05
6 *349:10 *538:51 3.98835e-05
*RES
1 *2349:X *349:10 41.0036 
2 *349:10 *2352:A 38 
*END

*D_NET *350 0.00514545
*CONN
*I *2352:B I *D sky130_fd_sc_hd__or3_1
*I *2350:X O *D sky130_fd_sc_hd__a221o_1
*CAP
1 *2352:B 0.000944399
2 *2350:X 0.000682533
3 *350:16 0.00162693
4 *2352:B *2432:B1 1.32939e-05
5 *2352:B *501:19 0.000606243
6 *2352:B *532:8 4.37586e-06
7 *2352:B *553:18 0.000112087
8 *2352:B *553:26 9.61399e-05
9 *350:16 *2393:B1 6.9805e-05
10 *350:16 *492:113 2.64616e-05
11 *350:16 *537:58 0.000644277
12 *2350:A2 *350:16 0.000153327
13 *188:71 *350:16 1.03955e-05
14 *238:10 *350:16 0.00010018
15 *347:8 *350:16 5.50049e-05
*RES
1 *2350:X *350:16 37.3136 
2 *350:16 *2352:B 36.0086 
*END

*D_NET *351 0.00110119
*CONN
*I *2352:C I *D sky130_fd_sc_hd__or3_1
*I *2351:X O *D sky130_fd_sc_hd__a31o_1
*CAP
1 *2352:C 0
2 *2351:X 0.000420485
3 *351:10 0.000420485
4 *351:10 *507:12 0
5 *351:10 *538:51 2.96154e-05
6 *351:10 *546:38 0
7 *2351:A1 *351:10 0
8 *326:67 *351:10 0
9 *343:23 *351:10 0.000230604
*RES
1 *2351:X *351:10 45.25 
2 *351:10 *2352:C 38 
*END

*D_NET *352 0.00124556
*CONN
*I *2398:B1 I *D sky130_fd_sc_hd__a21o_1
*I *2354:B I *D sky130_fd_sc_hd__xor2_1
*I *2353:X O *D sky130_fd_sc_hd__a21o_1
*CAP
1 *2398:B1 0.000137179
2 *2354:B 0
3 *2353:X 0.000136668
4 *352:12 0.000137179
5 *352:10 0.000136668
6 *2398:B1 *2354:A 5.3304e-05
7 *2398:B1 *2398:A1 5.41288e-05
8 *2398:B1 *353:10 0.000182826
9 *2398:B1 *549:89 6.53382e-05
10 *352:10 *2354:A 3.47781e-05
11 *352:10 *475:94 5.62433e-05
12 *352:10 *537:22 1.94812e-05
13 *2353:B1 *352:10 0.000162422
14 *2398:A2 *2398:B1 6.93408e-05
*RES
1 *2353:X *352:10 40.8793 
2 *352:10 *352:12 15 
3 *352:12 *2354:B 23 
4 *352:12 *2398:B1 26.9771 
*END

*D_NET *353 0.00251143
*CONN
*I *2355:A I *D sky130_fd_sc_hd__inv_2
*I *2356:B I *D sky130_fd_sc_hd__xor2_1
*I *2354:X O *D sky130_fd_sc_hd__xor2_1
*CAP
1 *2355:A 0.000100147
2 *2356:B 0
3 *2354:X 0.000213195
4 *353:16 0.000187103
5 *353:10 0.00030015
6 *2355:A *2356:A 0.000177909
7 *2355:A *537:22 0.000356724
8 *2355:A *554:62 8.48502e-06
9 *353:10 *2398:A1 2.80512e-05
10 *353:10 *499:31 0.000217361
11 *353:10 *542:69 1.44813e-05
12 *353:10 *549:89 0.000312348
13 *353:16 *2342:A 0
14 *353:16 *2356:A 1.14154e-05
15 *353:16 *537:22 0.000209914
16 *353:16 *554:62 0.00012103
17 *2398:B1 *353:10 0.000182826
18 *50:24 *353:10 7.02881e-05
*RES
1 *2354:X *353:10 44.7943 
2 *353:10 *353:16 18.0243 
3 *353:16 *2356:B 23 
4 *353:16 *2355:A 27.4536 
*END

*D_NET *354 0.00036371
*CONN
*I *2396:A2 I *D sky130_fd_sc_hd__a21oi_1
*I *2355:Y O *D sky130_fd_sc_hd__inv_2
*CAP
1 *2396:A2 3.73224e-05
2 *2355:Y 3.73224e-05
3 *2396:A2 *2356:A 0.000185428
4 *2396:A2 *537:22 0.000103637
*RES
1 *2355:Y *2396:A2 48.0507 
*END

*D_NET *355 0.00137691
*CONN
*I *2357:B1 I *D sky130_fd_sc_hd__a21oi_1
*I *2358:A3 I *D sky130_fd_sc_hd__a31o_1
*I *2356:X O *D sky130_fd_sc_hd__xor2_1
*CAP
1 *2357:B1 0.000178297
2 *2358:A3 0
3 *2356:X 0.000234825
4 *355:12 0.000178297
5 *355:10 0.000234825
6 *2357:B1 *2359:A 3.89917e-05
7 *2357:B1 *2359:B 8.94107e-05
8 *355:10 *357:8 1.83564e-05
9 *355:10 *454:32 0
10 *355:10 *537:22 0.000230604
11 *355:10 *546:38 3.14377e-05
12 *2357:A1 *2357:B1 0
13 *2357:A2 *2357:B1 0.000137651
14 *192:99 *355:10 4.21594e-06
*RES
1 *2356:X *355:10 42.4329 
2 *355:10 *355:12 15 
3 *355:12 *2358:A3 23 
4 *355:12 *2357:B1 26.6457 
*END

*D_NET *356 0.000586637
*CONN
*I *2359:A I *D sky130_fd_sc_hd__nor2_1
*I *2396:B1 I *D sky130_fd_sc_hd__a21oi_1
*I *2357:Y O *D sky130_fd_sc_hd__a21oi_1
*CAP
1 *2359:A 5.8129e-05
2 *2396:B1 0
3 *2357:Y 0
4 *356:10 0.000100513
5 *356:4 0.000158642
6 *2359:A *2359:B 3.06608e-05
7 *356:10 *520:98 0.000199701
8 *356:10 *554:82 0
9 *2357:B1 *2359:A 3.89917e-05
*RES
1 *2357:Y *356:4 23 
2 *356:4 *356:10 32.61 
3 *356:10 *2396:B1 23 
4 *356:4 *2359:A 24.6157 
*END

*D_NET *357 0.000878744
*CONN
*I *2359:B I *D sky130_fd_sc_hd__nor2_1
*I *2358:X O *D sky130_fd_sc_hd__a31o_1
*CAP
1 *2359:B 0.00018834
2 *2358:X 4.28083e-05
3 *357:8 0.000231148
4 *2359:B *2394:C1 0
5 *2359:B *359:8 3.22879e-05
6 *357:8 *546:38 8.62783e-05
7 *2357:A1 *2359:B 9.41704e-05
8 *2357:A2 *2359:B 5.3304e-05
9 *2357:B1 *2359:B 8.94107e-05
10 *2359:A *2359:B 3.06608e-05
11 *192:99 *357:8 0
12 *343:23 *357:8 1.19796e-05
13 *355:10 *357:8 1.83564e-05
*RES
1 *2358:X *357:8 39.2014 
2 *357:8 *2359:B 41.9771 
*END

*D_NET *358 0.000953003
*CONN
*I *2503:A I *D sky130_fd_sc_hd__clkbuf_1
*I *1981:Y O *D sky130_fd_sc_hd__a2111oi_1
*CAP
1 *2503:A 0
2 *1981:Y 0.000352312
3 *358:8 0.000352312
4 *358:8 *2190:A 0.000109898
5 *358:8 *440:12 0
6 *358:8 *520:98 0
7 *358:8 *549:74 2.29603e-05
8 *358:8 *549:85 2.04313e-05
9 *358:8 *553:26 3.70187e-05
10 *358:8 *554:82 0
11 *348:34 *358:8 5.80693e-05
*RES
1 *1981:Y *358:8 44.4836 
2 *358:8 *2503:A 38 
*END

*D_NET *359 0.000545258
*CONN
*I *2394:B1 I *D sky130_fd_sc_hd__a211o_1
*I *2359:Y O *D sky130_fd_sc_hd__nor2_1
*CAP
1 *2394:B1 0
2 *2359:Y 0.00023609
3 *359:8 0.00023609
4 *359:8 *2394:C1 4.07902e-05
5 *2359:B *359:8 3.22879e-05
*RES
1 *2359:Y *359:8 27.4536 
2 *359:8 *2394:B1 23 
*END

*D_NET *360 0.00235302
*CONN
*I *2386:A I *D sky130_fd_sc_hd__xnor2_1
*I *2385:A I *D sky130_fd_sc_hd__and3_1
*I *2360:X O *D sky130_fd_sc_hd__a21o_1
*CAP
1 *2386:A 0
2 *2385:A 0.000434414
3 *2360:X 0.000515279
4 *360:10 0.000949694
5 *2385:A *2384:A 9.84851e-05
6 *2385:A *2385:B 0
7 *2385:A *2385:C 0.000105592
8 *2385:A *2403:B 3.71369e-05
9 *2385:A *361:25 1.44546e-05
10 *2385:A *384:10 0
11 *2385:A *431:10 0
12 *360:10 *431:10 0
13 *259:18 *2385:A 7.03766e-05
14 *259:18 *360:10 7.90464e-05
15 *325:12 *360:10 1.32314e-05
16 *325:27 *360:10 3.53115e-05
*RES
1 *2360:X *360:10 45.6436 
2 *360:10 *2385:A 47.135 
3 *360:10 *2386:A 38 
*END

*D_NET *361 0.00114564
*CONN
*I *2403:A I *D sky130_fd_sc_hd__xnor2_1
*I *2363:A I *D sky130_fd_sc_hd__or2_1
*I *2361:X O *D sky130_fd_sc_hd__o211a_1
*CAP
1 *2403:A 0
2 *2363:A 0
3 *2361:X 4.8443e-05
4 *361:25 0.000183169
5 *361:12 0.000323541
6 *361:8 0.000188815
7 *361:8 *529:14 0.000116314
8 *361:12 *2363:B 0.000187129
9 *361:25 *363:10 3.06338e-05
10 *361:25 *384:10 0
11 *361:25 *533:16 5.31444e-05
12 *2385:A *361:25 1.44546e-05
*RES
1 *2361:X *361:8 39.5536 
2 *361:8 *361:12 18.0036 
3 *361:12 *2363:A 23 
4 *361:12 *361:25 34.3086 
5 *361:25 *2403:A 23 
*END

*D_NET *362 0.000443651
*CONN
*I *2363:B I *D sky130_fd_sc_hd__or2_1
*I *2362:Y O *D sky130_fd_sc_hd__a211oi_1
*CAP
1 *2363:B 0.000128261
2 *2362:Y 0.000128261
3 *361:12 *2363:B 0.000187129
*RES
1 *2362:Y *2363:B 49.0036 
*END

*D_NET *363 0.00190661
*CONN
*I *2382:B1 I *D sky130_fd_sc_hd__o21ai_1
*I *2383:A I *D sky130_fd_sc_hd__or3_1
*I *2363:X O *D sky130_fd_sc_hd__or2_1
*CAP
1 *2382:B1 0
2 *2383:A 0.00020589
3 *2363:X 0.000200939
4 *363:10 0.000406829
5 *2383:A *2382:A2 8.16459e-05
6 *2383:A *2383:B 9.00923e-05
7 *2383:A *2383:C 0.000267173
8 *2383:A *2404:B 0.000184527
9 *2383:A *383:10 3.31127e-05
10 *2383:A *383:14 2.02872e-05
11 *2383:A *533:16 0.000246767
12 *363:10 *533:16 0.000138708
13 *361:25 *363:10 3.06338e-05
*RES
1 *2363:X *363:10 41.48 
2 *363:10 *2383:A 45.2707 
3 *363:10 *2382:B1 38 
*END

*D_NET *364 0.00113736
*CONN
*I *2368:A I *D sky130_fd_sc_hd__xnor2_1
*I *2364:Y O *D sky130_fd_sc_hd__nand2_1
*CAP
1 *2368:A 0
2 *2364:Y 0.000142981
3 *364:8 0.000142981
4 *364:8 *2368:B 0.000194241
5 *364:8 *2421:A1 4.79641e-05
6 *364:8 *2421:B1 5.3304e-05
7 *364:8 *537:88 6.17437e-06
8 *364:8 *555:12 1.14154e-05
9 *364:8 *555:18 0.000478422
10 *311:10 *364:8 5.9876e-05
*RES
1 *2364:Y *364:8 28.8829 
2 *364:8 *2368:A 23 
*END

*D_NET *365 0.000634165
*CONN
*I *2367:A I *D sky130_fd_sc_hd__nor2_1
*I *2365:Y O *D sky130_fd_sc_hd__a22oi_1
*CAP
1 *2367:A 0
2 *2365:Y 0.000170907
3 *365:10 0.000170907
4 *365:10 *2366:A 1.21972e-05
5 *365:10 *366:8 5.67058e-05
6 *365:10 *367:10 3.83778e-05
7 *365:10 *537:78 0.000162422
8 *365:10 *540:79 9.21347e-06
9 *365:10 *540:112 1.34354e-05
*RES
1 *2365:Y *365:10 41.3557 
2 *365:10 *2367:A 38 
*END

*D_NET *366 0.00170099
*CONN
*I *2367:B I *D sky130_fd_sc_hd__nor2_1
*I *2421:B1 I *D sky130_fd_sc_hd__a31o_1
*I *2366:X O *D sky130_fd_sc_hd__and4_1
*CAP
1 *2367:B 7.40387e-05
2 *2421:B1 0.000138637
3 *2366:X 7.90234e-05
4 *366:8 0.000291699
5 *2367:B *525:31 0.000181943
6 *2367:B *537:78 0.000187996
7 *2421:B1 *2421:A1 5.50049e-05
8 *2421:B1 *525:31 0.000236326
9 *2421:B1 *537:78 0.000231854
10 *366:8 *2366:A 2.02872e-05
11 *366:8 *523:47 9.41704e-05
12 *364:8 *2421:B1 5.3304e-05
13 *365:10 *366:8 5.67058e-05
*RES
1 *2366:X *366:8 39.5743 
2 *366:8 *2421:B1 41.9357 
3 *366:8 *2367:B 40.61 
*END

*D_NET *367 0.00176916
*CONN
*I *2368:B I *D sky130_fd_sc_hd__xnor2_1
*I *2421:A3 I *D sky130_fd_sc_hd__a31o_1
*I *2367:Y O *D sky130_fd_sc_hd__nor2_1
*CAP
1 *2368:B 6.75743e-05
2 *2421:A3 0
3 *2367:Y 0.000356759
4 *367:12 6.75743e-05
5 *367:10 0.000356759
6 *367:10 *497:88 0.000200932
7 *367:10 *520:138 0.000182585
8 *367:10 *523:47 3.93338e-05
9 *367:10 *537:78 5.20214e-05
10 *367:10 *540:112 0.000110913
11 *311:10 *2368:B 0.000102093
12 *364:8 *2368:B 0.000194241
13 *365:10 *367:10 3.83778e-05
*RES
1 *2367:Y *367:10 44.7736 
2 *367:10 *367:12 15 
3 *367:12 *2421:A3 23 
4 *367:12 *2368:B 25.5479 
*END

*D_NET *368 0.00219447
*CONN
*I *2379:A I *D sky130_fd_sc_hd__xor2_1
*I *2422:A1 I *D sky130_fd_sc_hd__a21oi_1
*I *2368:Y O *D sky130_fd_sc_hd__xnor2_1
*CAP
1 *2379:A 8.58532e-05
2 *2422:A1 0.000111796
3 *2368:Y 0.000328087
4 *368:10 0.000525736
5 *2422:A1 *2379:B 7.38527e-05
6 *2422:A1 *378:10 2.76611e-06
7 *2422:A1 *381:8 0
8 *2422:A1 *427:8 0.000171906
9 *2422:A1 *493:46 3.22879e-05
10 *2422:A1 *557:20 4.42688e-05
11 *368:10 *381:8 0
12 *368:10 *426:10 0.000392267
13 *368:10 *427:8 0.000207507
14 *368:10 *555:12 0.000114499
15 *368:10 *557:22 0
16 *319:8 *2379:A 0.000103647
*RES
1 *2368:Y *368:10 46.555 
2 *368:10 *2422:A1 41.9357 
3 *368:10 *2379:A 40.0507 
*END

*D_NET *369 0.00323153
*CONN
*I *2024:A2 I *D sky130_fd_sc_hd__a21o_1
*I *1987:B1_N I *D sky130_fd_sc_hd__o21bai_1
*I *2502:A I *D sky130_fd_sc_hd__dlygate4sd1_1
*I *1991:A2 I *D sky130_fd_sc_hd__a211o_1
*I *1988:A2 I *D sky130_fd_sc_hd__a211oi_2
*I *1982:Y O *D sky130_fd_sc_hd__o41ai_4
*CAP
1 *2024:A2 0.000100297
2 *1987:B1_N 1.96784e-05
3 *2502:A 8.87429e-05
4 *1991:A2 5.94678e-05
5 *1988:A2 3.80201e-05
6 *1982:Y 9.31007e-05
7 *369:21 0.000259316
8 *369:19 0.000171809
9 *369:17 0.000257163
10 *369:6 0.00024696
11 *1987:B1_N *524:30 5.3304e-05
12 *1988:A2 *1988:A1 0.000139346
13 *1988:A2 *550:94 0.000139346
14 *1991:A2 *1990:B1 9.48381e-06
15 *1991:A2 *1991:A1 1.56107e-05
16 *1991:A2 *391:12 1.69668e-05
17 *1991:A2 *517:90 4.05703e-05
18 *1991:A2 *554:56 9.168e-05
19 *2024:A2 *401:14 4.96717e-05
20 *2024:A2 *423:8 0.000221992
21 *2024:A2 *524:30 2.80394e-05
22 *2502:A *1991:A1 3.52269e-05
23 *2502:A *1991:C1 2.93845e-05
24 *2502:A *517:90 1.93629e-05
25 *2502:A *536:114 0.000262837
26 *369:6 *1982:B1 1.94812e-05
27 *369:6 *1988:A1 4.08664e-05
28 *369:6 *550:94 0.00022109
29 *369:17 *1988:A1 3.47781e-05
30 *369:17 *520:98 0
31 *369:17 *554:56 0.000178172
32 *369:19 *1987:A2 1.40183e-05
33 *369:19 *554:56 4.80045e-05
34 *369:21 *1987:A2 7.57281e-06
35 *369:21 *391:12 3.49956e-05
36 *369:21 *554:56 0.000145171
*RES
1 *1982:Y *369:6 25.5271 
2 *369:6 *1988:A2 24.5743 
3 *369:6 *369:17 17.61 
4 *369:17 *369:19 0.849286 
5 *369:19 *369:21 2.25786 
6 *369:21 *1991:A2 39.7452 
7 *369:21 *2502:A 41.0243 
8 *369:19 *1987:B1_N 38.6214 
9 *369:17 *2024:A2 41.0243 
*END

*D_NET *370 0.000680355
*CONN
*I *2374:A I *D sky130_fd_sc_hd__xor2_1
*I *2414:A1 I *D sky130_fd_sc_hd__o21bai_1
*I *2369:Y O *D sky130_fd_sc_hd__nand2_1
*CAP
1 *2374:A 7.46027e-05
2 *2414:A1 3.31772e-05
3 *2369:Y 0
4 *370:4 0.00010778
5 *2374:A *2316:B 9.31853e-05
6 *2374:A *518:33 0.000196443
7 *2374:A *548:68 1.32939e-05
8 *2414:A1 *2369:A 4.32782e-05
9 *2414:A1 *2414:A2 5.12055e-06
10 *2414:A1 *518:33 0.00010018
11 *2414:A1 *548:68 1.32939e-05
*RES
1 *2369:Y *370:4 23 
2 *370:4 *2414:A1 24.595 
3 *370:4 *2374:A 26.3143 
*END

*D_NET *371 0.000345481
*CONN
*I *2417:A I *D sky130_fd_sc_hd__xor2_1
*I *2370:Y O *D sky130_fd_sc_hd__nand2_1
*CAP
1 *2417:A 0.000163945
2 *2370:Y 0.000163945
3 *2417:A *2370:B 0
4 *2417:A *2417:B 1.14154e-05
5 *2417:A *554:32 6.17437e-06
*RES
1 *2370:Y *2417:A 48.5479 
*END

*D_NET *372 0.000742681
*CONN
*I *2373:A I *D sky130_fd_sc_hd__or2_1
*I *2414:B1_N I *D sky130_fd_sc_hd__o21bai_1
*I *2371:X O *D sky130_fd_sc_hd__and3_1
*CAP
1 *2373:A 0.000149598
2 *2414:B1_N 0
3 *2371:X 0
4 *372:10 9.06179e-05
5 *372:4 0.000240216
6 *2373:A *448:33 0
7 *2373:A *448:48 0.000134971
8 *372:10 *2371:B 2.61544e-05
9 *372:10 *373:12 6.49723e-05
10 *372:10 *554:10 3.61511e-05
*RES
1 *2371:X *372:4 23 
2 *372:4 *372:10 31.9057 
3 *372:10 *2414:B1_N 23 
4 *372:4 *2373:A 25.5479 
*END

*D_NET *373 0.000803449
*CONN
*I *2414:A2 I *D sky130_fd_sc_hd__o21bai_1
*I *2373:B I *D sky130_fd_sc_hd__or2_1
*I *2372:Y O *D sky130_fd_sc_hd__a22oi_1
*CAP
1 *2414:A2 4.15667e-05
2 *2373:B 0
3 *2372:Y 6.62781e-05
4 *373:12 0.000130012
5 *373:6 0.000237857
6 *2414:A2 *2369:A 8.73586e-06
7 *2414:A2 *548:68 5.50106e-05
8 *373:6 *548:68 0.000140259
9 *373:6 *554:20 5.37348e-06
10 *373:12 *2371:B 0
11 *373:12 *374:10 0
12 *373:12 *518:33 4.15423e-05
13 *373:12 *554:10 6.72184e-06
14 *2414:A1 *2414:A2 5.12055e-06
15 *372:10 *373:12 6.49723e-05
*RES
1 *2372:Y *373:6 24.5743 
2 *373:6 *373:12 32.61 
3 *373:12 *2373:B 23 
4 *373:6 *2414:A2 24.1186 
*END

*D_NET *374 0.000830373
*CONN
*I *2374:B I *D sky130_fd_sc_hd__xor2_1
*I *2373:X O *D sky130_fd_sc_hd__or2_1
*CAP
1 *2374:B 0
2 *2373:X 0.000291108
3 *374:10 0.000291108
4 *374:10 *448:48 0.000230604
5 *374:10 *518:33 0
6 *374:10 *545:44 1.19646e-05
7 *374:10 *545:56 5.58873e-06
8 *373:12 *374:10 0
*RES
1 *2373:X *374:10 43.1371 
2 *374:10 *2374:B 38 
*END

*D_NET *375 0.00290087
*CONN
*I *2375:C I *D sky130_fd_sc_hd__nor3_1
*I *2376:B1 I *D sky130_fd_sc_hd__o21a_1
*I *2374:X O *D sky130_fd_sc_hd__xor2_1
*CAP
1 *2375:C 5.98421e-05
2 *2376:B1 0
3 *2374:X 0.000545447
4 *375:18 7.07051e-05
5 *375:14 0.00055631
6 *375:14 *2316:B 5.70419e-05
7 *375:14 *2317:B 4.08664e-05
8 *375:14 *2318:A1 0
9 *375:14 *377:8 5.30406e-05
10 *375:14 *518:33 9.24795e-06
11 *375:14 *519:12 0
12 *375:14 *548:68 0.000272377
13 *375:14 *548:78 0
14 *2375:A *2375:C 4.34745e-05
15 *2375:B *2375:C 0.000139352
16 *2376:A1 *2375:C 0.000225393
17 *2376:A1 *375:18 5.50106e-05
18 *2376:A2 *2375:C 0.000128723
19 *2376:A2 *375:18 5.67058e-05
20 *312:6 *375:14 0.00024106
21 *312:12 *375:14 5.94125e-05
22 *313:6 *375:14 0.000265472
23 *313:14 *375:14 1.12487e-05
24 *316:8 *375:14 1.01436e-05
25 *317:36 *375:14 0
*RES
1 *2374:X *375:14 49.6 
2 *375:14 *375:18 15.6214 
3 *375:18 *2376:B1 23 
4 *375:18 *2375:C 26.0036 
*END

*D_NET *376 0.000935698
*CONN
*I *2377:A I *D sky130_fd_sc_hd__or2_1
*I *2375:Y O *D sky130_fd_sc_hd__nor3_1
*CAP
1 *2377:A 0
2 *2375:Y 0.000279805
3 *376:10 0.000279805
4 *376:10 *557:20 0.000126936
5 *376:10 *558:14 0.000111852
6 *2375:A *376:10 0.00010018
7 *313:29 *376:10 3.71198e-05
*RES
1 *2375:Y *376:10 44.1729 
2 *376:10 *2377:A 38 
*END

*D_NET *377 0.00200677
*CONN
*I *2422:B1 I *D sky130_fd_sc_hd__a21oi_1
*I *2377:B I *D sky130_fd_sc_hd__or2_1
*I *2376:X O *D sky130_fd_sc_hd__o21a_1
*CAP
1 *2422:B1 0.000161378
2 *2377:B 6.48899e-05
3 *2376:X 0.000228042
4 *377:8 0.00045431
5 *2377:B *490:12 0.000183733
6 *2422:B1 *493:46 0.000139357
7 *2422:B1 *557:20 7.00173e-05
8 *2320:C *2377:B 9.67842e-05
9 *2320:C *377:8 2.60152e-05
10 *313:14 *377:8 0.000136486
11 *316:8 *2422:B1 7.45278e-05
12 *316:8 *377:8 2.84912e-05
13 *317:36 *377:8 0.000289695
14 *375:14 *377:8 5.30406e-05
*RES
1 *2376:X *377:8 43.075 
2 *377:8 *2377:B 40.0507 
3 *377:8 *2422:B1 41.8321 
*END

*D_NET *378 0.00073487
*CONN
*I *2379:B I *D sky130_fd_sc_hd__xor2_1
*I *2378:A I *D sky130_fd_sc_hd__inv_2
*I *2377:X O *D sky130_fd_sc_hd__or2_1
*CAP
1 *2379:B 0.00011613
2 *2378:A 0
3 *2377:X 0.000184643
4 *378:10 0.000300773
5 *2379:B *381:8 0
6 *378:10 *490:12 5.67058e-05
7 *378:10 *557:20 0
8 *2422:A1 *2379:B 7.38527e-05
9 *2422:A1 *378:10 2.76611e-06
*RES
1 *2377:X *378:10 40.5271 
2 *378:10 *2378:A 38 
3 *378:10 *2379:B 40.9621 
*END

*D_NET *379 0.000236712
*CONN
*I *2422:A2 I *D sky130_fd_sc_hd__a21oi_1
*I *2378:Y O *D sky130_fd_sc_hd__inv_2
*CAP
1 *2422:A2 6.9567e-05
2 *2378:Y 6.9567e-05
3 *2422:A2 *493:46 9.75779e-05
*RES
1 *2378:Y *2422:A2 47.595 
*END

*D_NET *380 0.00277993
*CONN
*I *1986:B I *D sky130_fd_sc_hd__or2_1
*I *1984:A2 I *D sky130_fd_sc_hd__a211o_1
*I *1985:B I *D sky130_fd_sc_hd__nor2_1
*I *1983:X O *D sky130_fd_sc_hd__and2b_1
*CAP
1 *1986:B 0.000190477
2 *1984:A2 0
3 *1985:B 0
4 *1983:X 0.000175395
5 *380:30 0.000378643
6 *380:16 0.000461968
7 *380:12 0.000273802
8 *380:10 0.000175395
9 *1986:B *1986:A 0
10 *1986:B *412:10 0.000419108
11 *1986:B *549:16 0.000112087
12 *1986:B *549:29 2.25809e-05
13 *380:10 *412:10 3.62219e-05
14 *380:10 *536:114 5.70419e-05
15 *380:10 *547:130 5.94125e-05
16 *380:16 *412:10 9.41704e-05
17 *380:30 *1979:A 4.39444e-06
18 *380:30 *1985:A 6.07611e-06
19 *380:30 *401:14 0.000211773
20 *380:30 *517:124 8.22421e-06
21 *380:30 *534:92 0
22 *380:30 *547:130 1.05441e-05
23 *380:30 *554:56 2.26406e-05
24 *1984:B1 *1986:B 5.70419e-05
25 *1984:B1 *380:16 2.93104e-06
*RES
1 *1983:X *380:10 41.0036 
2 *380:10 *380:12 15 
3 *380:12 *380:16 1.595 
4 *380:16 *380:30 47.5568 
5 *380:30 *1985:B 23 
6 *380:16 *1984:A2 23 
7 *380:12 *1986:B 28.4064 
*END

*D_NET *381 0.00204578
*CONN
*I *2381:B1 I *D sky130_fd_sc_hd__a21oi_1
*I *2380:C I *D sky130_fd_sc_hd__and3_1
*I *2379:X O *D sky130_fd_sc_hd__xor2_1
*CAP
1 *2381:B1 0.00019367
2 *2380:C 0
3 *2379:X 0.000400311
4 *381:12 0.000351391
5 *381:8 0.000558032
6 *2381:B1 *383:10 1.02949e-05
7 *381:8 *426:10 0
8 *2379:B *381:8 0
9 *2381:A1 *2381:B1 0.000179569
10 *2381:A1 *381:12 0.000106046
11 *2422:A1 *381:8 0
12 *319:12 *381:8 0.000246469
13 *368:10 *381:8 0
*RES
1 *2379:X *381:8 45.8921 
2 *381:8 *381:12 17.1336 
3 *381:12 *2380:C 23 
4 *381:12 *2381:B1 26.4179 
*END

*D_NET *382 0.00186807
*CONN
*I *2382:A1 I *D sky130_fd_sc_hd__o21ai_1
*I *2383:B I *D sky130_fd_sc_hd__or3_1
*I *2380:X O *D sky130_fd_sc_hd__and3_1
*CAP
1 *2382:A1 0.000192549
2 *2383:B 0.000392715
3 *2380:X 9.43547e-05
4 *382:8 0.000679619
5 *2382:A1 *2382:A2 7.55491e-05
6 *2382:A1 *383:10 6.26356e-05
7 *2382:A1 *494:12 5.50106e-05
8 *2383:B *2404:B 0.000141052
9 *2383:B *383:14 2.3191e-05
10 *382:8 *383:10 3.83778e-05
11 *382:8 *533:16 0
12 *2383:A *2383:B 9.00923e-05
13 *322:12 *2382:A1 0
14 *322:25 *382:8 2.29192e-05
*RES
1 *2380:X *382:8 39.5536 
2 *382:8 *2383:B 43.3857 
3 *382:8 *2382:A1 42.2879 
*END

*D_NET *383 0.00168094
*CONN
*I *2382:A2 I *D sky130_fd_sc_hd__o21ai_1
*I *2404:A_N I *D sky130_fd_sc_hd__and2b_1
*I *2383:C I *D sky130_fd_sc_hd__or3_1
*I *2381:Y O *D sky130_fd_sc_hd__a21oi_1
*CAP
1 *2382:A2 7.81972e-05
2 *2404:A_N 0
3 *2383:C 0.000154851
4 *2381:Y 0.00018127
5 *383:14 0.000253767
6 *383:10 0.000358384
7 *383:10 *533:16 3.81554e-05
8 *2325:A *2383:C 0
9 *2381:A1 *383:10 4.04598e-06
10 *2381:B1 *383:10 1.02949e-05
11 *2382:A1 *2382:A2 7.55491e-05
12 *2382:A1 *383:10 6.26356e-05
13 *2383:A *2382:A2 8.16459e-05
14 *2383:A *2383:C 0.000267173
15 *2383:A *383:10 3.31127e-05
16 *2383:A *383:14 2.02872e-05
17 *2383:B *383:14 2.3191e-05
18 *382:8 *383:10 3.83778e-05
*RES
1 *2381:Y *383:10 41.7079 
2 *383:10 *383:14 16.5743 
3 *383:14 *2383:C 26.5007 
4 *383:14 *2404:A_N 23 
5 *383:10 *2382:A2 40.2579 
*END

*D_NET *384 0.00159441
*CONN
*I *2385:B I *D sky130_fd_sc_hd__and3_1
*I *2384:A I *D sky130_fd_sc_hd__nand2_1
*I *2382:Y O *D sky130_fd_sc_hd__o21ai_1
*CAP
1 *2385:B 5.80447e-05
2 *2384:A 8.46403e-05
3 *2382:Y 0.000517073
4 *384:10 0.000659758
5 *2384:A *2385:C 4.6595e-05
6 *2385:B *431:10 0
7 *384:10 *385:21 0
8 *384:10 *406:8 4.83778e-05
9 *384:10 *430:8 0
10 *384:10 *431:10 0
11 *384:10 *494:12 8.14372e-05
12 *384:10 *533:16 0
13 *2385:A *2384:A 9.84851e-05
14 *2385:A *2385:B 0
15 *2385:A *384:10 0
16 *361:25 *384:10 0
*RES
1 *2382:Y *384:10 46.2029 
2 *384:10 *2384:A 40.0507 
3 *384:10 *2385:B 39.2014 
*END

*D_NET *385 0.00232621
*CONN
*I *2384:B I *D sky130_fd_sc_hd__nand2_1
*I *2385:C I *D sky130_fd_sc_hd__and3_1
*I *2404:B I *D sky130_fd_sc_hd__and2b_1
*I *2383:X O *D sky130_fd_sc_hd__or3_1
*CAP
1 *2384:B 8.57245e-05
2 *2385:C 0.000189293
3 *2404:B 0.000200245
4 *2383:X 0
5 *385:21 0.000622826
6 *385:6 0.000548053
7 *2404:B *407:8 0
8 *2404:B *494:8 6.26356e-05
9 *385:21 *430:8 0
10 *385:21 *431:10 8.4047e-05
11 *385:21 *494:8 5.56203e-05
12 *2383:A *2404:B 0.000184527
13 *2383:B *2404:B 0.000141052
14 *2384:A *2385:C 4.6595e-05
15 *2385:A *2385:C 0.000105592
16 *384:10 *385:21 0
*RES
1 *2383:X *385:6 38 
2 *385:6 *2404:B 43.0336 
3 *385:6 *385:21 21.8357 
4 *385:21 *2385:C 25.61 
5 *385:21 *2384:B 24.4707 
*END

*D_NET *386 0.00122722
*CONN
*I *2386:B I *D sky130_fd_sc_hd__xnor2_1
*I *2384:Y O *D sky130_fd_sc_hd__nand2_1
*CAP
1 *2386:B 0.000235776
2 *2384:Y 0.000184968
3 *386:8 0.000420745
4 *386:8 *431:10 0.000385726
*RES
1 *2384:Y *386:8 43.075 
2 *386:8 *2386:B 41.9564 
*END

*D_NET *387 0.000332092
*CONN
*I *2403:B I *D sky130_fd_sc_hd__xnor2_1
*I *2385:X O *D sky130_fd_sc_hd__and3_1
*CAP
1 *2403:B 0.000140512
2 *2385:X 0.000140512
3 *2403:B *533:16 1.39317e-05
4 *2385:A *2403:B 3.71369e-05
*RES
1 *2385:X *2403:B 48.5479 
*END

*D_NET *388 0.00282295
*CONN
*I *2387:B I *D sky130_fd_sc_hd__xnor2_1
*I *2402:B1 I *D sky130_fd_sc_hd__o21ai_1
*I *2386:Y O *D sky130_fd_sc_hd__xnor2_1
*CAP
1 *2387:B 0.00027309
2 *2402:B1 0
3 *2386:Y 0
4 *388:10 0.000831922
5 *388:6 0.000558832
6 *2387:B *2433:A2 0.000162964
7 *2387:B *397:8 0.000219383
8 *2387:B *404:10 5.3304e-05
9 *2387:B *509:10 2.93747e-05
10 *388:10 *405:10 0.000169665
11 *388:10 *529:53 0
12 *2332:A *2387:B 5.24575e-05
13 *259:18 *388:10 0.000442355
14 *325:27 *388:10 0
15 *328:8 *388:10 0
16 *334:22 *388:10 2.96051e-05
*RES
1 *2386:Y *388:6 38 
2 *388:6 *388:10 28.5264 
3 *388:10 *2402:B1 23 
4 *388:10 *2387:B 28.8621 
*END

*D_NET *389 0.00256396
*CONN
*I *2388:B I *D sky130_fd_sc_hd__or2_1
*I *2389:B I *D sky130_fd_sc_hd__nand2_1
*I *2387:Y O *D sky130_fd_sc_hd__xnor2_1
*CAP
1 *2388:B 0.000226722
2 *2389:B 0.000290974
3 *2387:Y 0
4 *389:6 0.000517696
5 *2388:B *390:10 9.1214e-05
6 *2388:B *545:120 0.000271382
7 *2389:B *2501:A 5.50106e-05
8 *2389:B *392:10 0.00010018
9 *2389:B *431:10 4.85126e-05
10 *2389:B *509:10 0.000315268
11 *2389:B *545:120 0.000215801
12 *329:23 *2388:B 0.000269775
13 *334:14 *2388:B 9.84794e-05
14 *334:37 *2389:B 6.29487e-05
*RES
1 *2387:Y *389:6 38 
2 *389:6 *2389:B 45.8714 
3 *389:6 *2388:B 44.67 
*END

*D_NET *390 0.000847832
*CONN
*I *2395:A2 I *D sky130_fd_sc_hd__a31o_1
*I *2388:X O *D sky130_fd_sc_hd__or2_1
*CAP
1 *2395:A2 0
2 *2388:X 0.000226703
3 *390:10 0.000226703
4 *390:10 *2395:A1 1.02387e-05
5 *390:10 *2395:B1 2.49733e-05
6 *390:10 *433:10 0.000166522
7 *390:10 *509:10 6.93553e-05
8 *390:10 *514:58 3.21223e-05
9 *2388:B *390:10 9.1214e-05
*RES
1 *2388:X *390:10 43.3443 
2 *390:10 *2395:A2 38 
*END

*D_NET *391 0.00143061
*CONN
*I *1987:A1 I *D sky130_fd_sc_hd__o21bai_1
*I *1991:B1 I *D sky130_fd_sc_hd__a211o_1
*I *1990:B1 I *D sky130_fd_sc_hd__a21oi_1
*I *1984:X O *D sky130_fd_sc_hd__a211o_1
*CAP
1 *1987:A1 0
2 *1991:B1 0
3 *1990:B1 0.000190765
4 *1984:X 5.60653e-05
5 *391:12 0.000364798
6 *391:6 0.000230098
7 *1990:B1 *440:8 5.37348e-06
8 *1990:B1 *520:98 0.000163361
9 *1990:B1 *554:56 0
10 *391:6 *524:30 4.5051e-05
11 *391:12 *1987:A2 4.82567e-05
12 *391:12 *520:98 0.000238937
13 *391:12 *524:30 2.64616e-05
14 *1991:A2 *1990:B1 9.48381e-06
15 *1991:A2 *391:12 1.69668e-05
16 *369:21 *391:12 3.49956e-05
*RES
1 *1984:X *391:6 24.0979 
2 *391:6 *391:12 18.9357 
3 *391:12 *1990:B1 41.3557 
4 *391:12 *1991:B1 38 
5 *391:6 *1987:A1 23 
*END

*D_NET *392 0.000560173
*CONN
*I *2395:A3 I *D sky130_fd_sc_hd__a31o_1
*I *2389:Y O *D sky130_fd_sc_hd__nand2_1
*CAP
1 *2395:A3 0
2 *2389:Y 0.000162218
3 *392:10 0.000162218
4 *392:10 *509:10 0.000135557
5 *2389:B *392:10 0.00010018
6 *334:37 *392:10 0
*RES
1 *2389:Y *392:10 41.0036 
2 *392:10 *2395:A3 38 
*END

*D_NET *393 0.000935464
*CONN
*I *2391:B2 I *D sky130_fd_sc_hd__o22a_1
*I *2390:Y O *D sky130_fd_sc_hd__a21oi_1
*CAP
1 *2391:B2 6.82812e-05
2 *2390:Y 0.000189418
3 *393:8 0.0002577
4 *2391:B2 *394:12 5.67058e-05
5 *393:8 *2390:A2 3.56679e-05
6 *393:8 *2469:A 6.38845e-05
7 *393:8 *492:16 0
8 *393:8 *523:85 0
9 *2391:B1 *2391:B2 3.93306e-05
10 *199:56 *2391:B2 2.80512e-05
11 *205:45 *2391:B2 0.000196424
*RES
1 *2390:Y *393:8 40.9621 
2 *393:8 *2391:B2 40.5479 
*END

*D_NET *394 0.00125537
*CONN
*I *2393:B1 I *D sky130_fd_sc_hd__a211o_1
*I *2391:X O *D sky130_fd_sc_hd__o22a_1
*CAP
1 *2393:B1 0.000132747
2 *2391:X 0.000327298
3 *394:12 0.000460045
4 *2393:B1 *2432:B1 2.93104e-06
5 *2393:B1 *537:58 5.50049e-05
6 *394:12 *523:85 0
7 *394:12 *535:62 6.75896e-05
8 *394:12 *535:79 3.05664e-05
9 *394:12 *537:58 2.05503e-05
10 *394:12 *553:69 2.75733e-06
11 *2391:B2 *394:12 5.67058e-05
12 *199:56 *394:12 2.93747e-05
13 *350:16 *2393:B1 6.9805e-05
*RES
1 *2391:X *394:12 43.3857 
2 *394:12 *2393:B1 40.5479 
*END

*D_NET *395 0.000480107
*CONN
*I *2393:C1 I *D sky130_fd_sc_hd__a211o_1
*I *2392:X O *D sky130_fd_sc_hd__a32o_1
*CAP
1 *2393:C1 0
2 *2392:X 0.0001723
3 *395:10 0.0001723
4 *395:10 *435:10 5.89733e-05
5 *395:10 *492:113 9.28078e-06
6 *395:10 *535:62 6.72526e-05
7 *395:10 *535:79 0
*RES
1 *2392:X *395:10 40.8793 
2 *395:10 *2393:C1 38 
*END

*D_NET *396 0.00182955
*CONN
*I *2394:C1 I *D sky130_fd_sc_hd__a211o_1
*I *2393:X O *D sky130_fd_sc_hd__a211o_1
*CAP
1 *2394:C1 0.000336715
2 *2393:X 0.000355315
3 *396:8 0.00069203
4 *2394:C1 *397:8 4.93341e-05
5 *396:8 *435:10 9.20311e-06
6 *396:8 *436:10 4.6256e-05
7 *396:8 *438:10 7.1459e-05
8 *396:8 *535:62 0
9 *396:8 *552:50 0.000228451
10 *2359:B *2394:C1 0
11 *359:8 *2394:C1 4.07902e-05
*RES
1 *2393:X *396:8 45.1879 
2 *396:8 *2394:C1 42.93 
*END

*D_NET *397 0.00640166
*CONN
*I *2395:B1 I *D sky130_fd_sc_hd__a31o_1
*I *2394:X O *D sky130_fd_sc_hd__a211o_1
*CAP
1 *2395:B1 7.28115e-05
2 *2394:X 0
3 *397:8 0.00181973
4 *397:4 0.00174692
5 *2395:B1 *2395:A1 0.000163352
6 *2395:B1 *433:10 0.000111852
7 *397:8 *404:10 0.00209742
8 *397:8 *405:10 9.58714e-05
9 *2387:B *397:8 0.000219383
10 *2394:C1 *397:8 4.93341e-05
11 *390:10 *2395:B1 2.49733e-05
*RES
1 *2394:X *397:4 23 
2 *397:4 *397:8 48.9714 
3 *397:8 *2395:B1 40.2579 
*END

*D_NET *398 0.00232347
*CONN
*I *2400:A I *D sky130_fd_sc_hd__xnor2_1
*I *2396:Y O *D sky130_fd_sc_hd__a21oi_1
*CAP
1 *2400:A 0
2 *2396:Y 0.000936515
3 *398:12 0.000936515
4 *398:12 *2245:B 0
5 *398:12 *2399:A 0.000143655
6 *398:12 *2400:B 0.000139319
7 *398:12 *553:28 0.000167466
*RES
1 *2396:Y *398:12 38.3286 
2 *398:12 *2400:A 23 
*END

*D_NET *399 0.000331532
*CONN
*I *2399:A I *D sky130_fd_sc_hd__xnor2_1
*I *2397:Y O *D sky130_fd_sc_hd__xnor2_1
*CAP
1 *2399:A 9.39385e-05
2 *2397:Y 9.39385e-05
3 *2399:A *2400:B 0
4 *398:12 *2399:A 0.000143655
*RES
1 *2397:Y *2399:A 48.4236 
*END

*D_NET *400 0.00378332
*CONN
*I *2399:B I *D sky130_fd_sc_hd__xnor2_1
*I *2398:X O *D sky130_fd_sc_hd__a21o_1
*CAP
1 *2399:B 0
2 *2398:X 0.0014416
3 *400:12 9.67411e-05
4 *400:6 0.00153834
5 *400:6 *2398:A1 0.000181125
6 *400:6 *535:17 0.000440374
7 *400:12 *535:62 8.51329e-05
8 *400:12 *552:50 0
*RES
1 *2398:X *400:6 43.155 
2 *400:6 *400:12 32.2579 
3 *400:12 *2399:B 23 
*END

*D_NET *401 0.00124268
*CONN
*I *1987:A2 I *D sky130_fd_sc_hd__o21bai_1
*I *1985:Y O *D sky130_fd_sc_hd__nor2_1
*CAP
1 *1987:A2 3.41249e-05
2 *1985:Y 0.000324694
3 *401:14 0.000358819
4 *401:14 *1979:A 2.05503e-05
5 *401:14 *423:8 1.21972e-05
6 *401:14 *454:32 0
7 *401:14 *524:30 0.000138444
8 *401:14 *534:92 0
9 *401:14 *536:104 2.25536e-05
10 *2024:A2 *401:14 4.96717e-05
11 *369:19 *1987:A2 1.40183e-05
12 *369:21 *1987:A2 7.57281e-06
13 *380:30 *401:14 0.000211773
14 *391:12 *1987:A2 4.82567e-05
*RES
1 *1985:Y *401:14 48.6383 
2 *401:14 *1987:A2 46.6732 
*END

*D_NET *402 0.00023402
*CONN
*I *2400:B I *D sky130_fd_sc_hd__xnor2_1
*I *2399:Y O *D sky130_fd_sc_hd__xnor2_1
*CAP
1 *2400:B 4.73508e-05
2 *2399:Y 4.73508e-05
3 *2399:A *2400:B 0
4 *398:12 *2400:B 0.000139319
*RES
1 *2399:Y *2400:B 47.595 
*END

*D_NET *403 0.000416674
*CONN
*I *2401:B I *D sky130_fd_sc_hd__nor2_1
*I *2400:Y O *D sky130_fd_sc_hd__xnor2_1
*CAP
1 *2401:B 0
2 *2400:Y 0.000108605
3 *403:8 0.000108605
4 *403:8 *523:85 0.000193388
5 *403:8 *535:62 0
6 *192:110 *403:8 6.07611e-06
*RES
1 *2400:Y *403:8 40.61 
2 *403:8 *2401:B 38 
*END

*D_NET *404 0.0043003
*CONN
*I *2433:C1 I *D sky130_fd_sc_hd__a311o_1
*I *2401:Y O *D sky130_fd_sc_hd__nor2_1
*CAP
1 *2433:C1 0
2 *2401:Y 0.000964278
3 *404:10 0.000964278
4 *2332:A *404:10 0.000184848
5 *2387:B *404:10 5.3304e-05
6 *2402:A1 *404:10 3.61695e-05
7 *397:8 *404:10 0.00209742
*RES
1 *2401:Y *404:10 48.085 
2 *404:10 *2433:C1 23 
*END

*D_NET *405 0.00195476
*CONN
*I *2428:A I *D sky130_fd_sc_hd__nand2_1
*I *2427:A I *D sky130_fd_sc_hd__or2_1
*I *2402:Y O *D sky130_fd_sc_hd__o21ai_1
*CAP
1 *2428:A 0
2 *2427:A 0.000289055
3 *2402:Y 0.000140204
4 *405:12 0.000289055
5 *405:10 0.000140204
6 *2427:A *2395:A1 0.00010018
7 *2427:A *2428:B 0.000127287
8 *2427:A *433:10 8.06804e-06
9 *2427:A *508:10 3.34247e-05
10 *2427:A *545:118 0.000392082
11 *259:18 *405:10 0.000169665
12 *388:10 *405:10 0.000169665
13 *397:8 *405:10 9.58714e-05
*RES
1 *2402:Y *405:10 41.3557 
2 *405:10 *405:12 15 
3 *405:12 *2427:A 30.4779 
4 *405:12 *2428:A 23 
*END

*D_NET *406 0.000242173
*CONN
*I *2426:A I *D sky130_fd_sc_hd__xnor2_1
*I *2403:Y O *D sky130_fd_sc_hd__xnor2_1
*CAP
1 *2426:A 0
2 *2403:Y 6.17144e-05
3 *406:8 6.17144e-05
4 *406:8 *533:16 7.03663e-05
5 *384:10 *406:8 4.83778e-05
*RES
1 *2403:Y *406:8 39.9057 
2 *406:8 *2426:A 38 
*END

*D_NET *407 0.00055315
*CONN
*I *2425:A I *D sky130_fd_sc_hd__xnor2_1
*I *2404:X O *D sky130_fd_sc_hd__and2b_1
*CAP
1 *2425:A 3.80995e-05
2 *2404:X 0.000228059
3 *407:8 0.000266159
4 *407:8 *429:10 2.08324e-05
5 *407:8 *430:8 0
6 *407:8 *494:8 0
7 *407:8 *533:16 0
8 *2404:B *407:8 0
*RES
1 *2404:X *407:8 42.0186 
2 *407:8 *2425:A 38.6214 
*END

*D_NET *408 0.000376216
*CONN
*I *2413:A I *D sky130_fd_sc_hd__xnor2_1
*I *2405:Y O *D sky130_fd_sc_hd__nand2_1
*CAP
1 *2413:A 6.61717e-05
2 *2405:Y 6.61717e-05
3 *2413:A *2405:A 4.79304e-05
4 *2413:A *2405:B 0.000195942
*RES
1 *2405:Y *2413:A 48.5479 
*END

*D_NET *409 0.00102471
*CONN
*I *2410:A I *D sky130_fd_sc_hd__and4_1
*I *2411:A1 I *D sky130_fd_sc_hd__a22o_1
*I *2406:X O *D sky130_fd_sc_hd__a22o_1
*CAP
1 *2410:A 1.80182e-05
2 *2411:A1 0.000174135
3 *2406:X 8.00368e-05
4 *409:8 0.00027219
5 *2410:A *519:41 2.93845e-05
6 *2410:A *520:48 5.50106e-05
7 *2411:A1 *2408:A2 1.63599e-05
8 *2411:A1 *2411:A2 9.44437e-05
9 *2411:A1 *411:12 0.000194318
10 *2411:A1 *551:21 1.39705e-05
11 *409:8 *2408:A2 1.33899e-05
12 *409:8 *2411:A2 3.41998e-06
13 *409:8 *410:8 4.07483e-05
14 *409:8 *551:21 1.929e-05
*RES
1 *2406:X *409:8 39.5536 
2 *409:8 *2411:A1 42.4329 
3 *409:8 *2410:A 38.6214 
*END

*D_NET *410 0.00110031
*CONN
*I *2410:B I *D sky130_fd_sc_hd__and4_1
*I *2411:A2 I *D sky130_fd_sc_hd__a22o_1
*I *2407:Y O *D sky130_fd_sc_hd__nand4_1
*CAP
1 *2410:B 2.77218e-05
2 *2411:A2 0.000206889
3 *2407:Y 8.21264e-05
4 *410:8 0.000316737
5 *2410:B *519:41 2.64616e-05
6 *2410:B *520:48 5.3304e-05
7 *2411:A2 *413:25 0.000152566
8 *2411:A2 *519:41 5.17233e-05
9 *410:8 *519:41 4.41683e-05
10 *2411:A1 *2411:A2 9.44437e-05
11 *409:8 *2411:A2 3.41998e-06
12 *409:8 *410:8 4.07483e-05
*RES
1 *2407:Y *410:8 39.5536 
2 *410:8 *2411:A2 42.7643 
3 *410:8 *2410:B 38.6214 
*END

*D_NET *411 0.0011556
*CONN
*I *2410:C I *D sky130_fd_sc_hd__and4_1
*I *2411:B1 I *D sky130_fd_sc_hd__a22o_1
*I *2408:X O *D sky130_fd_sc_hd__a22o_1
*CAP
1 *2410:C 0.00013273
2 *2411:B1 0
3 *2408:X 0
4 *411:12 0.000124526
5 *411:4 0.000257257
6 *2410:C *2408:A1 0
7 *2410:C *519:41 0.000141052
8 *2410:C *520:48 1.32939e-05
9 *411:12 *519:41 9.5877e-05
10 *411:12 *551:21 0.000196549
11 *2411:A1 *411:12 0.000194318
*RES
1 *2408:X *411:4 23 
2 *411:4 *411:12 33.7079 
3 *411:12 *2411:B1 23 
4 *411:4 *2410:C 25.9 
*END

*D_NET *412 0.0033364
*CONN
*I *1991:A1 I *D sky130_fd_sc_hd__a211o_1
*I *1990:A2 I *D sky130_fd_sc_hd__a21oi_1
*I *1986:X O *D sky130_fd_sc_hd__or2_1
*CAP
1 *1991:A1 0.000134783
2 *1990:A2 7.32994e-05
3 *1986:X 0.000341283
4 *412:10 0.000549365
5 *1990:A2 *517:100 7.03663e-05
6 *1990:A2 *517:107 1.58805e-05
7 *1990:A2 *552:60 0.000166513
8 *1991:A1 *1991:C1 9.67842e-05
9 *1991:A1 *517:90 0.000188475
10 *1991:A1 *524:22 5.50049e-05
11 *1991:A1 *536:114 1.56762e-05
12 *412:10 *1986:A 0.000405947
13 *412:10 *517:107 6.61686e-06
14 *412:10 *524:22 0.000188916
15 *412:10 *547:6 0.000306332
16 *412:10 *547:10 5.3304e-05
17 *412:10 *547:130 3.47781e-05
18 *412:10 *549:16 2.25927e-05
19 *412:10 *550:77 0
20 *412:10 *550:86 0
21 *412:10 *552:60 1.01436e-05
22 *1986:B *412:10 0.000419108
23 *1991:A2 *1991:A1 1.56107e-05
24 *2502:A *1991:A1 3.52269e-05
25 *380:10 *412:10 3.62219e-05
26 *380:16 *412:10 9.41704e-05
*RES
1 *1986:X *412:10 48.73 
2 *412:10 *1990:A2 40.2579 
3 *412:10 *1991:A1 41.7441 
*END

*D_NET *413 0.00590277
*CONN
*I *2410:D I *D sky130_fd_sc_hd__and4_1
*I *2411:B2 I *D sky130_fd_sc_hd__a22o_1
*I *2409:X O *D sky130_fd_sc_hd__or4b_1
*CAP
1 *2410:D 0
2 *2411:B2 0
3 *2409:X 0.00177711
4 *413:25 0.000391448
5 *413:10 0.000744344
6 *413:8 0.00213001
7 *413:8 *2003:A1 1.40958e-05
8 *413:8 *2005:A2 3.22118e-05
9 *413:8 *449:6 5.14746e-06
10 *413:8 *449:53 1.59094e-05
11 *413:8 *455:8 0.000273344
12 *413:8 *457:10 3.68725e-05
13 *413:8 *517:100 2.03764e-06
14 *413:8 *554:56 5.12328e-05
15 *413:10 *517:100 7.59794e-05
16 *413:25 *2412:B 9.84851e-05
17 *413:25 *414:10 6.63801e-05
18 *413:25 *416:10 1.94693e-05
19 *413:25 *519:41 1.61305e-05
20 *413:25 *520:48 0
21 *2411:A2 *413:25 0.000152566
*RES
1 *2409:X *413:8 46.2621 
2 *413:8 *413:10 6.33857 
3 *413:10 *2411:B2 23 
4 *413:10 *413:25 37.8921 
5 *413:25 *2410:D 23 
*END

*D_NET *414 0.000388521
*CONN
*I *2412:A_N I *D sky130_fd_sc_hd__and2b_1
*I *2410:X O *D sky130_fd_sc_hd__and4_1
*CAP
1 *2412:A_N 0
2 *2410:X 0.000118151
3 *414:10 0.000118151
4 *414:10 *520:48 8.58391e-05
5 *413:25 *414:10 6.63801e-05
*RES
1 *2410:X *414:10 41.2314 
2 *414:10 *2412:A_N 38 
*END

*D_NET *415 0.000201508
*CONN
*I *2412:B I *D sky130_fd_sc_hd__and2b_1
*I *2411:X O *D sky130_fd_sc_hd__a22o_1
*CAP
1 *2412:B 5.15114e-05
2 *2411:X 5.15114e-05
3 *413:25 *2412:B 9.84851e-05
*RES
1 *2411:X *2412:B 47.0979 
*END

*D_NET *416 0.000428322
*CONN
*I *2413:B I *D sky130_fd_sc_hd__xnor2_1
*I *2412:X O *D sky130_fd_sc_hd__and2b_1
*CAP
1 *2413:B 0
2 *2412:X 0.00019401
3 *416:10 0.00019401
4 *416:10 *486:44 2.08324e-05
5 *416:10 *520:48 0
6 *416:10 *551:21 0
7 *413:25 *416:10 1.94693e-05
*RES
1 *2412:X *416:10 40.8793 
2 *416:10 *2413:B 38 
*END

*D_NET *417 0.00122907
*CONN
*I *2420:A I *D sky130_fd_sc_hd__xnor2_1
*I *2413:Y O *D sky130_fd_sc_hd__xnor2_1
*CAP
1 *2420:A 0.000184919
2 *2413:Y 0.000218025
3 *417:8 0.000402944
4 *2420:A *2467:A 2.64616e-05
5 *417:8 *486:44 6.11183e-05
6 *417:8 *518:142 0
7 *417:8 *520:48 2.49733e-05
8 *417:8 *548:40 0.000199701
9 *255:10 *417:8 0.000110922
*RES
1 *2413:Y *417:8 43.075 
2 *417:8 *2420:A 41.0036 
*END

*D_NET *418 0.00112828
*CONN
*I *2419:A I *D sky130_fd_sc_hd__xnor2_1
*I *2414:Y O *D sky130_fd_sc_hd__o21bai_1
*CAP
1 *2419:A 0
2 *2414:Y 0.00037984
3 *418:10 0.00037984
4 *418:10 *2372:A1 1.14762e-05
5 *418:10 *548:40 8.51329e-05
6 *418:10 *548:68 0.000265466
7 *418:10 *552:141 3.7122e-06
8 *418:10 *554:20 2.81406e-06
*RES
1 *2414:Y *418:10 44.2143 
2 *418:10 *2419:A 38 
*END

*D_NET *419 0.000710769
*CONN
*I *2418:A I *D sky130_fd_sc_hd__xnor2_1
*I *2415:Y O *D sky130_fd_sc_hd__nand2_1
*CAP
1 *2418:A 0
2 *2415:Y 0.000277428
3 *419:10 0.000277428
4 *419:10 *420:8 2.76611e-06
5 *419:10 *550:26 0
6 *419:10 *552:124 0.000153148
*RES
1 *2415:Y *419:10 42.785 
2 *419:10 *2418:A 38 
*END

*D_NET *420 0.000715681
*CONN
*I *2417:B I *D sky130_fd_sc_hd__xor2_1
*I *2416:Y O *D sky130_fd_sc_hd__nand2_1
*CAP
1 *2417:B 0.000169373
2 *2416:Y 0.000109549
3 *420:8 0.000278922
4 *2417:B *2418:B 0.000143655
5 *420:8 *550:26 0
6 *2417:A *2417:B 1.14154e-05
7 *419:10 *420:8 2.76611e-06
*RES
1 *2416:Y *420:8 39.9057 
2 *420:8 *2417:B 41.5007 
*END

*D_NET *421 0.000352878
*CONN
*I *2418:B I *D sky130_fd_sc_hd__xnor2_1
*I *2417:X O *D sky130_fd_sc_hd__xor2_1
*CAP
1 *2418:B 0.000104612
2 *2417:X 0.000104612
3 *2417:B *2418:B 0.000143655
*RES
1 *2417:X *2418:B 48.5271 
*END

*D_NET *422 0.000370336
*CONN
*I *2419:B I *D sky130_fd_sc_hd__xnor2_1
*I *2418:Y O *D sky130_fd_sc_hd__xnor2_1
*CAP
1 *2419:B 0.000185168
2 *2418:Y 0.000185168
*RES
1 *2418:Y *2419:B 49.5007 
*END

*D_NET *423 0.00434552
*CONN
*I *2020:B1 I *D sky130_fd_sc_hd__a21o_1
*I *2001:B I *D sky130_fd_sc_hd__nor2_1
*I *2002:B I *D sky130_fd_sc_hd__or2_1
*I *1987:Y O *D sky130_fd_sc_hd__o21bai_1
*CAP
1 *2020:B1 0.000118349
2 *2001:B 0.000165195
3 *2002:B 0.00013195
4 *1987:Y 0.000635865
5 *423:14 0.000407636
6 *423:10 0.000468052
7 *423:8 0.000875078
8 *2001:B *2001:A 0.000173898
9 *2001:B *439:10 2.98648e-05
10 *2002:B *2001:A 0.00014196
11 *2020:B1 *2020:A1 0.000182826
12 *2020:B1 *2020:A2 0.000140259
13 *2020:B1 *517:90 6.9805e-05
14 *423:8 *524:30 0.000424977
15 *423:10 *475:94 0
16 *423:10 *543:116 7.63578e-05
17 *423:14 *543:116 3.98859e-05
18 *2024:A2 *423:8 0.000221992
19 *2024:B1 *423:8 2.93747e-05
20 *50:24 *423:10 0
21 *50:24 *423:14 0
22 *401:14 *423:8 1.21972e-05
*RES
1 *1987:Y *423:8 47.1971 
2 *423:8 *423:10 4.37071 
3 *423:10 *423:14 16.9057 
4 *423:14 *2002:B 25.5271 
5 *423:14 *2001:B 26.5007 
6 *423:10 *2020:B1 41.5007 
*END

*D_NET *424 0.00106709
*CONN
*I *2420:B I *D sky130_fd_sc_hd__xnor2_1
*I *2419:Y O *D sky130_fd_sc_hd__xnor2_1
*CAP
1 *2420:B 0
2 *2419:Y 0.000305793
3 *424:10 0.000305793
4 *424:10 *2372:A1 0
5 *424:10 *2467:A 0
6 *424:10 *2470:A 0.00010018
7 *424:10 *518:50 0.000164282
8 *424:10 *518:142 0.000187335
9 *424:10 *548:40 0
10 *424:10 *554:10 3.70553e-06
*RES
1 *2419:Y *424:10 44.2971 
2 *424:10 *2420:B 38 
*END

*D_NET *425 0.00336927
*CONN
*I *2424:A I *D sky130_fd_sc_hd__xnor2_1
*I *2420:Y O *D sky130_fd_sc_hd__xnor2_1
*CAP
1 *2424:A 0
2 *2420:Y 6.55153e-05
3 *425:14 0.00124179
4 *425:8 0.0013073
5 *425:8 *518:142 0
6 *425:8 *545:44 0.000114083
7 *425:14 *2423:A 0.00010018
8 *425:14 *2423:B 6.68919e-05
9 *425:14 *2424:B 8.46575e-05
10 *425:14 *520:25 0.000388858
*RES
1 *2420:Y *425:8 39.5536 
2 *425:8 *425:14 37.0814 
3 *425:14 *2424:A 23 
*END

*D_NET *426 0.00212587
*CONN
*I *2423:A I *D sky130_fd_sc_hd__xnor2_1
*I *2421:X O *D sky130_fd_sc_hd__a31o_1
*CAP
1 *2423:A 2.55457e-05
2 *2421:X 0.000629461
3 *426:10 0.000655007
4 *2423:A *2423:B 5.50106e-05
5 *426:10 *555:12 4.21089e-05
6 *311:10 *426:10 0.000226295
7 *368:10 *426:10 0.000392267
8 *381:8 *426:10 0
9 *425:14 *2423:A 0.00010018
*RES
1 *2421:X *426:10 48.0257 
2 *426:10 *2423:A 39.0979 
*END

*D_NET *427 0.00116523
*CONN
*I *2423:B I *D sky130_fd_sc_hd__xnor2_1
*I *2422:Y O *D sky130_fd_sc_hd__a21oi_1
*CAP
1 *2423:B 0.000109013
2 *2422:Y 0.000132035
3 *427:8 0.000241047
4 *427:8 *557:20 7.46212e-05
5 *427:8 *557:22 0.000107203
6 *2422:A1 *427:8 0.000171906
7 *2423:A *2423:B 5.50106e-05
8 *368:10 *427:8 0.000207507
9 *425:14 *2423:B 6.68919e-05
*RES
1 *2422:Y *427:8 43.075 
2 *427:8 *2423:B 40.0507 
*END

*D_NET *428 0.000405359
*CONN
*I *2424:B I *D sky130_fd_sc_hd__xnor2_1
*I *2423:Y O *D sky130_fd_sc_hd__xnor2_1
*CAP
1 *2424:B 0.000160351
2 *2423:Y 0.000160351
3 *425:14 *2424:B 8.46575e-05
*RES
1 *2423:Y *2424:B 49.0243 
*END

*D_NET *429 0.0009084
*CONN
*I *2425:B I *D sky130_fd_sc_hd__xnor2_1
*I *2424:Y O *D sky130_fd_sc_hd__xnor2_1
*CAP
1 *2425:B 0
2 *2424:Y 0.00037667
3 *429:10 0.00037667
4 *429:10 *533:16 0.000134226
5 *429:10 *544:8 0
6 *407:8 *429:10 2.08324e-05
*RES
1 *2424:Y *429:10 45.4779 
2 *429:10 *2425:B 38 
*END

*D_NET *430 0.00119539
*CONN
*I *2426:B I *D sky130_fd_sc_hd__xnor2_1
*I *2425:Y O *D sky130_fd_sc_hd__xnor2_1
*CAP
1 *2426:B 0
2 *2425:Y 0.000319063
3 *430:8 0.000319063
4 *430:8 *533:16 0.000557265
5 *384:10 *430:8 0
6 *385:21 *430:8 0
7 *407:8 *430:8 0
*RES
1 *2425:Y *430:8 45.54 
2 *430:8 *2426:B 38 
*END

*D_NET *431 0.0037882
*CONN
*I *2428:B I *D sky130_fd_sc_hd__nand2_1
*I *2427:B I *D sky130_fd_sc_hd__or2_1
*I *2426:Y O *D sky130_fd_sc_hd__xnor2_1
*CAP
1 *2428:B 0.000298727
2 *2427:B 0
3 *2426:Y 0.000120833
4 *431:10 0.00119675
5 *431:8 0.00101885
6 *2428:B *2395:A1 5.41385e-05
7 *2428:B *433:10 0.000136743
8 *2428:B *508:10 9.41704e-05
9 *2428:B *545:120 7.80035e-05
10 *431:10 *493:24 0.00010068
11 *431:10 *509:10 6.7177e-06
12 *431:10 *545:120 3.70187e-05
13 op_out[7] *431:10 0
14 *2385:A *431:10 0
15 *2385:B *431:10 0
16 *2389:B *431:10 4.85126e-05
17 *2427:A *2428:B 0.000127287
18 *259:18 *431:10 0
19 *334:37 *431:10 0
20 *360:10 *431:10 0
21 *384:10 *431:10 0
22 *385:21 *431:10 8.4047e-05
23 *386:8 *431:10 0.000385726
*RES
1 *2426:Y *431:8 39.5743 
2 *431:8 *431:10 18.4564 
3 *431:10 *2427:B 38 
4 *431:10 *2428:B 44.4836 
*END

*D_NET *432 0.0013633
*CONN
*I *2433:A2 I *D sky130_fd_sc_hd__a311o_1
*I *2427:X O *D sky130_fd_sc_hd__or2_1
*CAP
1 *2433:A2 0.000226203
2 *2427:X 8.26734e-05
3 *432:8 0.000308876
4 *432:8 *508:10 9.74132e-05
5 *2332:A *2433:A2 0.000351513
6 *2387:B *2433:A2 0.000162964
7 *29:12 *432:8 0.000133652
*RES
1 *2427:X *432:8 40.61 
2 *432:8 *2433:A2 43.3857 
*END

*D_NET *433 0.000917858
*CONN
*I *2433:A3 I *D sky130_fd_sc_hd__a311o_1
*I *2428:Y O *D sky130_fd_sc_hd__nand2_1
*CAP
1 *2433:A3 0
2 *2428:Y 0.000234844
3 *433:10 0.000234844
4 *433:10 *2395:A1 2.49836e-05
5 *2395:B1 *433:10 0.000111852
6 *2427:A *433:10 8.06804e-06
7 *2428:B *433:10 0.000136743
8 *390:10 *433:10 0.000166522
*RES
1 *2428:Y *433:10 42.3086 
2 *433:10 *2433:A3 38 
*END

*D_NET *434 0.00639283
*CONN
*I *2351:A2 I *D sky130_fd_sc_hd__a31o_1
*I *2020:A1 I *D sky130_fd_sc_hd__a21o_1
*I *2006:B2 I *D sky130_fd_sc_hd__a22o_1
*I *1989:A I *D sky130_fd_sc_hd__inv_2
*I *1988:Y O *D sky130_fd_sc_hd__a211oi_2
*CAP
1 *2351:A2 0
2 *2020:A1 0.000358698
3 *2006:B2 0
4 *1989:A 0
5 *1988:Y 0
6 *434:45 0.000578777
7 *434:27 0.000158259
8 *434:14 0.000307228
9 *434:8 0.000742802
10 *434:6 0.000813912
11 *2020:A1 *2020:A2 0.000164364
12 *434:8 *454:19 6.25829e-05
13 *434:8 *454:32 0.000414363
14 *434:14 *439:10 2.93747e-05
15 *434:14 *454:19 0.000139647
16 *434:27 *441:40 3.55303e-05
17 *434:27 *454:19 9.99916e-05
18 *434:27 *474:10 0.000113692
19 *434:27 *552:74 1.14452e-05
20 *434:45 *454:32 0.00125603
21 *434:45 *534:92 4.75766e-05
22 *2020:B1 *2020:A1 0.000182826
23 *50:24 *434:8 0.000223679
24 *50:24 *434:14 6.6869e-05
25 *50:24 *434:45 0.000585179
*RES
1 *1988:Y *434:6 38 
2 *434:6 *434:8 6.48357 
3 *434:8 *434:14 18.0036 
4 *434:14 *1989:A 23 
5 *434:14 *434:27 33.9357 
6 *434:27 *2006:B2 23 
7 *434:8 *2020:A1 43.3857 
8 *434:6 *434:45 32.0479 
9 *434:45 *2351:A2 23 
*END

*D_NET *435 0.00173977
*CONN
*I *2430:B2 I *D sky130_fd_sc_hd__o22a_1
*I *2429:Y O *D sky130_fd_sc_hd__a21oi_1
*CAP
1 *2430:B2 0
2 *2429:Y 0.000496573
3 *435:10 0.000496573
4 *435:10 *436:10 0.000106756
5 *435:10 *492:113 0.000132345
6 *435:10 *535:62 2.46922e-05
7 *435:10 *552:50 0
8 *199:56 *435:10 4.08664e-05
9 *199:62 *435:10 0.00021677
10 *199:88 *435:10 0.000157023
11 *395:10 *435:10 5.89733e-05
12 *396:8 *435:10 9.20311e-06
*RES
1 *2429:Y *435:10 45.7264 
2 *435:10 *2430:B2 38 
*END

*D_NET *436 0.00153129
*CONN
*I *2432:B1 I *D sky130_fd_sc_hd__a211o_1
*I *2430:X O *D sky130_fd_sc_hd__o22a_1
*CAP
1 *2432:B1 0.000252209
2 *2430:X 0.000167762
3 *436:10 0.000419971
4 *2432:B1 *2432:A1 5.12055e-06
5 *2432:B1 *532:8 9.64943e-05
6 *2432:B1 *553:18 3.88669e-05
7 *2432:B1 *553:26 4.96207e-05
8 *436:10 *492:113 9.41704e-05
9 *2352:B *2432:B1 1.32939e-05
10 *2393:B1 *2432:B1 2.93104e-06
11 *2430:B1 *436:10 9.84851e-05
12 *205:96 *2432:B1 0.000139352
13 *396:8 *436:10 4.6256e-05
14 *435:10 *436:10 0.000106756
*RES
1 *2430:X *436:10 41.6043 
2 *436:10 *2432:B1 42.9507 
*END

*D_NET *437 0.00102568
*CONN
*I *2432:C1 I *D sky130_fd_sc_hd__a211o_1
*I *2431:X O *D sky130_fd_sc_hd__a32o_1
*CAP
1 *2432:C1 0
2 *2431:X 0.00031418
3 *437:10 0.00031418
4 *437:10 *2431:B1 1.69978e-05
5 *437:10 *492:31 6.14647e-05
6 *437:10 *492:94 0.00017761
7 *437:10 *553:26 0.000137216
8 *326:90 *437:10 4.03402e-06
*RES
1 *2431:X *437:10 42.9093 
2 *437:10 *2432:C1 38 
*END

*D_NET *438 0.00666405
*CONN
*I *2433:B1 I *D sky130_fd_sc_hd__a311o_1
*I *2432:X O *D sky130_fd_sc_hd__a211o_1
*CAP
1 *2433:B1 0
2 *2432:X 3.54093e-05
3 *438:18 0.00250681
4 *438:10 0.00254222
5 *438:10 *552:50 7.39704e-05
6 *438:18 *537:58 0.000229218
7 *438:18 *545:120 0
8 *259:18 *438:18 0.000491673
9 *302:18 *438:18 0.000549946
10 *334:10 *438:18 0
11 *334:37 *438:18 0.000163343
12 *396:8 *438:10 7.1459e-05
*RES
1 *2432:X *438:10 47.0254 
2 *438:10 *438:18 35.3828 
3 *438:18 *2433:B1 23 
*END

*D_NET *439 0.00447041
*CONN
*I *2021:C1 I *D sky130_fd_sc_hd__a211o_2
*I *2007:C1 I *D sky130_fd_sc_hd__a211o_1
*I *2012:A1 I *D sky130_fd_sc_hd__o21ai_1
*I *2013:A I *D sky130_fd_sc_hd__or4_1
*I *1989:Y O *D sky130_fd_sc_hd__inv_2
*CAP
1 *2021:C1 0
2 *2007:C1 0
3 *2012:A1 5.58557e-05
4 *2013:A 0
5 *1989:Y 0.000322222
6 *439:22 0.000729029
7 *439:16 0.00103444
8 *439:10 0.000683492
9 *2012:A1 *2012:A2 4.34745e-05
10 *2012:A1 *2013:B 3.22879e-05
11 *2012:A1 *453:21 0.000143655
12 *439:10 *2001:A 7.88926e-05
13 *439:10 *451:8 0
14 *439:10 *452:10 0.000150688
15 *439:16 *1992:B 0.00013766
16 *439:16 *2007:A1 4.39727e-05
17 *439:16 *2021:A2 0
18 *439:16 *442:16 0.000194193
19 *439:16 *451:8 0
20 *439:16 *452:10 1.14452e-05
21 *439:16 *552:100 3.70522e-05
22 *439:22 *2007:A1 4.21594e-06
23 *439:22 *2019:A2 0
24 *439:22 *2023:B1_N 0
25 *439:22 *2039:A1 0
26 *439:22 *2370:B 7.22308e-05
27 *439:22 *442:16 1.14452e-05
28 *439:22 *449:20 4.99753e-06
29 *439:22 *453:21 0.000544276
30 *439:22 *463:10 2.30292e-05
31 *439:22 *469:12 0
32 *439:22 *473:10 0
33 *439:22 *488:10 5.26101e-05
34 *439:22 *547:46 0
35 *2001:B *439:10 2.98648e-05
36 *50:24 *439:10 0
37 *434:14 *439:10 2.93747e-05
*RES
1 *1989:Y *439:10 44.09 
2 *439:10 *439:16 6.54571 
3 *439:16 *439:22 30.4529 
4 *439:22 *2013:A 23 
5 *439:22 *2012:A1 25.0507 
6 *439:16 *2007:C1 38 
7 *439:10 *2021:C1 38 
*END

*D_NET *440 0.00512509
*CONN
*I *2394:A2 I *D sky130_fd_sc_hd__a211o_1
*I *1990:Y O *D sky130_fd_sc_hd__a21oi_1
*CAP
1 *2394:A2 0
2 *1990:Y 0.000421705
3 *440:12 0.000787077
4 *440:8 0.00120878
5 *440:8 *1990:A1 3.87132e-05
6 *440:12 *2190:A 3.35885e-06
7 *440:12 *492:37 0.000240695
8 *440:12 *492:39 0.000571214
9 *440:12 *492:45 0.00032263
10 *440:12 *515:8 8.15327e-05
11 *440:12 *532:26 0.000286832
12 *440:12 *551:21 0.00106181
13 *440:12 *551:44 4.89546e-05
14 *440:12 *553:26 3.49691e-05
15 *1990:B1 *440:8 5.37348e-06
16 *326:90 *440:12 1.14452e-05
17 *358:8 *440:12 0
*RES
1 *1990:Y *440:8 44.3386 
2 *440:8 *440:12 38.3864 
3 *440:12 *2394:A2 23 
*END

*D_NET *441 0.00394124
*CONN
*I *1994:A2 I *D sky130_fd_sc_hd__a21o_1
*I *1992:C I *D sky130_fd_sc_hd__and3_1
*I *2006:A2 I *D sky130_fd_sc_hd__a22o_1
*I *1993:C I *D sky130_fd_sc_hd__nand3_1
*I *1991:X O *D sky130_fd_sc_hd__a211o_1
*CAP
1 *1994:A2 0
2 *1992:C 0.000229235
3 *2006:A2 0.0001137
4 *1993:C 7.06276e-05
5 *1991:X 0.000163036
6 *441:40 0.000390134
7 *441:25 0.000470787
8 *441:8 0.000429852
9 *1992:C *2000:B 0.000272656
10 *1992:C *2000:C 0.000241433
11 *1992:C *2004:B1 5.3304e-05
12 *1992:C *2004:C1 6.86005e-05
13 *1992:C *444:8 0.000180218
14 *1993:C *1993:B 2.76611e-06
15 *1993:C *474:10 0
16 *1993:C *552:66 9.84794e-05
17 *1993:C *552:88 0.00010018
18 *1993:C *554:56 5.58473e-05
19 *2006:A2 *456:10 5.3304e-05
20 *2006:A2 *552:66 0
21 *2006:A2 *552:88 4.67488e-05
22 *2006:A2 *552:100 2.64616e-05
23 *441:8 *474:10 0
24 *441:8 *554:56 0.000328671
25 *441:25 *552:66 0.000231421
26 *441:25 *552:88 2.61526e-05
27 *441:40 *454:10 0.000131997
28 *441:40 *454:19 3.55303e-05
29 *441:40 *456:10 1.66113e-05
30 *441:40 *474:10 1.33927e-05
31 *441:40 *552:74 5.45669e-05
32 *434:27 *441:40 3.55303e-05
*RES
1 *1991:X *441:8 42.3707 
2 *441:8 *1993:C 39.9471 
3 *441:8 *441:25 18.9771 
4 *441:25 *2006:A2 25.0714 
5 *441:25 *441:40 32.9621 
6 *441:40 *1992:C 29.4836 
7 *441:40 *1994:A2 23 
*END

*D_NET *442 0.00186088
*CONN
*I *2004:C1 I *D sky130_fd_sc_hd__a211o_1
*I *2003:C1 I *D sky130_fd_sc_hd__a211oi_1
*I *1992:X O *D sky130_fd_sc_hd__and3_1
*CAP
1 *2004:C1 9.98278e-05
2 *2003:C1 0
3 *1992:X 5.73826e-05
4 *442:16 0.000191766
5 *442:8 0.000348977
6 *2004:C1 *2000:C 4.08664e-05
7 *2004:C1 *2004:B1 5.3304e-05
8 *2004:C1 *454:10 0.000223698
9 *442:8 *2000:C 0.000134465
10 *442:8 *454:10 5.50049e-05
11 *442:16 *2007:B1 5.50049e-05
12 *442:16 *449:20 0.000225313
13 *442:16 *451:8 4.24694e-06
14 *442:16 *455:8 9.67842e-05
15 *1992:C *2004:C1 6.86005e-05
16 *439:16 *442:16 0.000194193
17 *439:22 *442:16 1.14452e-05
*RES
1 *1992:X *442:8 24.595 
2 *442:8 *442:16 34.7643 
3 *442:16 *2003:C1 23 
4 *442:8 *2004:C1 26.0243 
*END

*D_NET *443 0.00322558
*CONN
*I *2005:A1 I *D sky130_fd_sc_hd__a21o_1
*I *2021:A1 I *D sky130_fd_sc_hd__a211o_2
*I *2000:A I *D sky130_fd_sc_hd__nand3_1
*I *1993:Y O *D sky130_fd_sc_hd__nand3_1
*CAP
1 *2005:A1 0
2 *2021:A1 4.01155e-05
3 *2000:A 0
4 *1993:Y 0
5 *443:34 0.00027094
6 *443:14 0.000204162
7 *443:6 0.000759059
8 *443:4 0.000785722
9 *443:6 *552:88 0.000247812
10 *443:6 *552:100 0.000352421
11 *443:14 *2021:A2 0.000130724
12 *443:14 *472:10 0
13 *443:34 *1993:B 6.97747e-05
14 *443:34 *1994:B1 7.16228e-05
15 *443:34 *449:53 1.01436e-05
16 *443:34 *474:10 0.000106294
17 *443:34 *552:88 5.3304e-05
18 *443:34 *554:56 0.00011091
19 *50:16 *443:6 4.37586e-06
20 *50:16 *443:14 8.20126e-06
*RES
1 *1993:Y *443:4 23 
2 *443:4 *443:6 7.29143 
3 *443:6 *443:14 33.0036 
4 *443:14 *2000:A 23 
5 *443:6 *2021:A1 23.8493 
6 *443:4 *443:34 35.6964 
7 *443:34 *2005:A1 23 
*END

*D_NET *444 0.00344014
*CONN
*I *2005:A2 I *D sky130_fd_sc_hd__a21o_1
*I *2003:A1 I *D sky130_fd_sc_hd__a211oi_1
*I *2004:A1 I *D sky130_fd_sc_hd__a211o_1
*I *2000:B I *D sky130_fd_sc_hd__nand3_1
*I *1994:X O *D sky130_fd_sc_hd__a21o_1
*CAP
1 *2005:A2 9.1772e-05
2 *2003:A1 5.29993e-05
3 *2004:A1 0
4 *2000:B 0.000286961
5 *1994:X 8.42825e-05
6 *444:38 0.000257229
7 *444:27 4.16985e-05
8 *444:8 0.00045879
9 *444:6 0.00032687
10 *2000:B *1992:B 5.3304e-05
11 *2000:B *2000:C 4.08545e-05
12 *2000:B *450:8 6.0392e-05
13 *2000:B *552:100 2.64616e-05
14 *2003:A1 *2003:B1 5.3304e-05
15 *2003:A1 *449:8 4.95081e-05
16 *2003:A1 *449:20 2.4754e-05
17 *2003:A1 *455:8 0.000139352
18 *2005:A2 *2003:A2 5.90675e-06
19 *2005:A2 *2003:B1 0
20 *2005:A2 *449:6 9.84851e-05
21 *2005:A2 *449:8 9.58714e-05
22 *2005:A2 *449:53 5.3304e-05
23 *2005:A2 *517:100 4.00259e-06
24 *444:6 *520:68 0.000137651
25 *444:8 *451:20 9.41704e-05
26 *444:8 *520:68 5.50049e-05
27 *444:27 *449:20 5.43589e-05
28 *444:27 *451:20 5.64582e-05
29 *444:38 *451:20 4.66036e-05
30 *444:38 *456:10 0
31 *444:38 *474:10 0.000190607
32 *1992:C *2000:B 0.000272656
33 *1992:C *444:8 0.000180218
34 *413:8 *2003:A1 1.40958e-05
35 *413:8 *2005:A2 3.22118e-05
*RES
1 *1994:X *444:6 24.5743 
2 *444:6 *444:8 3.00357 
3 *444:8 *2000:B 29.0486 
4 *444:8 *444:27 30.8493 
5 *444:27 *2004:A1 23 
6 *444:6 *444:38 32.61 
7 *444:38 *2003:A1 25.0507 
8 *444:38 *2005:A2 26.045 
*END

*D_NET *445 0.000712073
*CONN
*I *2037:A I *D sky130_fd_sc_hd__and2_1
*I *2038:A I *D sky130_fd_sc_hd__nand2_1
*I *1995:X O *D sky130_fd_sc_hd__or2_1
*CAP
1 *2037:A 0
2 *2038:A 0.000157166
3 *1995:X 1.69228e-05
4 *445:6 0.000174089
5 *2038:A *2038:B 0.000139346
6 *2038:A *486:22 8.60475e-05
7 *2038:A *488:10 3.22879e-05
8 *2038:A *518:85 4.95081e-05
9 *445:6 *486:22 5.67058e-05
*RES
1 *1995:X *445:6 23.6214 
2 *445:6 *2038:A 26.9771 
3 *445:6 *2037:A 23 
*END

*D_NET *446 0.00286818
*CONN
*I *2017:B1 I *D sky130_fd_sc_hd__a31o_1
*I *2032:A I *D sky130_fd_sc_hd__xor2_1
*I *2031:A I *D sky130_fd_sc_hd__xnor2_1
*I *1996:Y O *D sky130_fd_sc_hd__nor2_1
*CAP
1 *2017:B1 0.000313904
2 *2032:A 0
3 *2031:A 0.000151385
4 *1996:Y 0.000136279
5 *446:12 0.000349362
6 *446:10 0.000511881
7 *446:8 0.000136279
8 *2017:B1 *464:6 0.000606388
9 *2031:A *2030:B 2.4754e-05
10 *2031:A *2032:B 0.000304321
11 *2031:A *480:8 5.67058e-05
12 *446:8 *464:23 0
13 *446:12 *2030:B 8.1796e-05
14 *446:12 *464:6 0.000195119
*RES
1 *1996:Y *446:8 40.2579 
2 *446:8 *446:10 15 
3 *446:10 *446:12 5.38571 
4 *446:12 *2031:A 27.4329 
5 *446:12 *2032:A 23 
6 *446:10 *2017:B1 31.8864 
*END

*D_NET *447 0.000405358
*CONN
*I *2013:B I *D sky130_fd_sc_hd__or4_1
*I *1997:Y O *D sky130_fd_sc_hd__nor2_1
*CAP
1 *2013:B 0.000138083
2 *1997:Y 0.000138083
3 *2013:B *2012:A2 1.76557e-05
4 *2013:B *2012:B1 5.67058e-05
5 *2013:B *2370:B 2.25419e-05
6 *2012:A1 *2013:B 3.22879e-05
*RES
1 *1997:Y *2013:B 49.0243 
*END

*D_NET *448 0.0066472
*CONN
*I *2318:B1 I *D sky130_fd_sc_hd__a21oi_1
*I *2317:C I *D sky130_fd_sc_hd__and3_1
*I *2371:C I *D sky130_fd_sc_hd__and3_1
*I *2013:C I *D sky130_fd_sc_hd__or4_1
*I *1998:X O *D sky130_fd_sc_hd__and2_1
*CAP
1 *2318:B1 6.81671e-05
2 *2317:C 0
3 *2371:C 0
4 *2013:C 0
5 *1998:X 0
6 *448:58 8.89891e-05
7 *448:48 0.000756571
8 *448:33 0.00167435
9 *448:12 0.000517392
10 *448:4 0.00159232
11 *2318:B1 *2318:A1 5.67058e-05
12 *448:12 *462:8 0
13 *448:12 *462:12 7.24365e-05
14 *448:33 *2371:B 7.75151e-06
15 *448:33 *545:56 0.000115782
16 *448:33 *550:38 1.76557e-05
17 *448:33 *552:141 8.4047e-05
18 *448:33 *554:20 0.000606942
19 *448:33 *554:24 0.000468228
20 *448:58 *2318:A1 4.08537e-05
21 *448:58 *518:25 1.95448e-05
22 *448:58 *548:78 8.85189e-05
23 *2373:A *448:33 0
24 *2373:A *448:48 0.000134971
25 *2376:A1 *448:48 0
26 *2376:A1 *448:58 0
27 *314:10 *2318:B1 5.37348e-06
28 *374:10 *448:48 0.000230604
*RES
1 *1998:X *448:4 23 
2 *448:4 *448:12 37.2914 
3 *448:12 *2013:C 23 
4 *448:4 *448:33 48.415 
5 *448:33 *2371:C 23 
6 *448:33 *448:48 13.2571 
7 *448:48 *448:58 31.9264 
8 *448:58 *2317:C 23 
9 *448:48 *2318:B1 24.5743 
*END

*D_NET *449 0.00352666
*CONN
*I *2005:B1 I *D sky130_fd_sc_hd__a21o_1
*I *2003:A2 I *D sky130_fd_sc_hd__a211oi_1
*I *2004:A2 I *D sky130_fd_sc_hd__a211o_1
*I *2000:C I *D sky130_fd_sc_hd__nand3_1
*I *1999:X O *D sky130_fd_sc_hd__or2_1
*CAP
1 *2005:B1 0
2 *2003:A2 1.96641e-05
3 *2004:A2 0
4 *2000:C 0.000372788
5 *1999:X 9.19445e-05
6 *449:53 7.76819e-05
7 *449:20 0.000710453
8 *449:8 0.000483742
9 *449:6 0.000296039
10 *2000:C *520:76 1.94693e-05
11 *2000:C *552:100 5.50106e-05
12 *2003:A2 *2003:B1 4.00259e-06
13 *449:20 *2003:B1 9.75779e-05
14 *449:20 *451:20 1.2859e-05
15 *449:20 *453:21 3.70094e-05
16 *449:20 *455:8 1.03955e-05
17 *449:20 *456:10 7.72954e-05
18 *449:53 *474:10 5.94125e-05
19 *1992:C *2000:C 0.000241433
20 *2000:B *2000:C 4.08545e-05
21 *2003:A1 *449:8 4.95081e-05
22 *2003:A1 *449:20 2.4754e-05
23 *2004:C1 *2000:C 4.08664e-05
24 *2005:A2 *2003:A2 5.90675e-06
25 *2005:A2 *449:6 9.84851e-05
26 *2005:A2 *449:8 9.58714e-05
27 *2005:A2 *449:53 5.3304e-05
28 *413:8 *449:6 5.14746e-06
29 *413:8 *449:53 1.59094e-05
30 *439:22 *449:20 4.99753e-06
31 *442:8 *2000:C 0.000134465
32 *442:16 *449:20 0.000225313
33 *443:34 *449:53 1.01436e-05
34 *444:27 *449:20 5.43589e-05
*RES
1 *1999:X *449:6 24.5743 
2 *449:6 *449:8 2.05071 
3 *449:8 *449:20 36.8357 
4 *449:20 *2000:C 29.8771 
5 *449:20 *2004:A2 23 
6 *449:8 *2003:A2 23.4971 
7 *449:6 *449:53 31.4707 
8 *449:53 *2005:B1 23 
*END

*D_NET *450 0.00135009
*CONN
*I *2021:A2 I *D sky130_fd_sc_hd__a211o_2
*I *2007:A1 I *D sky130_fd_sc_hd__a211o_1
*I *2000:Y O *D sky130_fd_sc_hd__nand3_1
*CAP
1 *2021:A2 0.000247083
2 *2007:A1 0.000183418
3 *2000:Y 6.93948e-05
4 *450:8 0.000499895
5 *2007:A1 *1992:B 4.6318e-06
6 *2007:A1 *472:10 0
7 *2007:A1 *552:100 8.03739e-06
8 *2021:A2 *1992:B 2.9252e-05
9 *2021:A2 *452:10 4.21594e-06
10 *2021:A2 *472:10 0
11 *2021:A2 *520:68 4.35681e-06
12 *2021:A2 *552:100 6.05022e-05
13 *2000:B *450:8 6.0392e-05
14 *439:16 *2007:A1 4.39727e-05
15 *439:16 *2021:A2 0
16 *439:22 *2007:A1 4.21594e-06
17 *443:14 *2021:A2 0.000130724
*RES
1 *2000:Y *450:8 39.0979 
2 *450:8 *2007:A1 41.0243 
3 *450:8 *2021:A2 42.4329 
*END

*D_NET *451 0.00231916
*CONN
*I *2004:B1 I *D sky130_fd_sc_hd__a211o_1
*I *2003:B1 I *D sky130_fd_sc_hd__a211oi_1
*I *2001:Y O *D sky130_fd_sc_hd__nor2_1
*CAP
1 *2004:B1 2.32701e-05
2 *2003:B1 5.24343e-05
3 *2001:Y 0.000266097
4 *451:20 0.000308559
5 *451:8 0.000545493
6 *2003:B1 *2007:B1 0
7 *2003:B1 *455:8 2.32004e-05
8 *451:8 *454:19 5.01419e-05
9 *451:8 *456:10 0.0002237
10 *451:20 *456:10 0.000264141
11 *1992:C *2004:B1 5.3304e-05
12 *2003:A1 *2003:B1 5.3304e-05
13 *2003:A2 *2003:B1 4.00259e-06
14 *2004:C1 *2004:B1 5.3304e-05
15 *2005:A2 *2003:B1 0
16 *50:24 *451:8 8.62876e-05
17 *439:10 *451:8 0
18 *439:16 *451:8 0
19 *442:16 *451:8 4.24694e-06
20 *444:8 *451:20 9.41704e-05
21 *444:27 *451:20 5.64582e-05
22 *444:38 *451:20 4.66036e-05
23 *449:20 *2003:B1 9.75779e-05
24 *449:20 *451:20 1.2859e-05
*RES
1 *2001:Y *451:8 42.7229 
2 *451:8 *451:20 49.9093 
3 *451:20 *2003:B1 24.595 
4 *451:8 *2004:B1 38.6214 
*END

*D_NET *452 0.000504974
*CONN
*I *2021:B1 I *D sky130_fd_sc_hd__a211o_2
*I *2002:X O *D sky130_fd_sc_hd__or2_1
*CAP
1 *2021:B1 0
2 *2002:X 0.000159578
3 *452:10 0.000159578
4 *452:10 *2001:A 1.94693e-05
5 *452:10 *472:10 0
6 *2021:A2 *452:10 4.21594e-06
7 *439:10 *452:10 0.000150688
8 *439:16 *452:10 1.14452e-05
*RES
1 *2002:X *452:10 40.8793 
2 *452:10 *2021:B1 38 
*END

*D_NET *453 0.00277689
*CONN
*I *2012:A2 I *D sky130_fd_sc_hd__o21ai_1
*I *2013:D I *D sky130_fd_sc_hd__or4_1
*I *2007:B1 I *D sky130_fd_sc_hd__a211o_1
*I *2003:Y O *D sky130_fd_sc_hd__a211oi_1
*CAP
1 *2012:A2 3.49936e-05
2 *2013:D 0
3 *2007:B1 0.000109296
4 *2003:Y 0
5 *453:21 0.000617979
6 *453:4 0.000692281
7 *2007:B1 *455:8 4.90536e-05
8 *2012:A2 *1997:B 4.00259e-06
9 *2012:A2 *2370:B 0.00010018
10 *453:21 *2370:B 0.000185434
11 *453:21 *456:10 3.14481e-05
12 *453:21 *474:10 0
13 *453:21 *474:16 0
14 *453:21 *474:26 0.000111148
15 *2003:B1 *2007:B1 0
16 *2012:A1 *2012:A2 4.34745e-05
17 *2012:A1 *453:21 0.000143655
18 *2013:B *2012:A2 1.76557e-05
19 *439:22 *453:21 0.000544276
20 *442:16 *2007:B1 5.50049e-05
21 *449:20 *453:21 3.70094e-05
*RES
1 *2003:Y *453:4 23 
2 *453:4 *2007:B1 25.0714 
3 *453:4 *453:21 45.225 
4 *453:21 *2013:D 23 
5 *453:21 *2012:A2 24.595 
*END

*D_NET *454 0.00688542
*CONN
*I *2351:A3 I *D sky130_fd_sc_hd__a31o_1
*I *2020:A2 I *D sky130_fd_sc_hd__a21o_1
*I *2006:B1 I *D sky130_fd_sc_hd__a22o_1
*I *2004:X O *D sky130_fd_sc_hd__a211o_1
*CAP
1 *2351:A3 0
2 *2020:A2 0.000137291
3 *2006:B1 0
4 *2004:X 0.000279402
5 *454:32 0.00100709
6 *454:19 0.00137347
7 *454:10 0.000508492
8 *2020:A2 *517:90 0.000480242
9 *454:10 *456:10 0.000131997
10 *454:19 *456:10 4.66241e-05
11 *454:19 *474:10 0
12 *454:32 *1979:A 0
13 *454:32 *474:10 0
14 *454:32 *554:56 0
15 *1988:B1 *454:32 1.34542e-05
16 *2004:C1 *454:10 0.000223698
17 *2020:A1 *2020:A2 0.000164364
18 *2020:B1 *2020:A2 0.000140259
19 *2024:B1 *454:32 5.24779e-05
20 *50:24 *454:19 2.29895e-05
21 *192:99 *454:32 0
22 *337:10 *454:32 5.82825e-05
23 *343:23 *454:32 0
24 *355:10 *454:32 0
25 *401:14 *454:32 0
26 *434:8 *454:19 6.25829e-05
27 *434:8 *454:32 0.000414363
28 *434:14 *454:19 0.000139647
29 *434:27 *454:19 9.99916e-05
30 *434:45 *454:32 0.00125603
31 *441:40 *454:10 0.000131997
32 *441:40 *454:19 3.55303e-05
33 *442:8 *454:10 5.50049e-05
34 *451:8 *454:19 5.01419e-05
*RES
1 *2004:X *454:10 42.9093 
2 *454:10 *2006:B1 38 
3 *454:10 *454:19 5.77929 
4 *454:19 *2020:A2 43.3857 
5 *454:19 *454:32 37.6821 
6 *454:32 *2351:A3 23 
*END

*D_NET *455 0.0010468
*CONN
*I *2007:A2 I *D sky130_fd_sc_hd__a211o_1
*I *2005:X O *D sky130_fd_sc_hd__a21o_1
*CAP
1 *2007:A2 0
2 *2005:X 0.000227337
3 *455:8 0.000227337
4 *2003:A1 *455:8 0.000139352
5 *2003:B1 *455:8 2.32004e-05
6 *2007:B1 *455:8 4.90536e-05
7 *413:8 *455:8 0.000273344
8 *442:16 *455:8 9.67842e-05
9 *449:20 *455:8 1.03955e-05
*RES
1 *2005:X *455:8 29.3593 
2 *455:8 *2007:A2 23 
*END

*D_NET *456 0.00451358
*CONN
*I *2009:B I *D sky130_fd_sc_hd__and3_1
*I *2010:A1 I *D sky130_fd_sc_hd__a21oi_1
*I *2008:A I *D sky130_fd_sc_hd__nand2_1
*I *2006:X O *D sky130_fd_sc_hd__a22o_1
*CAP
1 *2009:B 0
2 *2010:A1 0.000238186
3 *2008:A 0.000142853
4 *2006:X 0.00050324
5 *456:27 0.00033386
6 *456:14 0.000766785
7 *456:10 0.0010315
8 *2008:A *542:54 0.000137651
9 *2010:A1 *2010:A2 5.31444e-05
10 *2010:A1 *457:16 6.45777e-05
11 *2010:A1 *459:14 4.0773e-05
12 *2010:A1 *475:10 9.84851e-05
13 *456:10 *474:10 0
14 *456:10 *520:68 3.87221e-06
15 *456:10 *552:100 3.34129e-05
16 *456:14 *473:10 1.39431e-05
17 *456:27 *2023:A1 3.70094e-05
18 *456:27 *2023:B1_N 0
19 *456:27 *457:16 7.54566e-05
20 *456:27 *459:14 0
21 *456:27 *472:10 3.70094e-05
22 *2006:A2 *456:10 5.3304e-05
23 *50:16 *456:10 5.67058e-05
24 *441:40 *456:10 1.66113e-05
25 *444:38 *456:10 0
26 *449:20 *456:10 7.72954e-05
27 *451:8 *456:10 0.0002237
28 *451:20 *456:10 0.000264141
29 *453:21 *456:10 3.14481e-05
30 *454:10 *456:10 0.000131997
31 *454:19 *456:10 4.66241e-05
*RES
1 *2006:X *456:10 48.1707 
2 *456:10 *456:14 23.2443 
3 *456:14 *2008:A 25.5479 
4 *456:14 *456:27 17.61 
5 *456:27 *2010:A1 42.8264 
6 *456:27 *2009:B 38 
*END

*D_NET *457 0.00219455
*CONN
*I *2008:B I *D sky130_fd_sc_hd__nand2_1
*I *2009:C I *D sky130_fd_sc_hd__and3_1
*I *2010:A2 I *D sky130_fd_sc_hd__a21oi_1
*I *2007:X O *D sky130_fd_sc_hd__a211o_1
*CAP
1 *2008:B 0
2 *2009:C 4.11319e-05
3 *2010:A2 0.000129152
4 *2007:X 0.000382259
5 *457:16 0.00029926
6 *457:10 0.000511236
7 *2010:A2 *475:10 5.50106e-05
8 *2010:A2 *475:23 4.34173e-05
9 *2010:A2 *518:85 5.67058e-05
10 *457:10 *2023:A1 6.16439e-05
11 *457:10 *475:84 5.97612e-05
12 *457:10 *542:35 7.39034e-05
13 *457:16 *2023:A1 1.14452e-05
14 *457:16 *458:8 0.000166532
15 *457:16 *475:23 6.21707e-06
16 *457:16 *475:84 4.42688e-05
17 *2010:A1 *2010:A2 5.31444e-05
18 *2010:A1 *457:16 6.45777e-05
19 *31:8 *2009:C 2.25517e-05
20 *413:8 *457:10 3.68725e-05
21 *456:27 *457:16 7.54566e-05
*RES
1 *2007:X *457:10 43.8621 
2 *457:10 *457:16 4.43286 
3 *457:16 *2010:A2 40.8793 
4 *457:16 *2009:C 38.7043 
5 *457:10 *2008:B 38 
*END

*D_NET *458 0.00101082
*CONN
*I *2027:A0 I *D sky130_fd_sc_hd__mux2_1
*I *2008:Y O *D sky130_fd_sc_hd__nand2_1
*CAP
1 *2027:A0 9.746e-05
2 *2008:Y 6.75437e-05
3 *458:8 0.000165004
4 *2027:A0 *475:27 8.43466e-05
5 *2027:A0 *475:31 9.67842e-05
6 *458:8 *475:23 3.47781e-05
7 *458:8 *475:84 0.000138727
8 *2009:A *2027:A0 0.000139357
9 *31:8 *2027:A0 2.02872e-05
10 *457:16 *458:8 0.000166532
*RES
1 *2008:Y *458:8 40.2579 
2 *458:8 *2027:A0 40.5271 
*END

*D_NET *459 0.00269336
*CONN
*I *2023:B1_N I *D sky130_fd_sc_hd__o21ba_1
*I *2011:A I *D sky130_fd_sc_hd__nor2_1
*I *2019:B1 I *D sky130_fd_sc_hd__a211o_1
*I *2009:X O *D sky130_fd_sc_hd__and3_1
*CAP
1 *2023:B1_N 9.71711e-05
2 *2011:A 0
3 *2019:B1 9.15285e-05
4 *2009:X 7.88413e-05
5 *459:29 0.0001555
6 *459:14 0.000533413
7 *459:8 0.000462396
8 *2019:B1 *2019:A1 2.35625e-05
9 *2019:B1 *2019:A2 2.93747e-05
10 *2023:B1_N *472:10 4.21594e-06
11 *2023:B1_N *473:10 8.62876e-05
12 *459:14 *2019:A2 1.56762e-05
13 *459:14 *2040:A2 0.000222123
14 *459:14 *460:10 0
15 *459:14 *469:8 0.00010018
16 *459:14 *473:10 8.11552e-05
17 *459:14 *473:12 0.000157299
18 *459:14 *518:85 0
19 *459:29 *2011:B 0
20 *459:29 *2019:A1 0.000155077
21 *459:29 *2019:A2 6.7177e-06
22 *459:29 *2040:A2 0
23 *459:29 *460:10 0
24 *459:29 *466:10 1.14452e-05
25 *2010:A1 *459:14 4.0773e-05
26 *31:8 *459:8 5.67058e-05
27 *32:6 *2019:B1 0.000185428
28 *32:6 *459:14 9.84851e-05
29 *294:20 *459:14 0
30 *439:22 *2023:B1_N 0
31 *456:27 *2023:B1_N 0
32 *456:27 *459:14 0
*RES
1 *2009:X *459:8 39.0979 
2 *459:8 *459:14 22.7057 
3 *459:14 *2019:B1 25.9 
4 *459:14 *459:29 33.3143 
5 *459:29 *2011:A 23 
6 *459:8 *2023:B1_N 40.2579 
*END

*D_NET *460 0.00111124
*CONN
*I *2019:C1 I *D sky130_fd_sc_hd__a211o_1
*I *2011:B I *D sky130_fd_sc_hd__nor2_1
*I *2010:Y O *D sky130_fd_sc_hd__a21oi_1
*CAP
1 *2019:C1 0
2 *2011:B 0.00019861
3 *2010:Y 0.000184011
4 *460:10 0.000382621
5 *2011:B *1996:B 0
6 *2011:B *2026:A 0.00010018
7 *2011:B *476:10 4.58924e-05
8 *2011:B *547:42 0.00010018
9 *460:10 *476:10 1.52259e-05
10 *460:10 *518:85 3.95281e-05
11 *294:20 *460:10 4.49946e-05
12 *459:14 *460:10 0
13 *459:29 *2011:B 0
14 *459:29 *460:10 0
*RES
1 *2010:Y *460:10 40.8793 
2 *460:10 *2011:B 42.3293 
3 *460:10 *2019:C1 38 
*END

*D_NET *461 0.000454089
*CONN
*I *2026:A I *D sky130_fd_sc_hd__xnor2_1
*I *2011:Y O *D sky130_fd_sc_hd__nor2_1
*CAP
1 *2026:A 5.2928e-05
2 *2011:Y 5.2928e-05
3 *2026:A *468:8 0.000198545
4 *2026:A *547:42 4.95081e-05
5 *2011:B *2026:A 0.00010018
*RES
1 *2011:Y *2026:A 48.5479 
*END

*D_NET *462 0.0019531
*CONN
*I *2016:A1 I *D sky130_fd_sc_hd__a21o_1
*I *2017:A2 I *D sky130_fd_sc_hd__a31o_1
*I *2014:A I *D sky130_fd_sc_hd__nand2_1
*I *2012:Y O *D sky130_fd_sc_hd__o21ai_1
*CAP
1 *2016:A1 0
2 *2017:A2 2.96906e-05
3 *2014:A 0
4 *2012:Y 0.000136309
5 *462:36 0.000116228
6 *462:21 0.000254384
7 *462:12 0.000215999
8 *462:8 0.000243842
9 *2017:A2 *2017:A3 5.50049e-05
10 *2017:A2 *464:6 9.84794e-05
11 *462:8 *550:38 0
12 *462:8 *554:28 0
13 *462:21 *2014:B 0.000185434
14 *462:21 *2017:A3 4.08664e-05
15 *462:21 *464:6 0.000269775
16 *462:36 *2016:A2 0.000147181
17 *462:36 *2016:B1 5.86165e-05
18 *462:36 *463:10 2.46345e-05
19 *462:36 *547:46 4.21594e-06
20 *448:12 *462:8 0
21 *448:12 *462:12 7.24365e-05
*RES
1 *2012:Y *462:8 40.2579 
2 *462:8 *462:12 17.5271 
3 *462:12 *2014:A 23 
4 *462:12 *462:21 3.97714 
5 *462:21 *2017:A2 24.0979 
6 *462:21 *462:36 32.8793 
7 *462:36 *2016:A1 23 
*END

*D_NET *463 0.00157162
*CONN
*I *2014:B I *D sky130_fd_sc_hd__nand2_1
*I *2017:A3 I *D sky130_fd_sc_hd__a31o_1
*I *2016:A2 I *D sky130_fd_sc_hd__a21o_1
*I *2013:X O *D sky130_fd_sc_hd__or4_1
*CAP
1 *2014:B 7.17539e-05
2 *2017:A3 5.86721e-05
3 *2016:A2 0.000151345
4 *2013:X 0.00025437
5 *463:23 0.000130426
6 *463:10 0.000405715
7 *2016:A2 *2016:B1 0
8 *463:10 *2370:B 2.3191e-05
9 *463:10 *547:46 0
10 *2017:A2 *2017:A3 5.50049e-05
11 *439:22 *463:10 2.30292e-05
12 *462:21 *2014:B 0.000185434
13 *462:21 *2017:A3 4.08664e-05
14 *462:36 *2016:A2 0.000147181
15 *462:36 *463:10 2.46345e-05
*RES
1 *2013:X *463:10 41.8321 
2 *463:10 *2016:A2 41.2314 
3 *463:10 *463:23 15 
4 *463:23 *2017:A3 24.0979 
5 *463:23 *2014:B 25.0507 
*END

*D_NET *464 0.00582465
*CONN
*I *2034:A0 I *D sky130_fd_sc_hd__mux2_1
*I *2015:A I *D sky130_fd_sc_hd__inv_2
*I *2030:B I *D sky130_fd_sc_hd__xnor2_1
*I *2014:Y O *D sky130_fd_sc_hd__nand2_1
*CAP
1 *2034:A0 0.000362342
2 *2015:A 0
3 *2030:B 0.000544703
4 *2014:Y 0.000681615
5 *464:23 0.000509022
6 *464:6 0.001373
7 *2030:B *2032:B 0.000317553
8 *2030:B *480:8 0.000179824
9 *2030:B *516:52 1.94693e-05
10 *2034:A0 *2033:S 0
11 *2034:A0 *2034:A1 9.84794e-05
12 *2034:A0 *2034:S 7.4416e-05
13 *2034:A0 *517:62 0
14 *464:6 *467:10 0.000269775
15 *464:23 *2033:S 0
16 *464:23 *482:8 0
17 *464:23 *517:62 0
18 *2017:A2 *464:6 9.84794e-05
19 *2017:B1 *464:6 0.000606388
20 *2031:A *2030:B 2.4754e-05
21 *294:20 *2034:A0 0.000118143
22 *446:8 *464:23 0
23 *446:12 *2030:B 8.1796e-05
24 *446:12 *464:6 0.000195119
25 *462:21 *464:6 0.000269775
*RES
1 *2014:Y *464:6 39.82 
2 *464:6 *2030:B 34.165 
3 *464:6 *464:23 17.61 
4 *464:23 *2015:A 38 
5 *464:23 *2034:A0 45.1671 
*END

*D_NET *465 0.000473262
*CONN
*I *2033:A0 I *D sky130_fd_sc_hd__mux2_1
*I *2015:Y O *D sky130_fd_sc_hd__inv_2
*CAP
1 *2033:A0 0.000116862
2 *2015:Y 0.000116862
3 *2033:A0 *2033:A1 5.50106e-05
4 *2033:A0 *547:42 0.000184527
*RES
1 *2015:Y *2033:A0 49.0036 
*END

*D_NET *466 0.00150991
*CONN
*I *2019:A1 I *D sky130_fd_sc_hd__a211o_1
*I *2018:A I *D sky130_fd_sc_hd__nand2_1
*I *2016:X O *D sky130_fd_sc_hd__a21o_1
*CAP
1 *2019:A1 0.000175356
2 *2018:A 0
3 *2016:X 0.000353747
4 *466:10 0.000529104
5 *2019:A1 *2019:A2 0.000171431
6 *2019:A1 *467:10 6.07611e-06
7 *2019:A1 *469:8 0
8 *466:10 *2016:B1 0
9 *466:10 *467:10 8.41115e-05
10 *466:10 *547:46 0
11 *2019:B1 *2019:A1 2.35625e-05
12 *459:29 *2019:A1 0.000155077
13 *459:29 *466:10 1.14452e-05
*RES
1 *2016:X *466:10 44.1729 
2 *466:10 *2018:A 38 
3 *466:10 *2019:A1 42.3293 
*END

*D_NET *467 0.00170235
*CONN
*I *2019:A2 I *D sky130_fd_sc_hd__a211o_1
*I *2018:B I *D sky130_fd_sc_hd__nand2_1
*I *2017:X O *D sky130_fd_sc_hd__a31o_1
*CAP
1 *2019:A2 0.00019175
2 *2018:B 0
3 *2017:X 0.000261789
4 *467:10 0.000453539
5 *2019:A2 *2040:A2 1.01436e-05
6 *2019:A2 *469:8 9.84794e-05
7 *2019:A2 *547:46 1.83564e-05
8 *467:10 *547:46 8.51329e-05
9 *2019:A1 *2019:A2 0.000171431
10 *2019:A1 *467:10 6.07611e-06
11 *2019:B1 *2019:A2 2.93747e-05
12 *439:22 *2019:A2 0
13 *459:14 *2019:A2 1.56762e-05
14 *459:29 *2019:A2 6.7177e-06
15 *464:6 *467:10 0.000269775
16 *466:10 *467:10 8.41115e-05
*RES
1 *2017:X *467:10 43.2614 
2 *467:10 *2018:B 38 
3 *467:10 *2019:A2 42.6607 
*END

*D_NET *468 0.000666319
*CONN
*I *2026:B I *D sky130_fd_sc_hd__xnor2_1
*I *2018:Y O *D sky130_fd_sc_hd__nand2_1
*CAP
1 *2026:B 0
2 *2018:Y 0.000201299
3 *468:8 0.000201299
4 *468:8 *547:42 6.51763e-05
5 *2026:A *468:8 0.000198545
*RES
1 *2018:Y *468:8 27.4536 
2 *468:8 *2026:B 23 
*END

*D_NET *469 0.00143251
*CONN
*I *2040:A1 I *D sky130_fd_sc_hd__a211o_1
*I *2039:A1 I *D sky130_fd_sc_hd__a211o_1
*I *2025:A2 I *D sky130_fd_sc_hd__a21oi_4
*I *2019:X O *D sky130_fd_sc_hd__a211o_1
*CAP
1 *2040:A1 0
2 *2039:A1 0.000121049
3 *2025:A2 0
4 *2019:X 9.72389e-05
5 *469:12 0.000255754
6 *469:8 0.000231944
7 *2039:A1 *2040:A2 2.55642e-05
8 *2039:A1 *473:10 1.14452e-05
9 *2039:A1 *473:12 0.000166513
10 *469:8 *474:26 2.02517e-05
11 *469:12 *2040:A2 0.000248989
12 *469:12 *488:10 5.51058e-05
13 *2019:A1 *469:8 0
14 *2019:A2 *469:8 9.84794e-05
15 *439:22 *2039:A1 0
16 *439:22 *469:12 0
17 *459:14 *469:8 0.00010018
*RES
1 *2019:X *469:8 25.5479 
2 *469:8 *469:12 18.3143 
3 *469:12 *2025:A2 38 
4 *469:12 *2039:A1 40.61 
5 *469:8 *2040:A1 23 
*END

*D_NET *470 0.00157737
*CONN
*I *2051:A I *D sky130_fd_sc_hd__or2_1
*I *2022:A I *D sky130_fd_sc_hd__and2_1
*I *2020:X O *D sky130_fd_sc_hd__a21o_1
*CAP
1 *2051:A 0.000118917
2 *2022:A 0
3 *2020:X 0.000306225
4 *470:12 0.000118917
5 *470:10 0.000306225
6 *2051:A *2051:B 0.00018282
7 *2051:A *475:90 1.5769e-05
8 *2051:A *550:104 0.000271476
9 *470:10 *2051:B 1.01436e-05
10 *470:10 *471:135 1.14452e-05
11 *470:10 *517:90 7.9199e-05
12 *470:10 *542:35 5.16299e-05
13 *470:10 *542:65 4.15283e-06
14 *470:10 *550:104 8.25811e-05
15 *294:12 *470:10 1.78655e-05
*RES
1 *2020:X *470:10 42.4329 
2 *470:10 *470:12 15 
3 *470:12 *2022:A 23 
4 *470:12 *2051:A 26.9771 
*END

*D_NET *471 0.0253962
*CONN
*I *2022:B I *D sky130_fd_sc_hd__and2_1
*I *2052:A1 I *D sky130_fd_sc_hd__a21oi_1
*I *2055:B I *D sky130_fd_sc_hd__and3_1
*I *2145:A1 I *D sky130_fd_sc_hd__a21oi_1
*I *2146:B I *D sky130_fd_sc_hd__and3_1
*I *2077:A1 I *D sky130_fd_sc_hd__a21o_1
*I *2076:B I *D sky130_fd_sc_hd__and3_1
*I *2121:B1 I *D sky130_fd_sc_hd__o21ai_1
*I *2021:X O *D sky130_fd_sc_hd__a211o_2
*CAP
1 *2022:B 0
2 *2052:A1 0
3 *2055:B 0
4 *2145:A1 8.75055e-05
5 *2146:B 0.0001332
6 *2077:A1 0
7 *2076:B 0.000336978
8 *2121:B1 0
9 *2021:X 0.000165081
10 *471:135 0.000111216
11 *471:124 0.000275339
12 *471:93 0.000220705
13 *471:91 0.00109181
14 *471:87 0.00178014
15 *471:74 0.000175311
16 *471:53 0.00103041
17 *471:40 0.000753419
18 *471:32 0.00247873
19 *471:30 0.00229452
20 *471:22 0.00103594
21 *471:8 0.00160442
22 *471:6 0.000968435
23 *2145:A1 *2146:A 1.92007e-05
24 *471:8 *2046:A 9.16362e-05
25 *471:22 *2056:A 0
26 *471:22 *2057:A 4.97925e-05
27 *471:22 *2057:B 1.01436e-05
28 *471:22 *2060:A2 0.000184527
29 *471:22 *477:24 4.6595e-05
30 *471:22 *516:52 0
31 *471:22 *534:56 5.58534e-05
32 *471:22 *539:60 0.000226295
33 *471:22 *542:33 0
34 *471:30 *534:48 0.000436767
35 *471:30 *536:70 0
36 *471:32 *534:48 0.00150865
37 *471:40 *539:24 0
38 *471:40 *539:43 8.80821e-05
39 *471:53 *2073:A 6.7177e-06
40 *471:53 *2100:B1 7.77503e-05
41 *471:87 *495:18 0.000184527
42 *471:87 *531:18 7.76364e-06
43 *471:87 *531:22 1.62015e-05
44 *471:87 *542:16 0.00086741
45 *471:91 *496:12 0.000130716
46 *471:91 *501:12 0.000476946
47 *471:91 *512:18 0
48 *471:91 *531:10 0
49 *471:91 *531:125 0
50 *471:124 *516:52 0.000104133
51 *471:135 *2051:B 2.60152e-05
52 *471:135 *475:84 7.06402e-05
53 *471:135 *542:35 0.000215225
54 *2046:B *471:8 5.50106e-05
55 *2076:C *2076:B 0.000312339
56 *2076:C *471:53 5.3304e-05
57 *2078:B *2076:B 6.39489e-06
58 *2103:A0 *471:40 0.000515248
59 *2118:B1 *471:87 5.3304e-05
60 *2120:B *471:40 0
61 *2138:A2 *471:91 7.76364e-06
62 *2145:A2 *2145:A1 4.30938e-05
63 *2145:A2 *2146:B 5.85458e-05
64 *45:36 *471:8 0.000180224
65 *45:36 *471:22 0.000268074
66 *49:10 *471:22 3.92285e-05
67 *49:16 *471:22 6.78081e-05
68 *50:16 *471:6 0.000164508
69 *50:16 *471:8 0.00133491
70 *52:10 *471:8 3.75171e-05
71 *62:8 *471:22 0.000184825
72 *62:8 *471:124 0
73 *63:10 *471:22 0.000135557
74 *64:34 *471:74 0
75 *67:14 *471:53 4.17736e-05
76 *67:16 *471:53 0.000295607
77 *67:39 *471:74 0.000177199
78 *67:48 *471:40 0.000146697
79 *67:48 *471:53 0.000395503
80 *69:10 *471:74 0
81 *70:10 *471:74 0
82 *88:8 *471:53 5.56306e-05
83 *92:27 *471:40 0.000249874
84 *95:8 *471:40 0
85 *95:19 *471:40 0
86 *105:20 *471:87 4.34876e-05
87 *110:6 *471:87 4.21471e-05
88 *113:20 *471:40 0
89 *130:8 *471:91 0.000118889
90 *130:31 *471:91 8.88852e-05
91 *131:8 *471:40 0.000171906
92 *136:8 *471:91 0
93 *136:12 *2146:B 8.44405e-06
94 *137:10 *2145:A1 9.84851e-05
95 *137:10 *471:91 3.70094e-05
96 *138:8 *471:91 1.83564e-05
97 *158:8 *471:87 0.000194318
98 *283:10 *471:87 3.88504e-05
99 *283:89 *471:87 0.000199333
100 *470:10 *471:135 1.14452e-05
*RES
1 *2021:X *471:6 26.48 
2 *471:6 *471:8 18.2493 
3 *471:8 *471:22 42.7807 
4 *471:22 *471:30 36.1107 
5 *471:30 *471:32 18.2493 
6 *471:32 *471:40 47.3379 
7 *471:40 *2121:B1 23 
8 *471:32 *471:53 40.2121 
9 *471:53 *2076:B 29.525 
10 *471:53 *471:74 33.5836 
11 *471:74 *2077:A1 23 
12 *471:30 *471:87 47.7314 
13 *471:87 *471:91 36.6257 
14 *471:91 *471:93 15 
15 *471:93 *2146:B 25.5479 
16 *471:93 *2145:A1 25.4236 
17 *471:22 *2055:B 23 
18 *471:8 *471:124 33.5836 
19 *471:124 *2052:A1 23 
20 *471:6 *471:135 32.9621 
21 *471:135 *2022:B 23 
*END

*D_NET *472 0.00171139
*CONN
*I *2023:A2 I *D sky130_fd_sc_hd__o21ba_1
*I *2022:X O *D sky130_fd_sc_hd__and2_1
*CAP
1 *2023:A2 0
2 *2022:X 0.00054271
3 *472:10 0.00054271
4 *472:10 *2023:A1 1.12487e-05
5 *472:10 *475:90 5.3304e-05
6 *472:10 *497:46 0.000326374
7 *472:10 *520:68 6.84987e-06
8 *472:10 *542:35 0.000186968
9 *2007:A1 *472:10 0
10 *2021:A2 *472:10 0
11 *2023:B1_N *472:10 4.21594e-06
12 *443:14 *472:10 0
13 *452:10 *472:10 0
14 *456:27 *472:10 3.70094e-05
*RES
1 *2022:X *472:10 48.9786 
2 *472:10 *2023:A2 38 
*END

*D_NET *473 0.00198244
*CONN
*I *2039:A2 I *D sky130_fd_sc_hd__a211o_1
*I *2025:A1 I *D sky130_fd_sc_hd__a21oi_4
*I *2040:A2 I *D sky130_fd_sc_hd__a211o_1
*I *2023:X O *D sky130_fd_sc_hd__o21ba_1
*CAP
1 *2039:A2 0
2 *2025:A1 6.06502e-05
3 *2040:A2 9.41824e-05
4 *2023:X 0.000142353
5 *473:12 0.000210679
6 *473:10 0.0001982
7 *2025:A1 *475:10 0.000139352
8 *2025:A1 *518:85 0.000113564
9 *2019:A2 *2040:A2 1.01436e-05
10 *2023:B1_N *473:10 8.62876e-05
11 *2039:A1 *2040:A2 2.55642e-05
12 *2039:A1 *473:10 1.14452e-05
13 *2039:A1 *473:12 0.000166513
14 *439:22 *473:10 0
15 *456:14 *473:10 1.39431e-05
16 *459:14 *2040:A2 0.000222123
17 *459:14 *473:10 8.11552e-05
18 *459:14 *473:12 0.000157299
19 *459:29 *2040:A2 0
20 *469:12 *2040:A2 0.000248989
*RES
1 *2023:X *473:10 40.8793 
2 *473:10 *473:12 2.25786 
3 *473:12 *2040:A2 41.6664 
4 *473:12 *2025:A1 40.0714 
5 *473:10 *2039:A2 38 
*END

*D_NET *474 0.00620154
*CONN
*I *2039:B1 I *D sky130_fd_sc_hd__a211o_1
*I *2025:B1 I *D sky130_fd_sc_hd__a21oi_4
*I *2040:B1 I *D sky130_fd_sc_hd__a211o_1
*I *2024:X O *D sky130_fd_sc_hd__a21o_1
*CAP
1 *2039:B1 0.000298245
2 *2025:B1 0
3 *2040:B1 0
4 *2024:X 0.000135701
5 *474:26 0.000397501
6 *474:16 0.000643292
7 *474:10 0.00148825
8 *474:8 0.00107992
9 *2039:B1 *2039:C1 0.000571494
10 *474:8 *524:30 0.000151851
11 *474:10 *1979:A 7.48331e-05
12 *474:10 *1993:B 0.000109206
13 *474:10 *1994:B1 7.16228e-05
14 *474:10 *520:68 7.57281e-06
15 *474:10 *536:104 4.68153e-05
16 *474:10 *552:74 0.000131997
17 *474:10 *554:50 0
18 *474:10 *554:56 0
19 *474:16 *487:8 0
20 *474:16 *488:10 0.00010776
21 *474:16 *518:85 0.000270682
22 *474:16 *554:50 0
23 *1993:C *474:10 0
24 *434:27 *474:10 0.000113692
25 *441:8 *474:10 0
26 *441:40 *474:10 1.33927e-05
27 *443:34 *474:10 0.000106294
28 *444:38 *474:10 0.000190607
29 *449:53 *474:10 5.94125e-05
30 *453:21 *474:10 0
31 *453:21 *474:16 0
32 *453:21 *474:26 0.000111148
33 *454:19 *474:10 0
34 *454:32 *474:10 0
35 *456:10 *474:10 0
36 *469:8 *474:26 2.02517e-05
*RES
1 *2024:X *474:8 40.0507 
2 *474:8 *474:10 18.8086 
3 *474:10 *474:16 20.9657 
4 *474:16 *474:26 37.4157 
5 *474:26 *2040:B1 23 
6 *474:16 *2025:B1 23 
7 *474:10 *2039:B1 45.3121 
*END

*D_NET *475 0.0156526
*CONN
*I *2051:B I *D sky130_fd_sc_hd__or2_1
*I *2307:A2 I *D sky130_fd_sc_hd__a211oi_1
*I *2027:S I *D sky130_fd_sc_hd__mux2_1
*I *2043:A2 I *D sky130_fd_sc_hd__o211ai_2
*I *2041:A2 I *D sky130_fd_sc_hd__o21ai_1
*I *2034:S I *D sky130_fd_sc_hd__mux2_1
*I *2033:S I *D sky130_fd_sc_hd__mux2_1
*I *2042:A2 I *D sky130_fd_sc_hd__o211a_1
*I *2025:Y O *D sky130_fd_sc_hd__a21oi_4
*CAP
1 *2051:B 0.000102851
2 *2307:A2 9.58712e-05
3 *2027:S 0
4 *2043:A2 0
5 *2041:A2 0
6 *2034:S 4.57278e-05
7 *2033:S 0.000154318
8 *2042:A2 0.000198002
9 *2025:Y 0.000550127
10 *475:94 0.00137093
11 *475:90 0.00153825
12 *475:84 0.000792603
13 *475:67 0.000168545
14 *475:43 0.000527956
15 *475:35 0.000555873
16 *475:31 0.000431237
17 *475:27 0.000397518
18 *475:23 0.000563169
19 *475:10 0.000859033
20 *2033:S *482:8 1.44813e-05
21 *2033:S *517:62 0
22 *2033:S *547:42 0.000192096
23 *2042:A2 *516:84 5.3304e-05
24 *2042:A2 *518:91 3.22004e-05
25 *2307:A2 *526:78 0.00044107
26 *2307:A2 *538:21 9.67842e-05
27 *2307:A2 *538:51 0.000354122
28 *475:10 *518:85 0.000412875
29 *475:43 *517:62 0
30 *475:43 *547:36 2.70558e-06
31 *475:43 *547:42 0.000366108
32 *475:67 *517:62 0
33 *475:67 *547:36 0
34 *475:84 *542:35 0.000157926
35 *475:94 *1979:B 0.000133656
36 *475:94 *2354:A 0.000423298
37 *475:94 *497:46 0
38 *475:94 *534:76 0.000519502
39 *475:94 *538:25 0.00052783
40 *475:94 *542:69 0
41 *475:94 *543:116 0.000129995
42 *2010:A1 *475:10 9.84851e-05
43 *2010:A2 *475:10 5.50106e-05
44 *2010:A2 *475:23 4.34173e-05
45 *2010:B1 *2042:A2 9.84851e-05
46 *2010:B1 *475:10 4.34745e-05
47 *2025:A1 *475:10 0.000139352
48 *2027:A0 *475:27 8.43466e-05
49 *2027:A0 *475:31 9.67842e-05
50 *2034:A0 *2033:S 0
51 *2034:A0 *2034:S 7.4416e-05
52 *2043:A1 *475:67 0
53 *2051:A *2051:B 0.00018282
54 *2051:A *475:90 1.5769e-05
55 *2353:B1 *475:94 2.04774e-05
56 *31:8 *475:27 9.67842e-05
57 *31:8 *475:31 0.000137651
58 *32:12 *475:43 0.000162126
59 *32:12 *475:67 1.83667e-05
60 *182:22 *475:94 0
61 *192:80 *475:94 0.000171941
62 *294:12 *2051:B 5.33597e-05
63 *294:12 *475:23 2.71291e-05
64 *294:12 *475:84 0.000973195
65 *294:14 *475:23 6.7911e-05
66 *294:20 *2034:S 0.000139346
67 *339:10 *475:94 0.000141879
68 *352:10 *475:94 5.62433e-05
69 *423:10 *475:94 0
70 *457:10 *475:84 5.97612e-05
71 *457:16 *475:23 6.21707e-06
72 *457:16 *475:84 4.42688e-05
73 *458:8 *475:23 3.47781e-05
74 *458:8 *475:84 0.000138727
75 *464:23 *2033:S 0
76 *470:10 *2051:B 1.01436e-05
77 *471:135 *2051:B 2.60152e-05
78 *471:135 *475:84 7.06402e-05
79 *472:10 *475:90 5.3304e-05
*RES
1 *2025:Y *475:10 32.8393 
2 *475:10 *2042:A2 26.5007 
3 *475:10 *475:23 17.61 
4 *475:23 *475:27 16.0979 
5 *475:27 *475:31 6.83571 
6 *475:31 *475:35 1.11857 
7 *475:35 *475:43 22.2707 
8 *475:43 *2033:S 41.3143 
9 *475:43 *2034:S 39.5743 
10 *475:35 *475:67 32.61 
11 *475:67 *2041:A2 23 
12 *475:31 *2043:A2 23 
13 *475:27 *2027:S 23 
14 *475:23 *475:84 13.5264 
15 *475:84 *475:90 33.9564 
16 *475:90 *475:94 46.1336 
17 *475:94 *2307:A2 27.9093 
18 *475:84 *2051:B 40.9 
*END

*D_NET *476 0.00122299
*CONN
*I *2027:A1 I *D sky130_fd_sc_hd__mux2_1
*I *2026:Y O *D sky130_fd_sc_hd__xnor2_1
*CAP
1 *2027:A1 0
2 *2026:Y 0.000324469
3 *476:10 0.000324469
4 *476:10 *1996:B 0
5 *476:10 *516:84 0.000138727
6 *476:10 *518:102 0
7 *476:10 *547:42 5.67058e-05
8 *2011:B *476:10 4.58924e-05
9 *294:14 *476:10 0.000128583
10 *294:20 *476:10 0.000188916
11 *460:10 *476:10 1.52259e-05
*RES
1 *2026:Y *476:10 45.4571 
2 *476:10 *2027:A1 38 
*END

*D_NET *477 0.00434147
*CONN
*I *2028:B I *D sky130_fd_sc_hd__nor2_1
*I *2029:B I *D sky130_fd_sc_hd__xnor2_2
*I *2071:B1 I *D sky130_fd_sc_hd__a21oi_1
*I *2027:X O *D sky130_fd_sc_hd__mux2_1
*CAP
1 *2028:B 0
2 *2029:B 5.95874e-06
3 *2071:B1 0
4 *2027:X 4.96283e-05
5 *477:31 2.86463e-05
6 *477:24 0.000536415
7 *477:14 0.00104496
8 *477:8 0.00053549
9 *2029:B *478:6 0.00010018
10 *477:8 *517:62 5.56203e-05
11 *477:8 *518:119 0.000114083
12 *477:14 *478:6 1.76557e-05
13 *477:14 *542:54 0.000135799
14 *477:24 *2053:C1 0.000103193
15 *477:24 *2060:A2 0.00010018
16 *477:24 *478:6 1.56762e-05
17 *477:24 *484:31 0.000191148
18 *477:24 *516:52 7.83058e-05
19 *477:31 *542:54 5.12055e-06
20 *2041:B1 *477:14 0.00044107
21 *2053:B1 *477:24 0.000139346
22 *2060:A1 *477:24 0.000143655
23 *46:10 *477:24 0
24 *62:8 *477:24 0
25 *241:29 *477:24 0.000404996
26 *283:20 *477:24 4.77461e-05
27 *471:22 *477:24 4.6595e-05
*RES
1 *2027:X *477:8 39.5536 
2 *477:8 *477:14 25.1707 
3 *477:14 *477:24 44.2514 
4 *477:24 *2071:B1 23 
5 *477:14 *477:31 0.497143 
6 *477:31 *2029:B 24.0979 
7 *477:31 *2028:B 23 
*END

*D_NET *478 0.00293672
*CONN
*I *2054:C1 I *D sky130_fd_sc_hd__a311o_1
*I *2053:C1 I *D sky130_fd_sc_hd__a311oi_2
*I *2028:Y O *D sky130_fd_sc_hd__nor2_1
*CAP
1 *2054:C1 0
2 *2053:C1 0.000472688
3 *2028:Y 9.01528e-05
4 *478:29 0.000185032
5 *478:6 0.000747873
6 *2053:C1 *2053:A1 2.93747e-05
7 *2053:C1 *479:6 0.000112087
8 *2053:C1 *479:38 5.12254e-05
9 *478:29 *547:36 0
10 *478:29 *547:42 0
11 *2029:A *478:29 2.26406e-05
12 *2029:B *478:6 0.00010018
13 *2053:B1 *2053:C1 0.000132453
14 *2054:B1 *478:29 9.74235e-05
15 *44:8 *478:29 2.84016e-05
16 *283:20 *2053:C1 0.000730668
17 *477:14 *478:6 1.76557e-05
18 *477:24 *2053:C1 0.000103193
19 *477:24 *478:6 1.56762e-05
*RES
1 *2028:Y *478:6 25.0507 
2 *478:6 *2053:C1 34.9314 
3 *478:6 *478:29 33.6664 
4 *478:29 *2054:C1 23 
*END

*D_NET *479 0.00221413
*CONN
*I *2054:A1 I *D sky130_fd_sc_hd__a311o_1
*I *2070:A I *D sky130_fd_sc_hd__xnor2_1
*I *2053:A1 I *D sky130_fd_sc_hd__a311oi_2
*I *2029:Y O *D sky130_fd_sc_hd__xnor2_2
*CAP
1 *2054:A1 0
2 *2070:A 0
3 *2053:A1 2.8874e-05
4 *2029:Y 0
5 *479:38 0.000243674
6 *479:21 0.000155313
7 *479:6 0.000277142
8 *479:4 0.00033663
9 *479:21 *2053:A2 3.70187e-05
10 *479:21 *2081:A2 1.01436e-05
11 *479:38 *2049:A2 5.3304e-05
12 *479:38 *2054:A2 2.4754e-05
13 *479:38 *484:10 3.47781e-05
14 *479:38 *484:31 0.000150977
15 *2053:B1 *2053:A1 9.58444e-05
16 *2053:B1 *479:6 0.000207853
17 *2053:B1 *479:38 8.43466e-05
18 *2053:C1 *2053:A1 2.93747e-05
19 *2053:C1 *479:6 0.000112087
20 *2053:C1 *479:38 5.12254e-05
21 *2054:A3 *479:38 9.75779e-05
22 *35:8 *479:38 1.40958e-05
23 *39:10 *479:21 4.55577e-05
24 *41:16 *479:38 8.61037e-06
25 *42:10 *479:21 5.05552e-05
26 *45:8 *479:21 0
27 *46:10 *479:38 6.4393e-05
*RES
1 *2029:Y *479:4 23 
2 *479:4 *479:6 2.52714 
3 *479:6 *2053:A1 24.1186 
4 *479:6 *479:21 32.9621 
5 *479:21 *2070:A 23 
6 *479:4 *479:38 36.2557 
7 *479:38 *2054:A1 23 
*END

*D_NET *480 0.00107846
*CONN
*I *2032:B I *D sky130_fd_sc_hd__xor2_1
*I *2031:B I *D sky130_fd_sc_hd__xnor2_1
*I *2030:Y O *D sky130_fd_sc_hd__xnor2_1
*CAP
1 *2032:B 3.69891e-05
2 *2031:B 0
3 *2030:Y 7.3041e-05
4 *480:8 0.00011003
5 *2030:B *2032:B 0.000317553
6 *2030:B *480:8 0.000179824
7 *2031:A *2032:B 0.000304321
8 *2031:A *480:8 5.67058e-05
*RES
1 *2030:Y *480:8 25.5479 
2 *480:8 *2031:B 23 
3 *480:8 *2032:B 26.48 
*END

*D_NET *481 0.000487177
*CONN
*I *2033:A1 I *D sky130_fd_sc_hd__mux2_1
*I *2031:Y O *D sky130_fd_sc_hd__xnor2_1
*CAP
1 *2033:A1 9.45629e-05
2 *2031:Y 8.63323e-05
3 *481:8 0.000180895
4 *481:8 *482:8 7.03766e-05
5 *481:8 *516:52 0
6 *2033:A0 *2033:A1 5.50106e-05
*RES
1 *2031:Y *481:8 39.9057 
2 *481:8 *2033:A1 39.5743 
*END

*D_NET *482 0.000764703
*CONN
*I *2034:A1 I *D sky130_fd_sc_hd__mux2_1
*I *2032:X O *D sky130_fd_sc_hd__xor2_1
*CAP
1 *2034:A1 6.94194e-05
2 *2032:X 0.000193459
3 *482:8 0.000262878
4 *482:8 *547:42 5.561e-05
5 *2033:S *482:8 1.44813e-05
6 *2034:A0 *2034:A1 9.84794e-05
7 *464:23 *482:8 0
8 *481:8 *482:8 7.03766e-05
*RES
1 *2032:X *482:8 42.0186 
2 *482:8 *2034:A1 39.0979 
*END

*D_NET *483 0.00241118
*CONN
*I *2079:B I *D sky130_fd_sc_hd__xnor2_1
*I *2035:B I *D sky130_fd_sc_hd__nand2_1
*I *2033:X O *D sky130_fd_sc_hd__mux2_1
*CAP
1 *2079:B 0.00011522
2 *2035:B 0
3 *2033:X 0.000753228
4 *483:12 0.00011522
5 *483:10 0.000753228
6 *2079:B *543:26 0.000272383
7 *483:10 *516:52 0
8 *2079:A *2079:B 0.00031495
9 *294:20 *2079:B 8.6949e-05
*RES
1 *2033:X *483:10 48.15 
2 *483:10 *483:12 15 
3 *483:12 *2035:B 23 
4 *483:12 *2079:B 27.93 
*END

*D_NET *484 0.00425889
*CONN
*I *2081:B1 I *D sky130_fd_sc_hd__a21o_1
*I *2049:A2 I *D sky130_fd_sc_hd__a221o_1
*I *2034:X O *D sky130_fd_sc_hd__mux2_1
*CAP
1 *2081:B1 0
2 *2049:A2 0.000214193
3 *2034:X 0.000489439
4 *484:31 0.00044839
5 *484:10 0.00115202
6 *2049:A2 *2054:A2 1.83771e-05
7 *484:10 *485:10 0
8 *484:10 *516:52 0.000121147
9 *484:31 *2081:A2 0.00010018
10 *484:31 *516:52 4.84148e-05
11 *484:31 *550:116 1.94693e-05
12 *2049:B2 *2049:A2 0
13 *2054:A3 *2049:A2 4.95081e-05
14 *2070:B *484:31 5.41288e-05
15 *35:8 *2049:A2 5.16667e-05
16 *39:10 *484:31 0.000438474
17 *41:16 *2049:A2 2.93845e-05
18 *41:16 *484:10 0
19 *42:10 *2049:A2 5.50049e-05
20 *45:14 *484:31 6.17437e-06
21 *46:10 *2049:A2 9.84794e-05
22 *46:10 *484:31 5.05552e-05
23 *46:28 *484:31 3.06608e-05
24 *49:16 *484:31 3.80629e-05
25 *294:20 *484:10 0.00031495
26 *477:24 *484:31 0.000191148
27 *479:38 *2049:A2 5.3304e-05
28 *479:38 *484:10 3.47781e-05
29 *479:38 *484:31 0.000150977
*RES
1 *2034:X *484:10 46.9071 
2 *484:10 *2049:A2 42.9248 
3 *484:10 *484:31 27.035 
4 *484:31 *2081:B1 23 
*END

*D_NET *485 0.002415
*CONN
*I *2050:A I *D sky130_fd_sc_hd__nand2_1
*I *2054:A2 I *D sky130_fd_sc_hd__a311o_1
*I *2053:A2 I *D sky130_fd_sc_hd__a311oi_2
*I *2035:Y O *D sky130_fd_sc_hd__nand2_1
*CAP
1 *2050:A 0
2 *2054:A2 9.24948e-05
3 *2053:A2 0.000220513
4 *2035:Y 0.000377929
5 *485:23 9.24948e-05
6 *485:10 0.000598442
7 *2053:A2 *543:26 0
8 *2049:A2 *2054:A2 1.83771e-05
9 *2049:B1 *2054:A2 0
10 *2053:A3 *2053:A2 0.000154147
11 *2054:A3 *2054:A2 0.000171296
12 *34:36 *2053:A2 0
13 *34:36 *485:10 0
14 *35:8 *2054:A2 0.000313255
15 *39:10 *2053:A2 0
16 *41:16 *2053:A2 0.000102471
17 *41:16 *2054:A2 5.67058e-05
18 *41:16 *485:10 1.14452e-05
19 *294:20 *485:10 0.000143655
20 *294:35 *485:10 0
21 *479:21 *2053:A2 3.70187e-05
22 *479:38 *2054:A2 2.4754e-05
23 *484:10 *485:10 0
*RES
1 *2035:Y *485:10 44.2971 
2 *485:10 *2053:A2 42.4121 
3 *485:10 *485:23 15 
4 *485:23 *2054:A2 26.9771 
5 *485:23 *2050:A 23 
*END

*D_NET *486 0.00434765
*CONN
*I *2291:A1 I *D sky130_fd_sc_hd__a21oi_2
*I *2037:B I *D sky130_fd_sc_hd__and2_1
*I *2038:B I *D sky130_fd_sc_hd__nand2_1
*I *2036:Y O *D sky130_fd_sc_hd__nand2_1
*CAP
1 *2291:A1 0
2 *2037:B 0
3 *2038:B 3.80201e-05
4 *2036:Y 0.000129647
5 *486:44 0.00076214
6 *486:22 0.00030196
7 *486:12 0.00102608
8 *486:10 0.000129647
9 *2038:B *518:85 0.000139346
10 *486:10 *2416:A 1.32939e-05
11 *486:10 *492:58 3.83778e-05
12 *486:10 *518:56 2.93845e-05
13 *486:10 *518:64 8.62876e-05
14 *486:22 *2467:A 0
15 *486:22 *518:64 5.41288e-05
16 *486:22 *518:85 0.000227581
17 *486:44 *2405:A 9.13962e-05
18 *486:44 *2405:B 0.000269781
19 *486:44 *2467:A 0.00028466
20 *486:44 *520:48 0
21 *486:44 *548:40 0.000133864
22 *486:44 *550:10 0.000228001
23 *486:44 *551:21 0
24 *2038:A *2038:B 0.000139346
25 *2038:A *486:22 8.60475e-05
26 *255:10 *486:44 0
27 *416:10 *486:44 2.08324e-05
28 *417:8 *486:44 6.11183e-05
29 *445:6 *486:22 5.67058e-05
*RES
1 *2036:Y *486:10 40.2993 
2 *486:10 *486:12 15 
3 *486:12 *486:22 6.54571 
4 *486:22 *2038:B 24.5743 
5 *486:22 *2037:B 23 
6 *486:12 *486:44 46.1779 
7 *486:44 *2291:A1 23 
*END

*D_NET *487 0.0017556
*CONN
*I *2039:C1 I *D sky130_fd_sc_hd__a211o_1
*I *2037:X O *D sky130_fd_sc_hd__and2_1
*CAP
1 *2039:C1 0.000442411
2 *2037:X 7.87035e-05
3 *487:8 0.000521115
4 *487:8 *554:50 0.000141879
5 *2039:B1 *2039:C1 0.000571494
6 *474:16 *487:8 0
*RES
1 *2037:X *487:8 39.9057 
2 *487:8 *2039:C1 47.6736 
*END

*D_NET *488 0.00174939
*CONN
*I *2040:C1 I *D sky130_fd_sc_hd__a211o_1
*I *2038:Y O *D sky130_fd_sc_hd__nand2_1
*CAP
1 *2040:C1 0
2 *2038:Y 0.000685681
3 *488:10 0.000685681
4 *488:10 *518:85 0.000130263
5 *2038:A *488:10 3.22879e-05
6 *439:22 *488:10 5.26101e-05
7 *469:12 *488:10 5.51058e-05
8 *474:16 *488:10 0.00010776
*RES
1 *2038:Y *488:10 48.9786 
2 *488:10 *2040:C1 38 
*END

*D_NET *489 0.00550287
*CONN
*I *2214:A_N I *D sky130_fd_sc_hd__and4bb_2
*I *2197:A I *D sky130_fd_sc_hd__nand2_1
*I *2207:D I *D sky130_fd_sc_hd__and4bb_2
*I *2196:A_N I *D sky130_fd_sc_hd__and4b_2
*I *2199:A I *D sky130_fd_sc_hd__or4b_4
*I *1977:A I *D sky130_fd_sc_hd__nor2_1
*I *2205:D I *D sky130_fd_sc_hd__and4b_2
*I *2471:X O *D sky130_fd_sc_hd__dlymetal6s2s_1
*CAP
1 *2214:A_N 0
2 *2197:A 0
3 *2207:D 0
4 *2196:A_N 0
5 *2199:A 0
6 *1977:A 0.000155963
7 *2205:D 8.47355e-05
8 *2471:X 0
9 *489:76 0.000229272
10 *489:28 0.000240699
11 *489:26 0.000114978
12 *489:24 0.000371369
13 *489:18 0.000472646
14 *489:10 0.000588425
15 *489:4 0.000601443
16 *1977:A *2494:A 5.41385e-05
17 *1977:A *491:6 5.41385e-05
18 *1977:A *500:43 0
19 *1977:A *502:10 0.000106527
20 *1977:A *530:55 1.83667e-05
21 *2205:D *502:10 9.63815e-05
22 *2205:D *530:55 7.55491e-05
23 *2205:D *530:61 2.08324e-05
24 *489:10 *2197:B 5.90675e-06
25 *489:10 *500:28 8.1796e-05
26 *489:10 *500:32 4.95081e-05
27 *489:10 *511:10 3.17634e-05
28 *489:18 *2448:A 3.47781e-05
29 *489:18 *491:10 0
30 *489:18 *500:10 0
31 *489:18 *500:32 9.84851e-05
32 *489:18 *522:8 0.000138727
33 *489:24 *2196:B 0.000130423
34 *489:24 *2207:B_N 0.000137613
35 *489:24 *2214:B_N 5.3304e-05
36 *489:24 *530:51 0.000228903
37 *489:26 *2196:B 5.67058e-05
38 *489:26 *500:56 5.50106e-05
39 *489:26 *511:46 7.41341e-05
40 *489:26 *511:54 7.6351e-05
41 *489:26 *530:51 0.000223698
42 *489:76 *511:10 0.000185428
43 *489:76 *525:129 6.07611e-06
44 *2196:C *489:24 2.4754e-05
45 *2485:A *489:18 4.21594e-06
46 *188:10 *489:24 0.000213313
47 *189:10 *489:10 8.06804e-06
48 *209:10 *489:76 0
49 *211:8 *489:24 0.000253395
50 *211:8 *489:26 4.5051e-05
51 *315:8 *1977:A 0
*RES
1 *2471:X *489:4 23 
2 *489:4 *489:10 7.20857 
3 *489:10 *489:18 34.4121 
4 *489:18 *489:24 9.83929 
5 *489:24 *489:26 3.48 
6 *489:26 *489:28 15 
7 *489:28 *2205:D 40.61 
8 *489:28 *1977:A 42.06 
9 *489:26 *2199:A 23 
10 *489:24 *2196:A_N 23 
11 *489:18 *2207:D 23 
12 *489:10 *2197:A 23 
13 *489:4 *489:76 34.6607 
14 *489:76 *2214:A_N 23 
*END

*D_NET *490 0.0180069
*CONN
*I *2392:B2 I *D sky130_fd_sc_hd__a32o_1
*I *2349:A1 I *D sky130_fd_sc_hd__a32o_1
*I *2348:A1 I *D sky130_fd_sc_hd__o22a_1
*I *2347:A1 I *D sky130_fd_sc_hd__a21oi_1
*I *2470:A I *D sky130_fd_sc_hd__buf_2
*I *2472:X O *D sky130_fd_sc_hd__clkbuf_2
*CAP
1 *2392:B2 3.85544e-05
2 *2349:A1 0.000541436
3 *2348:A1 0
4 *2347:A1 0
5 *2470:A 0.000377883
6 *2472:X 0.000398952
7 *490:55 0.00116646
8 *490:42 0.000742376
9 *490:29 0.00213406
10 *490:27 0.00251478
11 *490:12 0.00246777
12 *490:8 0.00195221
13 *2349:A1 *2454:A 5.3304e-05
14 *2349:A1 *519:114 5.84835e-05
15 *2349:A1 *520:98 7.17297e-05
16 *2349:A1 *554:82 0
17 *2349:A1 *554:92 0.00026388
18 *2392:B2 *552:44 7.1459e-05
19 *2470:A *554:10 3.06338e-05
20 *490:12 *2437:A 5.50106e-05
21 *490:12 *518:10 2.38288e-05
22 *490:27 *520:21 0
23 *490:27 *520:138 0
24 *490:27 *523:8 1.55328e-05
25 *490:27 *524:173 2.72055e-05
26 *490:27 *545:44 0
27 *490:29 *2366:D 0
28 *490:29 *497:69 0
29 *490:29 *519:52 0
30 *490:29 *520:138 0
31 *490:29 *523:8 4.01707e-05
32 *490:29 *524:173 0
33 *490:29 *525:31 0.000223645
34 *490:29 *526:25 5.68423e-05
35 *490:29 *526:52 0.000514477
36 *490:29 *537:78 0
37 *490:29 *537:88 2.24608e-05
38 *490:29 *555:18 0.000135557
39 *490:29 *555:43 0.00060099
40 *490:42 *526:52 0.000176041
41 *490:42 *537:66 0.000134088
42 *490:55 *526:52 0.000133453
43 *490:55 *537:66 3.55303e-05
44 *490:55 *554:92 0.000530445
45 *490:55 *555:43 2.55744e-05
46 *2320:C *490:12 2.32004e-05
47 *2349:A3 *2349:A1 9.48923e-06
48 *2350:A2 *490:55 4.74498e-05
49 *2377:B *490:12 0.000183733
50 *2431:A3 *2392:B2 7.1459e-05
51 *2475:A *490:8 8.02307e-05
52 *2489:A *490:8 6.37358e-05
53 *199:72 *2349:A1 6.17437e-06
54 *254:10 *490:29 2.60152e-05
55 *284:10 *490:29 0.000558542
56 *287:10 *490:29 8.26672e-05
57 *302:18 *2349:A1 0.00038007
58 *302:18 *490:55 0.000562816
59 *313:14 *490:12 1.21972e-05
60 *317:36 *490:12 8.06804e-06
61 *346:10 *490:29 6.38845e-05
62 *346:10 *490:42 3.54432e-05
63 *378:10 *490:12 5.67058e-05
64 *424:10 *2470:A 0.00010018
*RES
1 *2472:X *490:8 46.5964 
2 *490:8 *490:12 41.3486 
3 *490:12 *2470:A 29.8357 
4 *490:12 *490:27 25.0982 
5 *490:27 *490:29 41.6461 
6 *490:29 *2347:A1 38 
7 *490:29 *490:42 3.85286 
8 *490:42 *2348:A1 38 
9 *490:42 *490:55 12.1986 
10 *490:55 *2349:A1 49.5738 
11 *490:55 *2392:B2 47.0254 
*END

*D_NET *491 0.00665487
*CONN
*I *2468:A I *D sky130_fd_sc_hd__buf_2
*I *2469:A I *D sky130_fd_sc_hd__clkbuf_2
*I *2473:X O *D sky130_fd_sc_hd__buf_1
*CAP
1 *2468:A 0.00013383
2 *2469:A 0.000165166
3 *2473:X 0.000702555
4 *491:10 0.00108902
5 *491:6 0.00149258
6 *2468:A *526:62 0.000529601
7 *2468:A *529:63 0.000199904
8 *2469:A *492:16 0
9 *2469:A *538:74 5.50106e-05
10 *491:6 *1977:B 2.32004e-05
11 *491:6 *2494:A 3.06213e-05
12 *491:6 *492:8 0.000185428
13 *491:6 *500:32 0.000748901
14 *491:6 *507:12 2.93845e-05
15 *491:10 *2448:A 5.83025e-05
16 *491:10 *492:16 0
17 *491:10 *511:34 0
18 *491:10 *522:8 4.06408e-05
19 *491:10 *523:85 0
20 *491:10 *551:54 8.4824e-05
21 *491:10 *551:76 0.000150977
22 *1977:A *491:6 5.41385e-05
23 *14:11 *491:6 1.76557e-05
24 *188:10 *491:10 0.000570166
25 *188:24 *2469:A 7.06124e-05
26 *188:24 *491:10 0.000101769
27 *190:57 *2469:A 5.67058e-05
28 *393:8 *2469:A 6.38845e-05
29 *489:18 *491:10 0
*RES
1 *2473:X *491:6 38.3907 
2 *491:6 *491:10 31.3436 
3 *491:10 *2469:A 41.9357 
4 *491:10 *2468:A 43.8621 
*END

*D_NET *492 0.018521
*CONN
*I *2429:A1 I *D sky130_fd_sc_hd__a21oi_1
*I *2393:A1 I *D sky130_fd_sc_hd__a211o_1
*I *2430:A1 I *D sky130_fd_sc_hd__o22a_1
*I *2431:A1 I *D sky130_fd_sc_hd__a32o_1
*I *2397:A I *D sky130_fd_sc_hd__xnor2_1
*I *1972:A I *D sky130_fd_sc_hd__inv_2
*I *2416:B I *D sky130_fd_sc_hd__nand2_1
*I *1982:B1 I *D sky130_fd_sc_hd__o41ai_4
*I *2192:C I *D sky130_fd_sc_hd__or4_1
*I *2474:X O *D sky130_fd_sc_hd__clkbuf_4
*CAP
1 *2429:A1 0
2 *2393:A1 0
3 *2430:A1 1.51656e-05
4 *2431:A1 0
5 *2397:A 0
6 *1972:A 0.000103462
7 *2416:B 0
8 *1982:B1 0.000423858
9 *2192:C 0.000143872
10 *2474:X 0.000123237
11 *492:113 0.000321826
12 *492:94 0.000462382
13 *492:85 0.00012539
14 *492:58 0.000873015
15 *492:45 0.00156074
16 *492:39 0.00056767
17 *492:37 0.000468922
18 *492:31 0.000582803
19 *492:29 0.000466594
20 *492:16 0.00143207
21 *492:8 0.00125906
22 *1972:A *1980:A 0
23 *1972:A *1980:B 0
24 *1972:A *540:49 6.15314e-05
25 *1972:A *545:34 0.00017761
26 *1982:B1 *517:124 0.000390673
27 *1982:B1 *550:94 7.43025e-06
28 *2192:C *2192:A 7.06218e-05
29 *2192:C *538:74 0.000117633
30 *2192:C *552:14 0.000227112
31 *2192:C *552:44 0.000142173
32 *2430:A1 *532:18 0
33 *492:16 *2200:B 6.7177e-06
34 *492:16 *2390:A2 2.76611e-06
35 *492:16 *500:43 0
36 *492:16 *511:77 0.000238194
37 *492:16 *530:25 3.98859e-05
38 *492:16 *530:38 2.22183e-05
39 *492:16 *530:51 1.86869e-05
40 *492:16 *538:74 0.000183443
41 *492:16 *552:44 1.41129e-05
42 *492:29 *552:8 7.75736e-06
43 *492:31 *2429:A2 0.000242733
44 *492:31 *526:78 0
45 *492:31 *532:12 0.000135547
46 *492:31 *553:26 2.01839e-05
47 *492:37 *515:8 2.60152e-05
48 *492:37 *532:12 1.14452e-05
49 *492:37 *532:22 0.00041014
50 *492:37 *532:26 3.92407e-05
51 *492:37 *552:50 2.65002e-05
52 *492:39 *532:26 0.000584771
53 *492:45 *517:124 0.000175903
54 *492:45 *532:26 0.000323559
55 *492:58 *518:64 3.21926e-05
56 *492:58 *548:118 0.000286524
57 *492:58 *550:10 0.000195238
58 *492:58 *550:77 0.00137976
59 *492:58 *550:86 0.000317481
60 *492:58 *551:21 0.000734379
61 *492:94 *2430:A2 2.94414e-05
62 *492:94 *532:18 4.37033e-05
63 *492:113 *2430:A2 4.38068e-06
64 *492:113 *535:62 3.21549e-05
65 *2209:B1 *492:16 6.33511e-05
66 *2431:A3 *492:29 1.15883e-05
67 *2431:A3 *492:31 1.14987e-05
68 *2469:A *492:16 0
69 *188:10 *492:16 0
70 *190:69 *492:16 0.000139357
71 *190:69 *492:29 0.000125561
72 *197:72 *492:16 0.000229608
73 *326:90 *492:37 0.000346913
74 *326:90 *492:94 4.00259e-06
75 *350:16 *492:113 2.64616e-05
76 *369:6 *1982:B1 1.94812e-05
77 *393:8 *492:16 0
78 *395:10 *492:113 9.28078e-06
79 *435:10 *492:113 0.000132345
80 *436:10 *492:113 9.41704e-05
81 *437:10 *492:31 6.14647e-05
82 *437:10 *492:94 0.00017761
83 *440:12 *492:37 0.000240695
84 *440:12 *492:39 0.000571214
85 *440:12 *492:45 0.00032263
86 *486:10 *492:58 3.83778e-05
87 *491:6 *492:8 0.000185428
88 *491:10 *492:16 0
*RES
1 *2474:X *492:8 40.0507 
2 *492:8 *492:16 36.7086 
3 *492:16 *2192:C 27.4536 
4 *492:16 *492:29 17.2579 
5 *492:29 *492:31 5.77929 
6 *492:31 *492:37 9.715 
7 *492:37 *492:39 7.89214 
8 *492:39 *492:45 21.4214 
9 *492:45 *1982:B1 29.235 
10 *492:45 *492:58 42.6121 
11 *492:58 *2416:B 38 
12 *492:39 *1972:A 40.5582 
13 *492:37 *2397:A 38 
14 *492:31 *492:85 15 
15 *492:85 *2431:A1 23 
16 *492:85 *492:94 3.02429 
17 *492:94 *2430:A1 23.4971 
18 *492:94 *492:113 35.075 
19 *492:113 *2393:A1 23 
20 *492:29 *2429:A1 38 
*END

*D_NET *493 0.0171408
*CONN
*I *2467:A I *D sky130_fd_sc_hd__buf_2
*I *2372:A1 I *D sky130_fd_sc_hd__a22oi_1
*I *2238:A I *D sky130_fd_sc_hd__and3_1
*I *2236:A1 I *D sky130_fd_sc_hd__a21o_1
*I *2475:X O *D sky130_fd_sc_hd__clkbuf_2
*CAP
1 *2467:A 0.000403925
2 *2372:A1 0.0002359
3 *2238:A 0.000319908
4 *2236:A1 0
5 *2475:X 2.115e-05
6 *493:48 0.000639825
7 *493:46 0.00267369
8 *493:26 0.000319908
9 *493:24 0.00385129
10 *493:8 0.00654613
11 *2238:A *2238:B 2.38288e-05
12 *2372:A1 *2371:B 3.39192e-05
13 *2372:A1 *518:50 0
14 *2372:A1 *548:40 0.000326973
15 *2372:A1 *548:42 6.32666e-05
16 *2372:A1 *548:68 1.59094e-05
17 *2372:A1 *554:10 0.00018742
18 *2372:A1 *554:20 9.75779e-05
19 *2467:A *2466:A 0.000172726
20 *2467:A *548:40 0.000238464
21 *2467:A *550:10 5.70419e-05
22 *493:24 *555:72 2.47015e-05
23 *493:46 *518:56 8.10857e-05
24 *2260:A *2238:A 8.1796e-05
25 *2420:A *2467:A 2.64616e-05
26 *2422:A1 *493:46 3.22879e-05
27 *2422:A2 *493:46 9.75779e-05
28 *2422:B1 *493:46 0.000139357
29 *2475:A *493:24 2.10772e-06
30 *2487:A *493:46 1.02561e-05
31 *202:55 *2238:A 1.95448e-05
32 *418:10 *2372:A1 1.14762e-05
33 *424:10 *2372:A1 0
34 *424:10 *2467:A 0
35 *431:10 *493:24 0.00010068
36 *486:22 *2467:A 0
37 *486:44 *2467:A 0.00028466
*RES
1 *2475:X *493:8 38.3211 
2 *493:8 *493:24 45.0592 
3 *493:24 *493:26 15 
4 *493:26 *2236:A1 23 
5 *493:26 *2238:A 28.4064 
6 *493:8 *493:46 49.9968 
7 *493:46 *493:48 15 
8 *493:48 *2372:A1 44.525 
9 *493:48 *2467:A 48.6471 
*END

*D_NET *494 0.00443084
*CONN
*I *2465:A I *D sky130_fd_sc_hd__clkbuf_4
*I *2476:X O *D sky130_fd_sc_hd__clkbuf_1
*CAP
1 *2465:A 0
2 *2476:X 0.000211365
3 *494:12 0.00132417
4 *494:8 0.00153553
5 *494:12 *519:27 0.000352421
6 *494:12 *519:41 0.00026779
7 *494:12 *529:14 0.000484865
8 *2382:A1 *494:12 5.50106e-05
9 *2404:B *494:8 6.26356e-05
10 *384:10 *494:12 8.14372e-05
11 *385:21 *494:8 5.56203e-05
12 *407:8 *494:8 0
*RES
1 *2476:X *494:8 42.3707 
2 *494:8 *494:12 41.3486 
3 *494:12 *2465:A 23 
*END

*D_NET *495 0.00562469
*CONN
*I *2462:A I *D sky130_fd_sc_hd__clkbuf_2
*I *2477:X O *D sky130_fd_sc_hd__clkbuf_1
*CAP
1 *2462:A 0
2 *2477:X 0.00137436
3 *495:18 0.000457378
4 *495:10 0.00183174
5 *495:18 *512:18 0.000477951
6 *495:18 *543:12 0.00010858
7 *2102:B *495:10 0.000387136
8 *2129:A1 *495:10 5.50106e-05
9 *100:10 *495:18 0.000302339
10 *100:23 *495:18 1.14452e-05
11 *110:6 *495:18 0.000243247
12 *116:10 *495:18 0.000122407
13 *121:10 *495:10 2.54193e-05
14 *121:10 *495:18 4.3153e-05
15 *471:87 *495:18 0.000184527
*RES
1 *2477:X *495:10 44.75 
2 *495:10 *495:18 44.21 
3 *495:18 *2462:A 23 
*END

*D_NET *496 0.00572536
*CONN
*I *2459:A I *D sky130_fd_sc_hd__clkbuf_4
*I *2478:X O *D sky130_fd_sc_hd__clkbuf_1
*CAP
1 *2459:A 0
2 *2478:X 0.00186514
3 *496:12 0.000458514
4 *496:6 0.00232366
5 *496:12 *512:18 0
6 *496:12 *531:12 7.70598e-05
7 *496:12 *531:18 8.73252e-05
8 *496:12 *543:12 0
9 *496:12 *546:8 9.53602e-05
10 *2103:A0 *496:6 5.41288e-05
11 *2103:A1 *496:6 1.41077e-05
12 *2103:S *496:6 3.3577e-05
13 *2491:A *496:6 1.5769e-05
14 *75:12 *496:6 0.000260621
15 *92:14 *496:6 6.59263e-05
16 *92:36 *496:6 0.000159408
17 *100:64 *496:12 8.4047e-05
18 *471:91 *496:12 0.000130716
*RES
1 *2478:X *496:6 48.3957 
2 *496:6 *496:12 40.7093 
3 *496:12 *2459:A 23 
*END

*D_NET *497 0.0299877
*CONN
*I *2456:A I *D sky130_fd_sc_hd__buf_2
*I *2455:A I *D sky130_fd_sc_hd__buf_2
*I *2365:B1 I *D sky130_fd_sc_hd__a22oi_1
*I *2366:D I *D sky130_fd_sc_hd__and4_1
*I *2408:B1 I *D sky130_fd_sc_hd__a22o_1
*I *2479:X O *D sky130_fd_sc_hd__clkbuf_2
*CAP
1 *2456:A 0.000285539
2 *2455:A 4.54372e-05
3 *2365:B1 0
4 *2366:D 0.000395879
5 *2408:B1 0.000141134
6 *2479:X 0.000257185
7 *497:88 0.000431498
8 *497:69 0.00174061
9 *497:48 0.00192345
10 *497:46 0.00224674
11 *497:34 0.00169669
12 *497:22 0.00303504
13 *497:20 0.0033126
14 *497:14 0.00112593
15 *497:12 0.000546423
16 *2366:D *2366:A 1.41129e-05
17 *2366:D *2366:B 0.000166987
18 *2366:D *2366:C 5.3304e-05
19 *2366:D *523:31 9.84851e-05
20 *2366:D *523:65 7.59868e-05
21 *2366:D *524:173 0.00014504
22 *2366:D *555:18 1.86973e-05
23 *2366:D *555:43 4.57602e-05
24 *2408:B1 *2408:A1 3.84098e-05
25 *2408:B1 *517:100 0
26 *2408:B1 *520:48 4.86179e-05
27 *2408:B1 *520:50 5.3304e-05
28 *2408:B1 *550:77 4.51431e-05
29 *2455:A *501:19 9.84851e-05
30 *2455:A *526:78 6.55539e-05
31 *2456:A *498:14 3.82956e-05
32 *2456:A *534:146 0
33 *497:12 *498:14 3.7122e-06
34 *497:12 *536:6 0.000352426
35 *497:12 *536:12 0.000141954
36 *497:12 *536:64 0.000136743
37 *497:14 *498:14 0.000115299
38 *497:14 *534:146 0
39 *497:20 *501:6 0.00027636
40 *497:22 *501:6 0.000142751
41 *497:22 *501:19 0.00051598
42 *497:22 *526:78 0.000269775
43 *497:22 *526:80 6.22712e-05
44 *497:34 *501:19 0.000181125
45 *497:46 *2354:A 0
46 *497:46 *534:76 0.000104003
47 *497:46 *537:32 0.000136486
48 *497:46 *538:14 5.94125e-05
49 *497:46 *542:35 0.000527078
50 *497:46 *542:65 0.000483328
51 *497:46 *550:104 0
52 *497:48 *516:91 0.000485838
53 *497:48 *516:108 0.00057631
54 *497:48 *520:68 0.000754484
55 *497:69 *523:65 6.3698e-05
56 *497:69 *540:93 0.000978888
57 *497:88 *519:27 0
58 *497:88 *520:138 3.70094e-05
59 *497:88 *526:12 2.64616e-05
60 *497:88 *526:25 1.03836e-05
61 *497:88 *540:93 0.000478641
62 *497:88 *540:112 0.000139657
63 *2136:B1 *497:12 0.000476726
64 *2144:A *497:22 1.59094e-05
65 *2150:B *2456:A 0.000246767
66 *2150:B *497:14 0.000326983
67 *2151:A0 *2456:A 0
68 *38:14 *497:48 0.000225124
69 *38:14 *497:69 5.13952e-05
70 *67:63 *497:12 0
71 *112:14 *497:14 0.000161045
72 *113:20 *497:12 1.5037e-05
73 *113:20 *497:14 2.31116e-05
74 *122:8 *497:20 5.3304e-05
75 *124:10 *497:12 5.35396e-06
76 *124:10 *497:14 9.03415e-07
77 *127:8 *497:12 3.47781e-05
78 *128:12 *497:12 5.61255e-06
79 *131:8 *497:12 0
80 *170:8 *497:22 0.000649723
81 *182:22 *497:46 0.00079571
82 *191:60 *497:34 0.000154118
83 *191:60 *497:46 3.93526e-05
84 *191:62 *497:46 0.000225701
85 *191:68 *497:46 2.70366e-05
86 *191:74 *497:46 2.95125e-05
87 *192:80 *497:34 1.62015e-05
88 *192:80 *497:46 0.000130695
89 *219:23 *497:34 0
90 *219:36 *497:34 0
91 *275:8 *497:46 0.000158547
92 *283:99 *497:20 9.41704e-05
93 *283:99 *497:22 4.27527e-05
94 *294:70 *497:46 0.000204405
95 *367:10 *497:88 0.000200932
96 *472:10 *497:46 0.000326374
97 *475:94 *497:46 0
98 *490:29 *2366:D 0
99 *490:29 *497:69 0
*RES
1 *2479:X *497:12 46.4618 
2 *497:12 *497:14 7.71607 
3 *497:14 *497:20 25.1707 
4 *497:20 *497:22 39.6886 
5 *497:22 *497:34 49.8057 
6 *497:34 *497:46 46.6011 
7 *497:46 *497:48 3.57653 
8 *497:48 *2408:B1 48.7446 
9 *497:48 *497:69 11.6574 
10 *497:69 *2366:D 45.2707 
11 *497:69 *497:88 39.3007 
12 *497:88 *2365:B1 38 
13 *497:34 *2455:A 39.595 
14 *497:14 *2456:A 44.1314 
*END

*D_NET *498 0.0156548
*CONN
*I *2454:A I *D sky130_fd_sc_hd__buf_2
*I *2453:A I *D sky130_fd_sc_hd__clkbuf_4
*I *2480:X O *D sky130_fd_sc_hd__buf_1
*CAP
1 *2454:A 0.00110324
2 *2453:A 0
3 *2480:X 0.00058076
4 *498:27 0.00467594
5 *498:14 0.000416285
6 *498:6 0.00456975
7 *2454:A *516:6 4.04598e-06
8 *2454:A *519:116 0.000174494
9 *2454:A *519:124 7.33691e-05
10 *2454:A *537:8 0.000308039
11 *2454:A *552:26 1.99109e-05
12 *498:6 *2127:A 2.64616e-05
13 *498:14 *536:64 1.32939e-05
14 *498:27 *2155:S 4.96717e-05
15 *498:27 *516:6 7.96152e-06
16 *498:27 *542:146 6.93267e-05
17 *2127:B *498:6 3.46673e-05
18 *2131:B *498:27 4.24205e-05
19 *2150:B *498:14 0.000561374
20 *2151:A0 *498:14 0
21 *2154:A *498:27 5.8632e-05
22 *2154:B *498:27 4.34559e-05
23 *2155:A0 *498:27 4.22003e-05
24 *2157:B *498:27 5.29672e-05
25 *2172:A_N *498:27 3.93271e-05
26 *2176:A *498:27 4.00259e-06
27 *2181:C1 *498:27 5.43493e-05
28 *2187:D1 *498:27 2.13733e-05
29 *2349:A1 *2454:A 5.3304e-05
30 *2349:A3 *2454:A 0.000318387
31 *2435:A *498:27 3.59635e-05
32 *2456:A *498:14 3.82956e-05
33 *67:63 *498:14 0
34 *119:8 *498:6 7.88828e-05
35 *119:21 *498:6 5.12254e-05
36 *119:21 *498:14 0.000215529
37 *119:21 *498:27 6.9805e-05
38 *123:10 *498:27 5.3304e-05
39 *124:10 *498:14 0.000110922
40 *128:12 *498:14 5.3304e-05
41 *142:10 *498:27 0.000124906
42 *147:8 *498:27 0.000261215
43 *149:10 *498:27 3.70071e-06
44 *168:6 *498:27 0.000394092
45 *173:10 *498:27 3.02378e-05
46 *197:26 *2454:A 7.42621e-05
47 *199:62 *2454:A 0.000158601
48 *199:72 *2454:A 6.94112e-06
49 *219:36 *498:27 4.08664e-05
50 *219:50 *498:27 5.50049e-05
51 *273:22 *498:27 2.18409e-05
52 *301:10 *2454:A 0.000139352
53 *349:10 *2454:A 9.84851e-05
54 *497:12 *498:14 3.7122e-06
55 *497:14 *498:14 0.000115299
*RES
1 *2480:X *498:6 30.7679 
2 *498:6 *498:14 42.3871 
3 *498:14 *2453:A 23 
4 *498:6 *498:27 49.8593 
5 *498:27 *2454:A 47.3548 
*END

*D_NET *499 0.0138215
*CONN
*I *2452:A I *D sky130_fd_sc_hd__clkbuf_2
*I *2451:A I *D sky130_fd_sc_hd__buf_4
*I *2481:X O *D sky130_fd_sc_hd__buf_1
*CAP
1 *2452:A 0
2 *2451:A 7.37848e-05
3 *2481:X 0.000511812
4 *499:31 0.000412593
5 *499:23 0.00396607
6 *499:21 0.00355348
7 *499:10 0.000585597
8 *2451:A *534:146 5.08899e-05
9 *2451:A *539:18 0.000196549
10 *499:10 *534:146 0.000203098
11 *499:10 *539:12 0.00018979
12 *499:10 *539:18 0.000482311
13 *499:31 *2398:A1 9.5877e-05
14 *499:31 *542:69 0.000297354
15 *499:31 *549:89 1.76557e-05
16 *2142:B1_N *499:23 9.41704e-05
17 *2170:A1 *499:23 2.64616e-05
18 *2171:A *499:23 0.000259902
19 *2180:A_N *499:23 1.72202e-05
20 *2344:B *499:31 2.24608e-05
21 *2345:A *499:23 4.57742e-05
22 *2345:B *499:31 0.000115299
23 *50:24 *499:31 0
24 *67:63 *499:23 0.000950532
25 *113:28 *2451:A 3.70094e-05
26 *123:20 *499:23 0.000138607
27 *155:12 *499:23 5.46669e-05
28 *162:8 *499:23 0.000271476
29 *283:99 *499:23 0.000327756
30 *283:106 *499:23 3.34247e-05
31 *283:131 *499:23 0.000129511
32 *340:8 *499:31 0.000141879
33 *341:10 *499:31 2.60256e-05
34 *342:10 *499:31 3.05976e-05
35 *344:10 *499:23 5.3304e-05
36 *344:10 *499:31 0.000191148
37 *353:10 *499:31 0.000217361
*RES
1 *2481:X *499:10 49.7243 
2 *499:10 *2451:A 40.61 
3 *499:10 *499:21 15 
4 *499:21 *499:23 60.175 
5 *499:23 *499:31 41.8071 
6 *499:31 *2452:A 23 
*END

*D_NET *500 0.00464722
*CONN
*I *2197:B I *D sky130_fd_sc_hd__nand2_1
*I *2196:B I *D sky130_fd_sc_hd__and4b_2
*I *2199:D_N I *D sky130_fd_sc_hd__or4b_4
*I *2205:A_N I *D sky130_fd_sc_hd__and4b_2
*I *1977:B I *D sky130_fd_sc_hd__nor2_1
*I *2207:A_N I *D sky130_fd_sc_hd__and4bb_2
*I *2214:D I *D sky130_fd_sc_hd__and4bb_2
*I *2482:X O *D sky130_fd_sc_hd__buf_1
*CAP
1 *2197:B 1.96641e-05
2 *2196:B 2.65336e-05
3 *2199:D_N 0
4 *2205:A_N 5.88176e-05
5 *1977:B 1.56543e-05
6 *2207:A_N 0
7 *2214:D 6.57869e-05
8 *2482:X 0
9 *500:56 5.79999e-05
10 *500:43 0.000303331
11 *500:32 0.000607649
12 *500:28 0.000448407
13 *500:10 0.000204166
14 *500:4 0.000188174
15 *2205:A_N *530:38 0
16 *2214:D *2214:B_N 8.13415e-05
17 *500:10 *511:10 0
18 *500:32 *2494:A 0.000141246
19 *1977:A *500:43 0
20 *2196:C *2196:B 0.000140611
21 *2196:C *2205:A_N 0.000104869
22 *2196:C *500:56 6.17437e-06
23 *14:11 *1977:B 5.50049e-05
24 *14:11 *500:32 7.27182e-05
25 *189:10 *500:10 0.000163352
26 *189:10 *500:28 7.1349e-05
27 *189:10 *500:32 3.22879e-05
28 *199:18 *2214:D 0.000184527
29 *211:8 *2214:D 1.32939e-05
30 *230:32 *2205:A_N 1.14452e-05
31 *315:8 *2205:A_N 0.000171906
32 *315:8 *500:43 0.000150977
33 *489:10 *2197:B 5.90675e-06
34 *489:10 *500:28 8.1796e-05
35 *489:10 *500:32 4.95081e-05
36 *489:18 *500:10 0
37 *489:18 *500:32 9.84851e-05
38 *489:24 *2196:B 0.000130423
39 *489:26 *2196:B 5.67058e-05
40 *489:26 *500:56 5.50106e-05
41 *491:6 *1977:B 2.32004e-05
42 *491:6 *500:32 0.000748901
43 *492:16 *500:43 0
*RES
1 *2482:X *500:4 23 
2 *500:4 *500:10 32.61 
3 *500:10 *2214:D 25.5479 
4 *500:10 *2207:A_N 23 
5 *500:4 *500:28 2.07143 
6 *500:28 *500:32 12.5529 
7 *500:32 *1977:B 23.6214 
8 *500:32 *500:43 18.3143 
9 *500:43 *2205:A_N 40.2579 
10 *500:43 *500:56 15.6214 
11 *500:56 *2199:D_N 23 
12 *500:56 *2196:B 25.0507 
13 *500:28 *2197:B 23.4971 
*END

*D_NET *501 0.0130898
*CONN
*I *2450:A I *D sky130_fd_sc_hd__clkbuf_2
*I *2449:A I *D sky130_fd_sc_hd__clkbuf_4
*I *2483:X O *D sky130_fd_sc_hd__clkbuf_1
*CAP
1 *2450:A 4.32077e-05
2 *2449:A 0
3 *2483:X 0.00143837
4 *501:19 0.00241118
5 *501:12 0.000283017
6 *501:6 0.00408936
7 *501:6 *2144:B 9.67842e-05
8 *501:12 *531:125 0
9 *501:19 *2175:S 5.50049e-05
10 *501:19 *2178:C1 0.000223698
11 *501:19 *516:30 0.000137651
12 *501:19 *516:38 2.02872e-05
13 *501:19 *526:78 0.000766027
14 *501:19 *526:80 0.000126065
15 *501:19 *526:84 7.88926e-05
16 *501:19 *538:14 4.67488e-05
17 *2130:B *501:6 5.3304e-05
18 *2144:A *501:6 5.3304e-05
19 *2352:B *501:19 0.000606243
20 *2455:A *501:19 9.84851e-05
21 *167:12 *501:19 0.000139357
22 *167:23 *501:19 0.000127821
23 *170:8 *501:19 4.37965e-05
24 *171:10 *501:19 0.000353214
25 *276:10 *501:19 0.000141052
26 *283:99 *501:6 6.37432e-05
27 *471:91 *501:12 0.000476946
28 *497:20 *501:6 0.00027636
29 *497:22 *501:6 0.000142751
30 *497:22 *501:19 0.00051598
31 *497:34 *501:19 0.000181125
*RES
1 *2483:X *501:6 47.4429 
2 *501:6 *501:12 36.4836 
3 *501:12 *2449:A 23 
4 *501:6 *501:19 53.505 
5 *501:19 *2450:A 23.8493 
*END

*D_NET *502 0.00314303
*CONN
*I *2494:A I *D sky130_fd_sc_hd__buf_2
*I *2210:X O *D sky130_fd_sc_hd__or3_1
*CAP
1 *2494:A 0.000588008
2 *2210:X 0.000500049
3 *502:10 0.00108806
4 *502:10 *507:12 0
5 *502:10 *511:54 9.28842e-05
6 *502:10 *530:61 0
7 *502:10 *546:74 3.98859e-05
8 op_out[5] *502:10 1.14452e-05
9 *1977:A *2494:A 5.41385e-05
10 *1977:A *502:10 0.000106527
11 *2205:D *502:10 9.63815e-05
12 *2473:A *502:10 0
13 *14:11 *2494:A 0.000228909
14 *14:11 *502:10 0
15 *197:10 *502:10 2.29192e-05
16 *197:18 *502:10 0.00014196
17 *491:6 *2494:A 3.06213e-05
18 *500:32 *2494:A 0.000141246
*RES
1 *2210:X *502:10 48.1707 
2 *502:10 *2494:A 47.57 
*END

*D_NET *503 0.000487249
*CONN
*I *2495:A I *D sky130_fd_sc_hd__buf_2
*I *2228:X O *D sky130_fd_sc_hd__or2_1
*CAP
1 *2495:A 3.09722e-05
2 *2228:X 0.000175779
3 *503:8 0.000206751
4 *503:8 *504:8 0
5 *503:8 *506:16 0
6 op_out[1] *2495:A 2.93747e-05
7 *2257:B *503:8 4.43717e-05
*RES
1 *2228:X *503:8 41.3143 
2 *503:8 *2495:A 38.6214 
*END

*D_NET *504 0.000388594
*CONN
*I *2496:A I *D sky130_fd_sc_hd__buf_2
*I *2251:X O *D sky130_fd_sc_hd__a21o_1
*CAP
1 *2496:A 6.80678e-05
2 *2251:X 0.000126229
3 *504:8 0.000194297
4 *2257:B *504:8 0
5 *503:8 *504:8 0
*RES
1 *2251:X *504:8 40.2579 
2 *504:8 *2496:A 39.0979 
*END

*D_NET *505 0.000392501
*CONN
*I *2497:A I *D sky130_fd_sc_hd__buf_2
*I *2280:Y O *D sky130_fd_sc_hd__nand2b_1
*CAP
1 *2497:A 2.95011e-05
2 *2280:Y 0.000116298
3 *505:8 0.000145799
4 *2497:A *506:16 5.50106e-05
5 *505:8 *506:16 4.58924e-05
*RES
1 *2280:Y *505:8 40.2579 
2 *505:8 *2497:A 38.6214 
*END

*D_NET *506 0.00346112
*CONN
*I *2498:A I *D sky130_fd_sc_hd__buf_2
*I *2308:Y O *D sky130_fd_sc_hd__o31ai_1
*CAP
1 *2498:A 0
2 *2308:Y 1.60348e-05
3 *506:16 0.00116372
4 *506:8 0.00117975
5 *506:16 *2252:A2 0.000159946
6 *506:16 *542:69 0
7 *506:16 *542:79 0.000133656
8 op_out[3] *506:16 2.30292e-05
9 *2257:A *506:16 0
10 *2284:C *506:8 9.84851e-05
11 *2497:A *506:16 5.50106e-05
12 *192:30 *506:16 1.37349e-05
13 *192:70 *506:16 7.81176e-05
14 *242:18 *506:8 0.00010018
15 *244:8 *506:16 6.33614e-05
16 *245:12 *506:16 0.000138727
17 *247:14 *506:16 0
18 *249:8 *506:16 4.73689e-05
19 *252:8 *506:16 0.00014411
20 *274:8 *506:16 0
21 *503:8 *506:16 0
22 *505:8 *506:16 4.58924e-05
*RES
1 *2308:Y *506:8 39.0979 
2 *506:8 *506:16 37.5786 
3 *506:16 *2498:A 23 
*END

*D_NET *507 0.00448082
*CONN
*I *2499:A I *D sky130_fd_sc_hd__buf_2
*I *2352:X O *D sky130_fd_sc_hd__or3_1
*CAP
1 *2499:A 0
2 *2352:X 0
3 *507:12 0.00109409
4 *507:6 0.00109409
5 *507:12 *511:54 9.53602e-05
6 *507:12 *519:114 2.05503e-05
7 *507:12 *521:58 0.000330389
8 *507:12 *538:51 0
9 *507:12 *541:8 0.000189983
10 *507:12 *546:38 0.000398822
11 *507:12 *546:74 0.00109361
12 *2473:A *507:12 0
13 *191:10 *507:12 3.98859e-05
14 *192:22 *507:12 5.72729e-05
15 *349:10 *507:12 3.73877e-05
16 *351:10 *507:12 0
17 *491:6 *507:12 2.93845e-05
18 *502:10 *507:12 0
*RES
1 *2352:X *507:6 38 
2 *507:6 *507:12 42.1771 
3 *507:12 *2499:A 23 
*END

*D_NET *508 0.00113672
*CONN
*I *2500:A I *D sky130_fd_sc_hd__buf_2
*I *2395:X O *D sky130_fd_sc_hd__a31o_1
*CAP
1 *2500:A 0
2 *2395:X 0.000313443
3 *508:10 0.000313443
4 *508:10 *545:120 4.84045e-05
5 *2387:A *508:10 6.16439e-05
6 *2427:A *508:10 3.34247e-05
7 *2428:B *508:10 9.41704e-05
8 *29:12 *508:10 3.28979e-05
9 *329:23 *508:10 0.000141879
10 *432:8 *508:10 9.74132e-05
*RES
1 *2395:X *508:10 44.7736 
2 *508:10 *2500:A 38 
*END

*D_NET *509 0.00136738
*CONN
*I *2501:A I *D sky130_fd_sc_hd__buf_2
*I *2433:X O *D sky130_fd_sc_hd__a311o_1
*CAP
1 *2501:A 0.000139624
2 *2433:X 0.000238424
3 *509:10 0.000378048
4 *509:10 *2395:A1 0
5 *2387:B *509:10 2.93747e-05
6 *2389:B *2501:A 5.50106e-05
7 *2389:B *509:10 0.000315268
8 *334:37 *509:10 0
9 *390:10 *509:10 6.93553e-05
10 *392:10 *509:10 0.000135557
11 *431:10 *509:10 6.7177e-06
*RES
1 *2433:X *509:10 43.3443 
2 *509:10 *2501:A 40.5271 
*END

*D_NET *510 0.0172842
*CONN
*I *2151:S I *D sky130_fd_sc_hd__mux2_1
*I *2155:S I *D sky130_fd_sc_hd__mux2_1
*I *2144:C I *D sky130_fd_sc_hd__or3_1
*I *2163:A2 I *D sky130_fd_sc_hd__o211a_1
*I *2169:A1 I *D sky130_fd_sc_hd__a211o_1
*I *2227:A2 I *D sky130_fd_sc_hd__a22o_1
*I *2175:S I *D sky130_fd_sc_hd__mux2_1
*I *2164:A2 I *D sky130_fd_sc_hd__o211a_1
*I *2143:A1 I *D sky130_fd_sc_hd__a31o_1
*I *2139:B I *D sky130_fd_sc_hd__nor2_1
*I *2434:X O *D sky130_fd_sc_hd__clkbuf_4
*CAP
1 *2151:S 0.000361267
2 *2155:S 4.12707e-05
3 *2144:C 0
4 *2163:A2 0
5 *2169:A1 1.74641e-05
6 *2227:A2 0
7 *2175:S 1.50079e-05
8 *2164:A2 0.000285022
9 *2143:A1 0
10 *2139:B 0.000200245
11 *2434:X 0
12 *510:120 0.000479499
13 *510:111 0.000247828
14 *510:92 0.000508772
15 *510:75 0.00137764
16 *510:67 0.00100387
17 *510:57 0.000132544
18 *510:44 0.00187206
19 *510:32 0.00201671
20 *510:10 0.000439558
21 *510:4 0.00049812
22 *2139:B *534:29 4.96717e-05
23 *2151:S *539:140 0.000520162
24 *2151:S *542:146 7.37503e-05
25 *2164:A2 *543:75 0
26 *2164:A2 *549:106 0
27 *2175:S *526:80 5.50049e-05
28 *510:44 *549:106 0
29 *510:75 *512:63 0.00025595
30 *510:92 *2178:C1 6.7177e-06
31 *510:92 *512:63 0.000112404
32 *510:92 *516:16 0.000138718
33 *510:92 *529:77 1.17152e-05
34 *510:111 *512:18 0
35 *510:111 *542:146 0.000317718
36 *510:120 *542:146 0.000206558
37 *2132:D *510:10 9.28372e-05
38 *2132:D *510:32 1.56446e-05
39 *2137:A3 *510:44 9.81333e-06
40 *2149:A1 *510:32 2.23611e-05
41 *2149:B1 *510:32 6.17437e-06
42 *2151:A0 *2151:S 0.000101764
43 *2154:A *2155:S 5.3304e-05
44 *2155:A0 *2155:S 2.32101e-05
45 *2163:A1 *510:67 0.000216844
46 *2164:A1 *2164:A2 1.01436e-05
47 *2168:B *510:67 8.25497e-05
48 *2168:B *510:75 2.44795e-05
49 *2226:A1 *510:92 6.17437e-06
50 *2227:B1 *510:92 1.83564e-05
51 *2250:A1 *510:92 3.95159e-06
52 *67:48 *2139:B 0.000197479
53 *67:63 *2139:B 0.000247434
54 *67:63 *510:10 0.000228386
55 *97:53 *510:75 2.13733e-05
56 *110:40 *510:44 7.12426e-05
57 *111:8 *2151:S 3.47781e-05
58 *111:8 *510:111 0.000347536
59 *111:8 *510:120 0.000218952
60 *112:27 *510:10 0.000175903
61 *117:47 *510:10 0.000110913
62 *123:30 *510:32 0.000309209
63 *132:16 *2139:B 3.95669e-05
64 *132:16 *510:10 5.78739e-05
65 *133:10 *2139:B 0.000357
66 *136:8 *2151:S 0
67 *141:8 *510:10 0.000348833
68 *141:8 *510:32 0.00018536
69 *143:14 *2151:S 0.000409172
70 *153:10 *2164:A2 7.91493e-05
71 *154:10 *2164:A2 0.000138718
72 *156:8 *2164:A2 7.03214e-05
73 *156:8 *510:44 7.10745e-06
74 *158:27 *510:67 0.000313827
75 *178:25 *510:92 0.000506676
76 *178:33 *510:92 4.5051e-05
77 *215:27 *510:92 1.14452e-05
78 *242:18 *510:92 0
79 *243:12 *510:92 0.000171838
80 *273:8 *510:75 0.000253463
81 *273:8 *510:92 8.68903e-05
82 *283:131 *2169:A1 1.37232e-05
83 *283:131 *510:75 0.000102482
84 *326:26 *510:92 3.16784e-05
85 *326:49 *510:92 5.3304e-05
86 *498:27 *2155:S 4.96717e-05
87 *501:19 *2175:S 5.50049e-05
*RES
1 *2434:X *510:4 23 
2 *510:4 *510:10 22.2707 
3 *510:10 *2139:B 44.8771 
4 *510:10 *2143:A1 38 
5 *510:4 *510:32 20.3857 
6 *510:32 *510:44 20.3356 
7 *510:44 *2164:A2 44.4007 
8 *510:44 *510:57 15 
9 *510:57 *510:67 4.72804 
10 *510:67 *510:75 30.1007 
11 *510:75 *2175:S 38.6214 
12 *510:75 *510:92 28.2571 
13 *510:92 *2227:A2 23 
14 *510:67 *2169:A1 23.4971 
15 *510:57 *2163:A2 23 
16 *510:32 *510:111 5.25107 
17 *510:111 *2144:C 38 
18 *510:111 *510:120 2.96214 
19 *510:120 *2155:S 39.0979 
20 *510:120 *2151:S 48.8957 
*END

*D_NET *511 0.00854747
*CONN
*I *2214:C I *D sky130_fd_sc_hd__and4bb_2
*I *2204:A I *D sky130_fd_sc_hd__nor3_1
*I *2198:B I *D sky130_fd_sc_hd__or3b_4
*I *2207:C I *D sky130_fd_sc_hd__and4bb_2
*I *1978:C I *D sky130_fd_sc_hd__and3b_2
*I *2200:A I *D sky130_fd_sc_hd__or4b_4
*I *2199:B I *D sky130_fd_sc_hd__or4b_4
*I *1969:A I *D sky130_fd_sc_hd__inv_2
*I *2484:X O *D sky130_fd_sc_hd__clkbuf_2
*CAP
1 *2214:C 0
2 *2204:A 5.63064e-05
3 *2198:B 4.41066e-05
4 *2207:C 0.00018374
5 *1978:C 0
6 *2200:A 0
7 *2199:B 0
8 *1969:A 0
9 *2484:X 0.000375287
10 *511:77 0.000203792
11 *511:54 0.000213641
12 *511:46 0.000463652
13 *511:36 0.00028922
14 *511:34 0.000748171
15 *511:20 0.000716692
16 *511:16 0.000184451
17 *511:14 0.000327267
18 *511:10 0.000533685
19 *2198:B *2218:A1 5.50106e-05
20 *2198:B *530:102 1.14154e-05
21 *2204:A *2218:A1 7.27182e-05
22 *2207:C *2214:B_N 3.71251e-05
23 *511:10 *525:129 0
24 *511:14 *525:129 0
25 *511:16 *2218:A1 1.40094e-05
26 *511:20 *530:102 3.68147e-05
27 *511:34 *523:85 1.83667e-05
28 *511:34 *530:6 0.0001396
29 *511:34 *530:14 0.000267525
30 *511:34 *530:102 7.1349e-05
31 *511:36 *530:14 9.67842e-05
32 *511:46 *530:55 0.000139647
33 *511:46 *530:61 8.94487e-05
34 *511:46 *551:125 0.000221997
35 *511:77 *1978:A_N 0.000100782
36 *511:77 *2200:B 2.3529e-05
37 *2198:A *2198:B 1.37232e-05
38 *2198:A *511:16 2.23325e-05
39 *2203:A *511:36 2.32004e-05
40 *2203:A *511:46 7.27182e-05
41 *2204:C *2204:A 4.17736e-05
42 *2204:C *511:16 0.000182832
43 *2228:A *511:54 0.000139357
44 *5:11 *511:10 2.30292e-05
45 *189:10 *511:10 0
46 *189:10 *511:14 0
47 *189:14 *511:34 0
48 *189:36 *511:16 0.000141954
49 *189:36 *511:20 9.84851e-05
50 *190:10 *511:34 0
51 *190:107 *511:34 0
52 *191:10 *511:54 2.93845e-05
53 *195:14 *511:34 0.000210962
54 *195:14 *511:36 0.00012612
55 *195:14 *511:46 9.84851e-05
56 *196:10 *2204:A 0.00014196
57 *197:72 *511:77 2.96154e-05
58 *200:8 *511:77 5.50106e-05
59 *205:12 *511:14 0.000110379
60 *211:8 *511:54 1.03836e-05
61 *230:19 *511:46 0.000139352
62 *315:8 *511:46 0.000219882
63 *315:36 *511:77 8.62876e-05
64 *489:10 *511:10 3.17634e-05
65 *489:26 *511:46 7.41341e-05
66 *489:26 *511:54 7.6351e-05
67 *489:76 *511:10 0.000185428
68 *491:10 *511:34 0
69 *492:16 *511:77 0.000238194
70 *500:10 *511:10 0
71 *502:10 *511:54 9.28842e-05
72 *507:12 *511:54 9.53602e-05
*RES
1 *2484:X *511:10 45.0429 
2 *511:10 *511:14 17.2579 
3 *511:14 *511:16 3.48 
4 *511:16 *511:20 16.0979 
5 *511:20 *511:34 25.1293 
6 *511:34 *511:36 1.57429 
7 *511:36 *511:46 37.7782 
8 *511:46 *511:54 35.3754 
9 *511:54 *1969:A 23 
10 *511:46 *2199:B 23 
11 *511:36 *2200:A 23 
12 *511:34 *511:77 34.4588 
13 *511:77 *1978:C 23 
14 *511:20 *2207:C 40.6514 
15 *511:16 *2198:B 24.4707 
16 *511:14 *2204:A 25.0507 
17 *511:10 *2214:C 38 
*END

*D_NET *512 0.0141755
*CONN
*I *2105:S I *D sky130_fd_sc_hd__mux2_1
*I *2250:A2 I *D sky130_fd_sc_hd__a211o_1
*I *2111:S I *D sky130_fd_sc_hd__mux2_2
*I *2129:S I *D sky130_fd_sc_hd__mux2_2
*I *2144:B I *D sky130_fd_sc_hd__or3_1
*I *2491:X O *D sky130_fd_sc_hd__buf_6
*CAP
1 *2105:S 0
2 *2250:A2 0.000145633
3 *2111:S 0.000100738
4 *2129:S 0
5 *2144:B 7.68064e-05
6 *2491:X 2.34823e-05
7 *512:63 0.00105178
8 *512:48 0.00116235
9 *512:42 0.00110987
10 *512:33 7.70466e-05
11 *512:18 0.00106389
12 *512:8 0.00125412
13 *512:6 0.00116787
14 *2111:S *2109:B 1.5769e-05
15 *2111:S *524:57 1.59094e-05
16 *2111:S *549:89 0.000178517
17 *2250:A2 *516:16 0.000135037
18 *512:18 *542:146 0
19 *512:18 *543:12 0.000268221
20 *512:33 *543:12 5.19151e-05
21 *512:42 *531:73 0.00112885
22 *512:48 *517:10 0.000194318
23 *512:48 *517:19 0.000215782
24 *512:63 *2115:B 9.17394e-05
25 *512:63 *2173:A 0
26 *512:63 *517:21 0
27 *512:63 *526:108 0
28 *512:63 *549:89 0.000126914
29 *2104:B *512:48 0.000168754
30 *2105:A0 *512:42 2.32101e-05
31 *2105:A1 *512:42 0.000178517
32 *2110:A *512:48 0.000232132
33 *2110:A *512:63 2.96154e-05
34 *2110:B *2111:S 5.3304e-05
35 *2110:B *512:63 0.000137651
36 *2111:A1 *2111:S 7.43025e-06
37 *2119:A *512:18 6.48142e-05
38 *2144:A *512:18 0.000119931
39 *2165:A *512:42 3.17516e-05
40 *2250:A1 *2250:A2 3.46255e-05
41 *2491:A *512:6 0
42 *2491:A *512:8 0.000182832
43 *2491:A *512:18 0.000181125
44 *75:12 *512:33 5.61311e-05
45 *83:10 *512:33 6.07611e-06
46 *97:10 *512:42 1.14762e-05
47 *100:23 *512:18 0.000254101
48 *100:34 *512:18 0.000136486
49 *100:64 *512:8 7.88828e-05
50 *100:64 *512:42 9.47227e-05
51 *111:8 *512:18 6.17028e-05
52 *126:29 *512:18 0.000451781
53 *130:31 *512:18 6.69637e-06
54 *136:8 *512:18 1.01436e-05
55 *166:10 *512:63 0.00069085
56 *167:23 *512:63 3.46344e-05
57 *178:25 *512:63 0.000111852
58 *219:23 *512:63 0
59 *240:8 *2250:A2 9.72057e-06
60 *273:22 *512:63 0.000114957
61 *471:91 *512:18 0
62 *495:18 *512:18 0.000477951
63 *496:12 *512:18 0
64 *501:6 *2144:B 9.67842e-05
65 *510:75 *512:63 0.00025595
66 *510:92 *512:63 0.000112404
67 *510:111 *512:18 0
*RES
1 *2491:X *512:6 23.4971 
2 *512:6 *512:8 3.95643 
3 *512:8 *512:18 39.0907 
4 *512:18 *2144:B 39.0979 
5 *512:8 *512:33 32.2579 
6 *512:33 *2129:S 23 
7 *512:6 *512:42 22.0814 
8 *512:42 *512:48 35.4271 
9 *512:48 *2111:S 25.5479 
10 *512:48 *512:63 36.4393 
11 *512:63 *2250:A2 40.5479 
12 *512:42 *2105:S 23 
*END

*D_NET *513 0.00263031
*CONN
*I *2060:A2 I *D sky130_fd_sc_hd__a21o_1
*I *2071:A2 I *D sky130_fd_sc_hd__a21oi_1
*I *2089:A2 I *D sky130_fd_sc_hd__a21o_1
*I *2081:A2 I *D sky130_fd_sc_hd__a21o_1
*I *2492:X O *D sky130_fd_sc_hd__buf_1
*CAP
1 *2060:A2 6.06879e-05
2 *2071:A2 0
3 *2089:A2 0
4 *2081:A2 0.000133321
5 *2492:X 9.54779e-05
6 *513:36 0.000152183
7 *513:16 0.00023667
8 *513:12 0.000338773
9 *513:8 0.000239406
10 *513:12 *543:20 6.17437e-06
11 *2060:A1 *2060:A2 4.21378e-05
12 *42:10 *2081:A2 0
13 *45:8 *2081:A2 0
14 *45:36 *2060:A2 2.4754e-05
15 *45:36 *513:8 6.48142e-05
16 *45:36 *513:12 0.000125488
17 *45:36 *513:16 0
18 *45:36 *513:36 6.99589e-05
19 *46:10 *2081:A2 0
20 *46:28 *2081:A2 0.000275668
21 *46:28 *513:16 2.55642e-05
22 *46:46 *513:8 0
23 *46:46 *513:16 0.000167452
24 *49:16 *2081:A2 9.57314e-05
25 *49:16 *513:16 1.37246e-05
26 *62:8 *2081:A2 0
27 *64:10 *513:8 0
28 *64:22 *513:12 1.21972e-05
29 *283:10 *513:8 5.50955e-05
30 *471:22 *2060:A2 0.000184527
31 *477:24 *2060:A2 0.00010018
32 *479:21 *2081:A2 1.01436e-05
33 *484:31 *2081:A2 0.00010018
*RES
1 *2492:X *513:8 40.2579 
2 *513:8 *513:12 18.0036 
3 *513:12 *513:16 17.61 
4 *513:16 *2081:A2 42.4121 
5 *513:16 *2089:A2 38 
6 *513:12 *513:36 1.57429 
7 *513:36 *2071:A2 23 
8 *513:36 *2060:A2 25.5271 
*END

*D_NET *514 0.00973338
*CONN
*I *2206:A I *D sky130_fd_sc_hd__or2_1
*I *2306:A1 I *D sky130_fd_sc_hd__a311o_1
*I *2433:A1 I *D sky130_fd_sc_hd__a311o_1
*I *2395:A1 I *D sky130_fd_sc_hd__a31o_1
*I *2337:B1 I *D sky130_fd_sc_hd__o21a_1
*I *2249:B2 I *D sky130_fd_sc_hd__a221o_1
*I *2493:X O *D sky130_fd_sc_hd__clkbuf_2
*CAP
1 *2206:A 0
2 *2306:A1 0
3 *2433:A1 0
4 *2395:A1 0.000131526
5 *2337:B1 8.26493e-05
6 *2249:B2 0
7 *2493:X 0.000296281
8 *514:58 0.0013699
9 *514:35 0.0014113
10 *514:33 0.000568029
11 *514:22 9.75153e-05
12 *514:12 0.00103307
13 *514:8 0.000754087
14 *514:8 *2208:B2 2.31209e-05
15 *514:8 *525:129 0.000338208
16 *514:8 *551:92 9.91005e-05
17 *514:12 *521:12 0
18 *514:12 *521:30 0
19 *514:12 *551:92 1.58805e-05
20 *514:22 *529:63 0.000184527
21 *514:33 *519:93 0.000111243
22 *514:33 *525:112 0
23 *514:33 *529:63 0.000466103
24 *514:33 *544:29 0.000227345
25 *514:35 *544:29 7.60389e-05
26 *514:58 *538:103 0
27 *514:58 *544:29 0.000165581
28 *2213:B1 *514:8 1.83564e-05
29 *2213:B1 *514:12 0.000187198
30 *2249:B1 *514:22 6.04024e-05
31 *2249:B1 *514:33 9.68666e-05
32 *2249:C1 *514:22 6.61858e-05
33 *2331:B *514:58 0.00014196
34 *2333:A *514:58 1.56665e-05
35 *2395:B1 *2395:A1 0.000163352
36 *2427:A *2395:A1 0.00010018
37 *2428:B *2395:A1 5.41385e-05
38 *188:101 *514:12 0.000122407
39 *190:20 *514:12 6.71018e-05
40 *190:20 *514:22 5.94125e-05
41 *199:52 *514:33 0
42 *205:12 *514:8 0
43 *205:12 *514:12 0
44 *205:12 *514:22 6.07611e-06
45 *205:18 *514:22 0
46 *296:10 *514:33 0.000167535
47 *296:10 *514:35 1.14452e-05
48 *299:10 *2337:B1 2.92953e-05
49 *299:10 *514:35 2.88615e-05
50 *299:10 *514:58 2.60152e-05
51 *300:10 *514:33 4.48305e-05
52 *333:10 *2337:B1 6.17437e-06
53 *333:10 *514:35 0.000108293
54 *334:14 *514:58 4.08664e-05
55 *334:22 *514:58 0.000221992
56 *334:37 *2395:A1 0.000270453
57 *334:37 *514:58 9.94675e-05
58 *390:10 *2395:A1 1.02387e-05
59 *390:10 *514:58 3.21223e-05
60 *433:10 *2395:A1 2.49836e-05
61 *509:10 *2395:A1 0
*RES
1 *2493:X *514:8 43.7793 
2 *514:8 *514:12 23.5964 
3 *514:12 *514:22 33.0502 
4 *514:22 *2249:B2 23 
5 *514:12 *514:33 28.63 
6 *514:33 *514:35 2.43393 
7 *514:35 *2337:B1 39.5639 
8 *514:35 *514:58 48.7568 
9 *514:58 *2395:A1 42.7643 
10 *514:58 *2433:A1 38 
11 *514:33 *2306:A1 38 
12 *514:8 *2206:A 38 
*END

*D_NET *515 0.00153348
*CONN
*I *2431:B1 I *D sky130_fd_sc_hd__a32o_1
*I *2503:X O *D sky130_fd_sc_hd__clkbuf_1
*CAP
1 *2431:B1 1.86332e-05
2 *2503:X 0.000193389
3 *515:8 0.000212022
4 *515:8 *553:26 0.000589161
5 *326:90 *2431:B1 1.6318e-05
6 *326:90 *515:8 0.000379413
7 *437:10 *2431:B1 1.69978e-05
8 *440:12 *515:8 8.15327e-05
9 *492:37 *515:8 2.60152e-05
*RES
1 *2503:X *515:8 45.8921 
2 *515:8 *2431:B1 38.3832 
*END

*D_NET *516 0.0233419
*CONN
*I *2178:A2 I *D sky130_fd_sc_hd__o211a_1
*I *2177:A I *D sky130_fd_sc_hd__nor2_1
*I *2179:A1 I *D sky130_fd_sc_hd__a21o_1
*I *2113:A I *D sky130_fd_sc_hd__and2_1
*I *1993:B I *D sky130_fd_sc_hd__nand3_1
*I *1994:B1 I *D sky130_fd_sc_hd__a21o_1
*I *1992:B I *D sky130_fd_sc_hd__and3_1
*I *2042:C1 I *D sky130_fd_sc_hd__o211a_1
*I *2063:A I *D sky130_fd_sc_hd__and2_1
*I *2030:A I *D sky130_fd_sc_hd__xnor2_1
*I *2435:X O *D sky130_fd_sc_hd__buf_2
*CAP
1 *2178:A2 0
2 *2177:A 0
3 *2179:A1 0
4 *2113:A 0
5 *1993:B 0.000101539
6 *1994:B1 6.94275e-05
7 *1992:B 0.000200261
8 *2042:C1 0
9 *2063:A 0
10 *2030:A 0
11 *2435:X 0.0001101
12 *516:151 0.00019805
13 *516:108 0.00045663
14 *516:91 0.000852309
15 *516:84 0.00050026
16 *516:76 0.00207967
17 *516:61 0.00131511
18 *516:52 0.00146485
19 *516:46 0.00206592
20 *516:42 0.000584169
21 *516:38 0.000814321
22 *516:30 0.00102202
23 *516:16 0.000745734
24 *516:6 0.000760994
25 *1992:B *552:100 4.30894e-05
26 *1993:B *552:66 5.3304e-05
27 *1993:B *552:88 5.3304e-05
28 *1994:B1 *520:68 5.50106e-05
29 *516:16 *529:77 4.08641e-05
30 *516:30 *524:61 3.55215e-05
31 *516:30 *526:108 0.000308121
32 *516:38 *524:61 0.00100228
33 *516:38 *549:106 0
34 *516:42 *546:25 0.000437768
35 *516:46 *531:73 0
36 *516:52 *2052:B1 6.16439e-05
37 *516:52 *2057:A 0
38 *516:52 *2057:B 0
39 *516:52 *539:73 9.73644e-05
40 *516:76 *539:73 0
41 *516:76 *539:94 9.60977e-05
42 *516:76 *542:33 0
43 *516:76 *547:36 0
44 *516:76 *547:105 0
45 *516:84 *517:62 0
46 *516:84 *518:91 1.94693e-05
47 *516:84 *518:119 6.7177e-06
48 *516:84 *520:84 0
49 *516:151 *2178:C1 7.20518e-05
50 *516:151 *529:77 1.12487e-05
51 *1993:C *1993:B 2.76611e-06
52 *2000:B *1992:B 5.3304e-05
53 *2007:A1 *1992:B 4.6318e-06
54 *2021:A2 *1992:B 2.9252e-05
55 *2030:B *516:52 1.94693e-05
56 *2041:B1 *516:84 0.000167452
57 *2042:A2 *516:84 5.3304e-05
58 *2042:B1 *516:84 0.000246748
59 *2054:B1 *516:52 0.000194318
60 *2061:B *516:76 1.9446e-05
61 *2072:A1 *516:76 2.96051e-05
62 *2113:B *516:46 6.07611e-06
63 *2177:B *516:16 0.000135037
64 *2250:A1 *516:16 0.000180212
65 *2250:A2 *516:16 0.000135037
66 *2409:C *516:76 0
67 *2435:A *516:6 2.32101e-05
68 *2435:A *516:16 2.02872e-05
69 *2454:A *516:6 4.04598e-06
70 *38:14 *516:76 0.000158983
71 *38:14 *516:91 0.000288887
72 *38:14 *516:108 0.000206309
73 *44:8 *516:52 0.000805885
74 *45:36 *516:52 3.11878e-05
75 *45:57 *516:76 0
76 *50:16 *516:76 5.21127e-05
77 *52:10 *516:76 8.22624e-05
78 *56:10 *516:46 0
79 *56:10 *516:76 0
80 *61:6 *516:61 0.000128401
81 *61:6 *516:76 2.93747e-05
82 *97:10 *516:38 9.48381e-06
83 *97:18 *516:42 0.000446275
84 *97:38 *516:38 6.25844e-05
85 *103:43 *516:38 0
86 *104:8 *516:38 0
87 *160:10 *516:38 8.62783e-05
88 *167:12 *516:30 2.71291e-05
89 *169:8 *516:30 0.000140958
90 *170:8 *516:30 7.86249e-05
91 *170:8 *516:38 5.3304e-05
92 *191:60 *516:16 0
93 *191:60 *516:151 0
94 *219:23 *516:151 1.14452e-05
95 *219:36 *516:151 0.000176541
96 *219:50 *516:16 0.000139346
97 *219:50 *516:151 8.4047e-05
98 *241:29 *516:52 0.000431852
99 *273:8 *516:151 7.76364e-06
100 *283:20 *516:52 4.51403e-05
101 *283:131 *516:38 0.000102606
102 *294:12 *516:84 0.000263582
103 *294:14 *516:84 1.47563e-05
104 *439:16 *1992:B 0.00013766
105 *443:34 *1993:B 6.97747e-05
106 *443:34 *1994:B1 7.16228e-05
107 *471:22 *516:52 0
108 *471:124 *516:52 0.000104133
109 *474:10 *1993:B 0.000109206
110 *474:10 *1994:B1 7.16228e-05
111 *476:10 *516:84 0.000138727
112 *477:24 *516:52 7.83058e-05
113 *481:8 *516:52 0
114 *483:10 *516:52 0
115 *484:10 *516:52 0.000121147
116 *484:31 *516:52 4.84148e-05
117 *497:48 *516:91 0.000485838
118 *497:48 *516:108 0.00057631
119 *498:27 *516:6 7.96152e-06
120 *501:19 *516:30 0.000137651
121 *501:19 *516:38 2.02872e-05
122 *510:92 *516:16 0.000138718
*RES
1 *2435:X *516:6 24.5743 
2 *516:6 *516:16 38.3893 
3 *516:16 *516:30 38.265 
4 *516:30 *516:38 47.3171 
5 *516:38 *516:42 5.40643 
6 *516:42 *516:46 23.5964 
7 *516:46 *516:52 46.755 
8 *516:52 *2030:A 23 
9 *516:46 *516:61 17.5271 
10 *516:61 *2063:A 23 
11 *516:61 *516:76 35.9193 
12 *516:76 *516:84 35.9154 
13 *516:84 *2042:C1 23 
14 *516:76 *516:91 1.6016 
15 *516:91 *1992:B 48.7032 
16 *516:91 *516:108 9.17227 
17 *516:108 *1994:B1 39.6468 
18 *516:108 *1993:B 40.3511 
19 *516:42 *2113:A 23 
20 *516:30 *2179:A1 23 
21 *516:16 *2177:A 23 
22 *516:6 *516:151 34.0186 
23 *516:151 *2178:A2 23 
*END

*D_NET *517 0.017705
*CONN
*I *2067:A I *D sky130_fd_sc_hd__nor2_1
*I *1982:A1 I *D sky130_fd_sc_hd__o41ai_4
*I *1991:C1 I *D sky130_fd_sc_hd__a211o_1
*I *1999:A I *D sky130_fd_sc_hd__or2_1
*I *2046:A I *D sky130_fd_sc_hd__nor2_1
*I *1996:A I *D sky130_fd_sc_hd__nor2_1
*I *2109:A I *D sky130_fd_sc_hd__nand2_1
*I *2173:A I *D sky130_fd_sc_hd__nand2_1
*I *2115:A I *D sky130_fd_sc_hd__or2_2
*I *2068:A I *D sky130_fd_sc_hd__or2_1
*I *2436:X O *D sky130_fd_sc_hd__clkbuf_4
*CAP
1 *2067:A 0.000100996
2 *1982:A1 0
3 *1991:C1 3.40051e-05
4 *1999:A 0
5 *2046:A 0.000160786
6 *1996:A 0
7 *2109:A 3.96171e-05
8 *2173:A 0.000171913
9 *2115:A 0
10 *2068:A 0
11 *2436:X 0
12 *517:124 0.000660378
13 *517:107 0.000732111
14 *517:100 0.00070911
15 *517:92 0.000746838
16 *517:90 0.000921161
17 *517:62 0.000906197
18 *517:58 0.00144217
19 *517:56 0.00144207
20 *517:52 0.000443844
21 *517:21 0.000303539
22 *517:19 0.000296305
23 *517:10 0.00055733
24 *517:4 0.000629394
25 *1991:C1 *536:114 2.28212e-05
26 *2067:A *524:30 2.35625e-05
27 *2173:A *2115:B 9.98891e-05
28 *2173:A *2173:B 6.17437e-06
29 *2173:A *547:105 2.29895e-05
30 *517:10 *524:44 0.000156143
31 *517:10 *524:55 6.07611e-06
32 *517:10 *547:105 0.000113029
33 *517:19 *524:55 0.000126538
34 *517:21 *524:55 1.22803e-05
35 *517:21 *547:105 3.60842e-05
36 *517:58 *520:84 0.000125302
37 *517:58 *547:30 0
38 *517:58 *550:108 0
39 *517:58 *550:116 0
40 *517:62 *1996:B 0.000173385
41 *517:62 *518:102 4.42688e-05
42 *517:62 *518:119 9.75432e-05
43 *517:62 *520:84 7.90067e-05
44 *517:90 *536:114 5.22214e-05
45 *517:90 *547:18 0.00163492
46 *517:100 *520:98 0.000271589
47 *517:100 *550:77 0
48 *517:100 *552:60 6.35934e-05
49 *517:100 *552:114 9.43251e-05
50 *517:100 *554:56 5.41288e-05
51 *517:107 *520:98 2.24973e-05
52 *517:107 *524:22 1.01436e-05
53 *517:124 *1982:A2 9.41704e-05
54 *517:124 *520:98 0.000179141
55 *517:124 *524:22 0.000185755
56 *517:124 *547:130 1.34739e-05
57 *517:124 *549:29 0
58 *517:124 *550:94 7.38136e-05
59 *1982:B1 *517:124 0.000390673
60 *1990:A2 *517:100 7.03663e-05
61 *1990:A2 *517:107 1.58805e-05
62 *1991:A1 *1991:C1 9.67842e-05
63 *1991:A1 *517:90 0.000188475
64 *1991:A2 *517:90 4.05703e-05
65 *2005:A2 *517:100 4.00259e-06
66 *2020:A2 *517:90 0.000480242
67 *2020:B1 *517:90 6.9805e-05
68 *2033:S *517:62 0
69 *2034:A0 *517:62 0
70 *2043:A1 *517:62 0.000141386
71 *2046:B *2046:A 5.50106e-05
72 *2046:B *517:62 0
73 *2059:B *517:58 2.54046e-05
74 *2062:A *517:10 6.85654e-05
75 *2063:B *517:10 5.50106e-05
76 *2063:B *517:52 9.58714e-05
77 *2104:B *517:10 6.74919e-05
78 *2110:A *517:19 2.49836e-05
79 *2110:A *517:21 6.07611e-06
80 *2174:B *2173:A 7.37652e-05
81 *2408:B1 *517:100 0
82 *2409:B *517:62 0.000112169
83 *2502:A *1991:C1 2.93845e-05
84 *2502:A *517:90 1.93629e-05
85 *32:12 *517:62 0
86 *38:14 *517:58 1.23662e-05
87 *52:20 *517:58 0
88 *53:12 *517:56 0
89 *53:12 *517:58 0
90 *54:8 *517:10 1.52259e-05
91 *57:10 *517:10 5.10859e-05
92 *59:8 *2067:A 5.67058e-05
93 *59:8 *517:52 8.83847e-05
94 *107:66 *2173:A 0.000112673
95 *241:12 *517:62 0
96 *294:12 *517:56 0
97 *294:12 *517:58 0
98 *337:55 *517:124 0.000139346
99 *380:30 *517:124 8.22421e-06
100 *412:10 *517:107 6.61686e-06
101 *413:8 *517:100 2.03764e-06
102 *413:10 *517:100 7.59794e-05
103 *464:23 *517:62 0
104 *470:10 *517:90 7.9199e-05
105 *471:8 *2046:A 9.16362e-05
106 *475:43 *517:62 0
107 *475:67 *517:62 0
108 *477:8 *517:62 5.56203e-05
109 *492:45 *517:124 0.000175903
110 *512:48 *517:10 0.000194318
111 *512:48 *517:19 0.000215782
112 *512:63 *2173:A 0
113 *512:63 *517:21 0
114 *516:84 *517:62 0
*RES
1 *2436:X *517:4 23 
2 *517:4 *517:10 24.57 
3 *517:10 *2068:A 38 
4 *517:10 *517:19 3.66643 
5 *517:19 *517:21 2.25786 
6 *517:21 *2115:A 38 
7 *517:21 *2173:A 42.9093 
8 *517:19 *2109:A 38.6214 
9 *517:4 *517:52 3.00357 
10 *517:52 *517:56 16.9057 
11 *517:56 *517:58 6.48357 
12 *517:58 *517:62 34.1607 
13 *517:62 *1996:A 23 
14 *517:58 *2046:A 41.0243 
15 *517:56 *517:90 39.65 
16 *517:90 *517:92 15 
17 *517:92 *517:100 29.9143 
18 *517:100 *1999:A 23 
19 *517:92 *517:107 0.849286 
20 *517:107 *1991:C1 39.0979 
21 *517:107 *517:124 28.6921 
22 *517:124 *1982:A1 23 
23 *517:52 *2067:A 25.4443 
*END

*D_NET *518 0.0153976
*CONN
*I *2317:A I *D sky130_fd_sc_hd__and3_1
*I *2290:A I *D sky130_fd_sc_hd__and3_1
*I *2036:B I *D sky130_fd_sc_hd__nand2_1
*I *1971:A I *D sky130_fd_sc_hd__inv_2
*I *2041:A1 I *D sky130_fd_sc_hd__o21ai_1
*I *2042:A1 I *D sky130_fd_sc_hd__o211a_1
*I *1996:B I *D sky130_fd_sc_hd__nor2_1
*I *1995:B I *D sky130_fd_sc_hd__or2_1
*I *2369:A I *D sky130_fd_sc_hd__nand2_1
*I *2318:A1 I *D sky130_fd_sc_hd__a21oi_1
*I *2437:X O *D sky130_fd_sc_hd__buf_2
*CAP
1 *2317:A 0
2 *2290:A 0
3 *2036:B 0
4 *1971:A 0
5 *2041:A1 6.30584e-05
6 *2042:A1 3.09673e-05
7 *1996:B 0.000220785
8 *1995:B 0
9 *2369:A 3.50104e-05
10 *2318:A1 0.000116687
11 *2437:X 0.000228111
12 *518:142 0.000602767
13 *518:119 0.000301632
14 *518:102 0.000307189
15 *518:91 0.000514681
16 *518:85 0.0012658
17 *518:64 0.00129953
18 *518:56 0.000914278
19 *518:50 0.00159173
20 *518:33 0.00100985
21 *518:25 0.000706734
22 *518:10 0.00044135
23 *2041:A1 *542:54 0.000312348
24 *2318:A1 *519:12 1.83564e-05
25 *2318:A1 *548:78 7.75329e-06
26 *2369:A *2316:B 1.89095e-05
27 *2369:A *548:68 6.04017e-05
28 *518:10 *519:12 8.33724e-05
29 *518:10 *520:21 7.461e-05
30 *518:10 *548:78 3.95159e-06
31 *518:25 *2316:A 9.75779e-05
32 *518:25 *520:10 8.52481e-05
33 *518:33 *2316:A 2.4754e-05
34 *518:33 *2316:B 0.000140552
35 *518:33 *520:10 0
36 *518:33 *545:44 0
37 *518:50 *545:44 0
38 *518:56 *2416:A 4.96101e-05
39 *518:64 *550:10 4.43717e-05
40 *518:64 *550:18 0
41 *518:64 *550:20 0
42 *518:85 *2466:A 0
43 *518:119 *542:54 3.50723e-05
44 *518:142 *524:14 5.36208e-05
45 *518:142 *545:44 0
46 *518:142 *548:30 0.000545004
47 *518:142 *548:40 0
48 *2010:A2 *518:85 5.67058e-05
49 *2010:B1 *518:85 9.84851e-05
50 *2010:B1 *518:91 1.21972e-05
51 *2011:B *1996:B 0
52 *2025:A1 *518:85 0.000113564
53 *2038:A *518:85 4.95081e-05
54 *2038:B *518:85 0.000139346
55 *2041:B1 *2041:A1 0.000312348
56 *2041:B1 *518:119 0.00012083
57 *2042:A2 *518:91 3.22004e-05
58 *2042:B1 *518:119 0.000125915
59 *2318:B1 *2318:A1 5.67058e-05
60 *2372:A1 *518:50 0
61 *2374:A *518:33 0.000196443
62 *2414:A1 *2369:A 4.32782e-05
63 *2414:A1 *518:33 0.00010018
64 *2414:A2 *2369:A 8.73586e-06
65 *286:10 *518:142 0.000236946
66 *294:20 *518:85 6.48142e-05
67 *312:6 *518:33 1.76557e-05
68 *373:12 *518:33 4.15423e-05
69 *374:10 *518:33 0
70 *375:14 *2318:A1 0
71 *375:14 *518:33 9.24795e-06
72 *417:8 *518:142 0
73 *424:10 *518:50 0.000164282
74 *424:10 *518:142 0.000187335
75 *425:8 *518:142 0
76 *448:58 *2318:A1 4.08537e-05
77 *448:58 *518:25 1.95448e-05
78 *459:14 *518:85 0
79 *460:10 *518:85 3.95281e-05
80 *474:16 *518:85 0.000270682
81 *475:10 *518:85 0.000412875
82 *476:10 *1996:B 0
83 *476:10 *518:102 0
84 *477:8 *518:119 0.000114083
85 *486:10 *518:56 2.93845e-05
86 *486:10 *518:64 8.62876e-05
87 *486:22 *518:64 5.41288e-05
88 *486:22 *518:85 0.000227581
89 *488:10 *518:85 0.000130263
90 *490:12 *518:10 2.38288e-05
91 *492:58 *518:64 3.21926e-05
92 *493:46 *518:56 8.10857e-05
93 *516:84 *518:91 1.94693e-05
94 *516:84 *518:119 6.7177e-06
95 *517:62 *1996:B 0.000173385
96 *517:62 *518:102 4.42688e-05
97 *517:62 *518:119 9.75432e-05
*RES
1 *2437:X *518:10 41.7079 
2 *518:10 *2318:A1 40.175 
3 *518:10 *518:25 17.0507 
4 *518:25 *518:33 24.9429 
5 *518:33 *2369:A 39.595 
6 *518:33 *518:50 6.54571 
7 *518:50 *518:56 26.6 
8 *518:56 *518:64 34.7643 
9 *518:64 *1995:B 23 
10 *518:64 *518:85 38.6143 
11 *518:85 *518:91 33.48 
12 *518:91 *1996:B 42.7229 
13 *518:91 *518:102 1.20143 
14 *518:102 *2042:A1 38.6214 
15 *518:102 *518:119 22.0221 
16 *518:119 *2041:A1 26.48 
17 *518:119 *1971:A 23 
18 *518:56 *2036:B 23 
19 *518:50 *518:142 30.2043 
20 *518:142 *2290:A 23 
21 *518:25 *2317:A 23 
*END

*D_NET *519 0.0264076
*CONN
*I *2192:B I *D sky130_fd_sc_hd__or4_1
*I *2305:A1 I *D sky130_fd_sc_hd__a32o_1
*I *2338:A1 I *D sky130_fd_sc_hd__a21o_1
*I *2283:A I *D sky130_fd_sc_hd__xnor2_1
*I *2278:A1 I *D sky130_fd_sc_hd__a221o_1
*I *2302:A1 I *D sky130_fd_sc_hd__a21oi_1
*I *2350:A1 I *D sky130_fd_sc_hd__a221o_1
*I *2303:A1 I *D sky130_fd_sc_hd__o22a_1
*I *2408:A1 I *D sky130_fd_sc_hd__a22o_1
*I *2437:A I *D sky130_fd_sc_hd__buf_2
*I *2438:X O *D sky130_fd_sc_hd__clkbuf_4
*CAP
1 *2192:B 0.000151331
2 *2305:A1 2.34823e-05
3 *2338:A1 0
4 *2283:A 0
5 *2278:A1 0
6 *2302:A1 1.80505e-05
7 *2350:A1 8.18148e-05
8 *2303:A1 0
9 *2408:A1 1.60925e-05
10 *2437:A 2.32686e-05
11 *2438:X 0.000247134
12 *519:124 0.000324739
13 *519:116 0.00100977
14 *519:114 0.00108035
15 *519:104 0.0012725
16 *519:93 0.000482722
17 *519:74 0.000500772
18 *519:72 0.000928685
19 *519:61 0.000347762
20 *519:52 0.00115602
21 *519:41 0.00123101
22 *519:27 0.00354714
23 *519:12 0.0015332
24 *2192:B *526:78 0.00018625
25 *519:12 *520:21 0
26 *519:27 *520:21 0
27 *519:27 *520:138 0
28 *519:27 *526:8 0.000169674
29 *519:27 *540:79 0
30 *519:27 *540:112 0
31 *519:27 *544:16 0
32 *519:27 *544:27 0
33 *519:27 *557:22 0
34 *519:41 *2406:B1 0
35 *519:41 *520:48 5.49079e-05
36 *519:41 *524:14 0
37 *519:41 *525:20 0.000820219
38 *519:41 *526:33 1.21972e-05
39 *519:41 *529:14 1.74129e-05
40 *519:52 *525:88 0
41 *519:52 *525:112 0
42 *519:52 *527:127 6.93449e-05
43 *519:52 *537:78 0.00233502
44 *519:52 *538:86 1.83667e-05
45 *519:52 *540:55 0.000205555
46 *519:52 *540:77 0.000152699
47 *519:52 *540:79 0.000113054
48 *519:61 *538:86 8.68016e-06
49 *519:72 *525:112 0
50 *519:72 *538:80 4.77164e-06
51 *519:72 *538:86 0.000117413
52 *519:93 *544:29 0
53 *519:104 *538:80 2.49196e-05
54 *519:104 *546:63 0.0016085
55 *519:104 *554:92 0.00183151
56 *519:114 *2248:A2 0.000114363
57 *519:114 *521:58 2.24608e-05
58 *519:114 *546:63 0.000404212
59 *519:114 *554:92 0.000121177
60 *2302:B1 *2302:A1 5.50049e-05
61 *2302:B1 *519:93 5.50106e-05
62 *2305:B1 *519:114 2.39868e-05
63 *2318:A1 *519:12 1.83564e-05
64 *2322:A *519:27 0.000140958
65 *2349:A1 *519:114 5.84835e-05
66 *2349:A3 *519:114 6.02598e-05
67 *2349:A3 *519:116 2.98648e-05
68 *2350:A2 *2350:A1 7.67478e-05
69 *2408:B1 *2408:A1 3.84098e-05
70 *2410:A *519:41 2.93845e-05
71 *2410:B *519:41 2.64616e-05
72 *2410:C *2408:A1 0
73 *2410:C *519:41 0.000141052
74 *2411:A2 *519:41 5.17233e-05
75 *2454:A *519:116 0.000174494
76 *2454:A *519:124 7.33691e-05
77 *188:90 *519:61 0.000135313
78 *191:60 *519:124 6.58373e-05
79 *192:80 *519:124 0
80 *197:26 *519:116 7.88926e-05
81 *199:52 *519:93 0.000561346
82 *199:56 *2302:A1 2.93747e-05
83 *199:56 *519:93 0.000148571
84 *205:55 *2192:B 0.000190163
85 *298:10 *519:52 4.21594e-06
86 *298:10 *519:61 4.66053e-05
87 *298:10 *519:72 5.08932e-05
88 *300:10 *519:93 2.45549e-06
89 *302:18 *519:114 3.41592e-05
90 *305:10 *519:52 0.000141879
91 *311:10 *519:27 0.000182854
92 *312:12 *519:12 5.99257e-05
93 *317:8 *519:12 7.75329e-06
94 *317:8 *519:27 0.000144455
95 *320:8 *519:27 0
96 *346:10 *519:52 0
97 *347:8 *2350:A1 3.42179e-05
98 *375:14 *519:12 0
99 *410:8 *519:41 4.41683e-05
100 *411:12 *519:41 9.5877e-05
101 *413:25 *519:41 1.61305e-05
102 *490:12 *2437:A 5.50106e-05
103 *490:29 *519:52 0
104 *494:12 *519:27 0.000352421
105 *494:12 *519:41 0.00026779
106 *497:88 *519:27 0
107 *507:12 *519:114 2.05503e-05
108 *514:33 *519:93 0.000111243
109 *518:10 *519:12 8.33724e-05
*RES
1 *2438:X *519:12 42.785 
2 *519:12 *2437:A 38.6214 
3 *519:12 *519:27 37.765 
4 *519:27 *519:41 49.5129 
5 *519:41 *2408:A1 23.4971 
6 *519:27 *519:52 47.19 
7 *519:52 *2303:A1 38 
8 *519:52 *519:61 2.25786 
9 *519:61 *2350:A1 39.5743 
10 *519:61 *519:72 3.66643 
11 *519:72 *519:74 15 
12 *519:74 *2302:A1 23.6214 
13 *519:74 *519:93 42.1386 
14 *519:93 *2278:A1 23 
15 *519:72 *519:104 12.6019 
16 *519:104 *519:114 26.3723 
17 *519:114 *519:116 9.67357 
18 *519:116 *519:124 34.9093 
19 *519:124 *2283:A 23 
20 *519:116 *2338:A1 23 
21 *519:114 *2305:A1 23.4971 
22 *519:104 *2192:B 48.7861 
*END

*D_NET *520 0.0272297
*CONN
*I *2365:A1 I *D sky130_fd_sc_hd__a22oi_1
*I *2366:A I *D sky130_fd_sc_hd__and4_1
*I *2408:B2 I *D sky130_fd_sc_hd__a22o_1
*I *2254:A I *D sky130_fd_sc_hd__or2_1
*I *2193:C I *D sky130_fd_sc_hd__or4_1
*I *2248:B2 I *D sky130_fd_sc_hd__a32o_1
*I *1970:A I *D sky130_fd_sc_hd__inv_2
*I *2045:B I *D sky130_fd_sc_hd__nor2_1
*I *2262:A I *D sky130_fd_sc_hd__nand2_1
*I *2316:A I *D sky130_fd_sc_hd__nand2_1
*I *2439:X O *D sky130_fd_sc_hd__clkbuf_4
*CAP
1 *2365:A1 3.34738e-05
2 *2366:A 0.000150372
3 *2408:B2 0
4 *2254:A 0
5 *2193:C 0
6 *2248:B2 2.84143e-05
7 *1970:A 0
8 *2045:B 0
9 *2262:A 4.10537e-05
10 *2316:A 3.51274e-05
11 *2439:X 0.000483691
12 *520:138 0.000470367
13 *520:124 0.000686869
14 *520:111 0.000918376
15 *520:98 0.00220087
16 *520:96 0.00194094
17 *520:84 0.000383351
18 *520:76 0.000897726
19 *520:68 0.00140756
20 *520:50 0.00117396
21 *520:48 0.00133457
22 *520:25 0.00161633
23 *520:21 0.00143184
24 *520:10 0.00114265
25 *2248:B2 *2248:A1 9.67842e-05
26 *2262:A *548:30 7.31471e-05
27 *2262:A *548:40 8.0163e-06
28 *2365:A1 *2366:C 4.79641e-05
29 *2365:A1 *540:112 4.96717e-05
30 *2366:A *2366:B 9.67842e-05
31 *2366:A *2366:C 0.000133588
32 *2366:A *523:47 0.000272687
33 *2366:A *540:112 6.17437e-06
34 *520:10 *558:14 0.000391473
35 *520:21 *548:78 8.4047e-05
36 *520:25 *548:30 0.00014196
37 *520:48 *524:14 0.000106198
38 *520:48 *548:30 0.000146967
39 *520:68 *552:74 1.94812e-05
40 *520:84 *550:104 0.000123934
41 *520:98 *2349:A2 0.000117244
42 *520:98 *2461:A 0.000172514
43 *520:98 *537:10 0.00016956
44 *520:98 *537:22 0.00078238
45 *520:98 *546:38 0.000282762
46 *520:98 *546:74 2.41841e-05
47 *520:98 *549:29 0
48 *520:98 *549:74 0
49 *520:98 *552:26 1.47563e-05
50 *520:98 *552:114 0.000217827
51 *520:98 *554:56 0
52 *520:98 *554:82 0
53 *520:111 *524:108 0.000225944
54 *520:111 *529:71 0
55 *520:111 *546:74 8.13297e-05
56 *520:124 *524:96 0
57 *520:124 *524:108 0
58 *520:124 *526:62 0
59 *520:124 *529:71 1.14452e-05
60 *520:124 *530:61 1.58805e-05
61 *520:138 *2421:A2 1.27424e-05
62 *1990:B1 *520:98 0.000163361
63 *1994:B1 *520:68 5.50106e-05
64 *2000:C *520:76 1.94693e-05
65 *2021:A2 *520:68 4.35681e-06
66 *2195:A2 *520:124 0
67 *2319:B1 *520:10 0
68 *2349:A1 *520:98 7.17297e-05
69 *2366:D *2366:A 1.41129e-05
70 *2408:B1 *520:48 4.86179e-05
71 *2408:B1 *520:50 5.3304e-05
72 *2410:A *520:48 5.50106e-05
73 *2410:B *520:48 5.3304e-05
74 *2410:C *520:48 1.32939e-05
75 *43:12 *520:84 0.0002263
76 *181:16 *520:124 0.000957559
77 *183:12 *520:98 1.27321e-05
78 *184:8 *520:124 0
79 *185:8 *520:124 3.81391e-05
80 *186:10 *520:124 0
81 *197:18 *520:124 4.39488e-05
82 *199:72 *2248:B2 9.67842e-05
83 *199:72 *520:98 0.000128679
84 *201:10 *520:124 0.000213551
85 *255:10 *520:48 0.000138718
86 *294:12 *520:84 0
87 *312:6 *2316:A 0.000139346
88 *312:6 *520:10 0.000253642
89 *326:12 *520:124 0.000953251
90 *337:42 *520:98 0
91 *337:64 *520:98 0
92 *356:10 *520:98 0.000199701
93 *358:8 *520:98 0
94 *365:10 *2366:A 1.21972e-05
95 *366:8 *2366:A 2.02872e-05
96 *367:10 *520:138 0.000182585
97 *369:17 *520:98 0
98 *391:12 *520:98 0.000238937
99 *413:25 *520:48 0
100 *414:10 *520:48 8.58391e-05
101 *416:10 *520:48 0
102 *417:8 *520:48 2.49733e-05
103 *425:14 *520:25 0.000388858
104 *444:6 *520:68 0.000137651
105 *444:8 *520:68 5.50049e-05
106 *456:10 *520:68 3.87221e-06
107 *472:10 *520:68 6.84987e-06
108 *474:10 *520:68 7.57281e-06
109 *486:44 *520:48 0
110 *490:27 *520:21 0
111 *490:27 *520:138 0
112 *490:29 *520:138 0
113 *497:48 *520:68 0.000754484
114 *497:88 *520:138 3.70094e-05
115 *516:84 *520:84 0
116 *517:58 *520:84 0.000125302
117 *517:62 *520:84 7.90067e-05
118 *517:100 *520:98 0.000271589
119 *517:107 *520:98 2.24973e-05
120 *517:124 *520:98 0.000179141
121 *518:10 *520:21 7.461e-05
122 *518:25 *2316:A 9.75779e-05
123 *518:25 *520:10 8.52481e-05
124 *518:33 *2316:A 2.4754e-05
125 *518:33 *520:10 0
126 *519:12 *520:21 0
127 *519:27 *520:21 0
128 *519:27 *520:138 0
129 *519:41 *520:48 5.49079e-05
*RES
1 *2439:X *520:10 31.7621 
2 *520:10 *2316:A 24.5743 
3 *520:10 *520:21 26.7657 
4 *520:21 *520:25 26.5793 
5 *520:25 *2262:A 24.1186 
6 *520:25 *520:48 48.6843 
7 *520:48 *520:50 4.90929 
8 *520:50 *520:68 39.5763 
9 *520:68 *520:76 23.41 
10 *520:76 *520:84 38.3064 
11 *520:84 *2045:B 23 
12 *520:76 *1970:A 23 
13 *520:50 *520:96 15 
14 *520:96 *520:98 42.05 
15 *520:98 *2248:B2 39.0979 
16 *520:98 *520:111 4.88857 
17 *520:111 *2193:C 38 
18 *520:111 *520:124 34.9479 
19 *520:124 *2254:A 23 
20 *520:48 *2408:B2 23 
21 *520:21 *520:138 20.4271 
22 *520:138 *2366:A 26.9564 
23 *520:138 *2365:A1 24.0979 
*END

*D_NET *521 0.0108333
*CONN
*I *2305:B2 I *D sky130_fd_sc_hd__a32o_1
*I *2277:A1 I *D sky130_fd_sc_hd__a32o_1
*I *2255:A I *D sky130_fd_sc_hd__nand2_1
*I *2276:A1 I *D sky130_fd_sc_hd__o22a_1
*I *2275:A1 I *D sky130_fd_sc_hd__a21oi_1
*I *2440:X O *D sky130_fd_sc_hd__dlymetal6s2s_1
*CAP
1 *2305:B2 0
2 *2277:A1 0
3 *2255:A 0.000372578
4 *2276:A1 3.8608e-05
5 *2275:A1 0
6 *2440:X 0.000459281
7 *521:58 0.000449721
8 *521:34 0.000596854
9 *521:30 0.002321
10 *521:12 0.00016687
11 *521:8 0.00223455
12 *2255:A *2458:A 0
13 *2255:A *524:83 0.000715152
14 *2255:A *549:116 0
15 *2276:A1 *541:34 0.00014196
16 *521:30 *2201:A1 4.19743e-05
17 *521:30 *524:96 8.56254e-05
18 *521:30 *527:52 2.02872e-05
19 *521:34 *524:83 1.58949e-05
20 *521:34 *524:96 4.05745e-05
21 *521:58 *2248:A2 4.51887e-05
22 *521:58 *538:51 0
23 *521:58 *541:8 0.000189983
24 *2201:B1 *521:30 0.000400198
25 *2201:B2 *521:30 0.000627832
26 *2209:A2 *521:30 0.000135037
27 *2277:B1 *521:34 0.000120217
28 *2277:B1 *521:58 0.000255266
29 *2279:B1 *2255:A 5.25848e-05
30 *2305:B1 *521:58 8.85219e-05
31 *190:16 *2276:A1 9.84794e-05
32 *192:22 *521:30 0.000174149
33 *192:22 *521:58 0.000115022
34 *205:12 *521:12 0.000220001
35 *205:12 *521:30 8.11552e-05
36 *236:8 *521:8 0.000148688
37 *247:10 *2255:A 2.72222e-05
38 *507:12 *521:58 0.000330389
39 *514:12 *521:12 0
40 *514:12 *521:30 0
41 *519:114 *521:58 2.24608e-05
*RES
1 *2440:X *521:8 46.2443 
2 *521:8 *521:12 17.9621 
3 *521:12 *2275:A1 23 
4 *521:12 *2276:A1 24.5743 
5 *521:8 *521:30 39.215 
6 *521:30 *521:34 3.50071 
7 *521:34 *2255:A 32.6943 
8 *521:34 *2277:A1 23 
9 *521:30 *521:58 42.1179 
10 *521:58 *2305:B2 23 
*END

*D_NET *522 0.00186612
*CONN
*I *2214:B_N I *D sky130_fd_sc_hd__and4bb_2
*I *2448:A I *D sky130_fd_sc_hd__clkbuf_2
*I *2485:X O *D sky130_fd_sc_hd__clkbuf_1
*CAP
1 *2214:B_N 0.000186744
2 *2448:A 0.000195128
3 *2485:X 6.40133e-05
4 *522:8 0.000445885
5 *2448:A *530:6 3.22879e-05
6 *2448:A *530:102 5.70419e-05
7 *2207:C *2214:B_N 3.71251e-05
8 *2214:D *2214:B_N 8.13415e-05
9 *189:10 *2448:A 0
10 *189:36 *2448:A 0.00014196
11 *199:18 *2214:B_N 3.53115e-05
12 *211:8 *2214:B_N 0.000263534
13 *489:18 *2448:A 3.47781e-05
14 *489:18 *522:8 0.000138727
15 *489:24 *2214:B_N 5.3304e-05
16 *491:10 *2448:A 5.83025e-05
17 *491:10 *522:8 4.06408e-05
*RES
1 *2485:X *522:8 39.9057 
2 *522:8 *2448:A 42.1843 
3 *522:8 *2214:B_N 43.8829 
*END

*D_NET *523 0.018352
*CONN
*I *2315:A1 I *D sky130_fd_sc_hd__a31oi_2
*I *2311:A1 I *D sky130_fd_sc_hd__a22oi_1
*I *2310:B I *D sky130_fd_sc_hd__and4_1
*I *2264:A1 I *D sky130_fd_sc_hd__a21oi_1
*I *2263:A I *D sky130_fd_sc_hd__and3_1
*I *2245:A I *D sky130_fd_sc_hd__nand2_1
*I *2218:A1 I *D sky130_fd_sc_hd__a22o_1
*I *2366:B I *D sky130_fd_sc_hd__and4_1
*I *2365:B2 I *D sky130_fd_sc_hd__a22oi_1
*I *2405:A I *D sky130_fd_sc_hd__nand2_1
*I *2441:X O *D sky130_fd_sc_hd__buf_2
*CAP
1 *2315:A1 0
2 *2311:A1 0.000192512
3 *2310:B 0
4 *2264:A1 0
5 *2263:A 0
6 *2245:A 0
7 *2218:A1 0.0002829
8 *2366:B 5.21512e-05
9 *2365:B2 0
10 *2405:A 0.000759159
11 *2441:X 6.5523e-05
12 *523:127 0.000637102
13 *523:120 0.000530857
14 *523:85 0.00184647
15 *523:81 0.0024732
16 *523:73 0.00110464
17 *523:65 0.000696892
18 *523:47 0.000317841
19 *523:31 0.000475795
20 *523:27 0.000604593
21 *523:12 0.000917116
22 *523:8 0.00014031
23 *2218:A1 *2204:B 8.79295e-05
24 *2218:A1 *530:102 0.000311549
25 *2311:A1 *2310:D 0.00012239
26 *2311:A1 *2311:A2 2.33438e-05
27 *2311:A1 *540:134 2.93845e-05
28 *2405:A *2405:B 3.75082e-05
29 *2405:A *537:88 0
30 *523:8 *524:173 7.03766e-05
31 *523:27 *524:173 0.000188926
32 *523:27 *545:42 0.000193388
33 *523:27 *545:44 1.14452e-05
34 *523:31 *524:6 1.95556e-05
35 *523:31 *524:14 1.05235e-05
36 *523:47 *2366:C 5.50049e-05
37 *523:47 *2421:A2 0
38 *523:47 *537:78 5.27196e-05
39 *523:65 *524:173 0.000118174
40 *523:65 *525:20 0.000110913
41 *523:65 *526:25 3.50267e-05
42 *523:65 *526:52 0.000167309
43 *523:65 *545:42 0.00047223
44 *523:73 *2264:A2 0.00012692
45 *523:73 *526:52 1.83667e-05
46 *523:73 *536:114 4.66047e-05
47 *523:73 *545:42 1.77309e-05
48 *523:73 *548:112 9.58714e-05
49 *523:81 *524:14 3.70094e-05
50 *523:81 *535:19 0
51 *523:81 *535:62 0
52 *523:81 *545:101 0
53 *523:81 *548:112 4.43717e-05
54 *523:81 *549:14 0.000130045
55 *523:85 *526:52 0
56 *523:85 *535:62 0
57 *523:85 *553:69 2.711e-05
58 *523:120 *2264:A2 2.93747e-05
59 *523:127 *2264:A2 2.93431e-05
60 *523:127 *2310:A 5.61255e-06
61 *523:127 *527:127 2.93747e-05
62 *523:127 *536:114 9.45748e-05
63 *523:127 *540:134 2.64616e-05
64 *2198:A *2218:A1 5.24529e-05
65 *2198:B *2218:A1 5.50106e-05
66 *2204:A *2218:A1 7.27182e-05
67 *2204:C *2218:A1 6.40579e-05
68 *2218:B1 *2218:A1 4.03747e-05
69 *2218:B2 *2218:A1 7.25611e-05
70 *2246:B *523:85 0.000809421
71 *2264:B1 *523:73 0.000213983
72 *2291:B1 *2405:A 1.76557e-05
73 *2292:A *523:81 0
74 *2292:A *523:85 9.26098e-05
75 *2315:B1 *2405:A 4.21471e-05
76 *2315:B1 *523:12 0.000137651
77 *2366:A *2366:B 9.67842e-05
78 *2366:A *523:47 0.000272687
79 *2366:D *2366:B 0.000166987
80 *2366:D *523:31 9.84851e-05
81 *2366:D *523:65 7.59868e-05
82 *2413:A *2405:A 4.79304e-05
83 *38:31 *523:73 1.95448e-05
84 *188:24 *523:85 0
85 *188:56 *523:85 0
86 *190:8 *2218:A1 9.84794e-05
87 *190:10 *523:85 0
88 *190:16 *523:85 0
89 *192:110 *523:85 4.16661e-05
90 *196:10 *2218:A1 0.000192302
91 *197:116 *2218:A1 0.00010718
92 *197:135 *2218:A1 8.48502e-06
93 *205:12 *523:85 0
94 *238:10 *523:85 0
95 *239:8 *523:85 0.000339458
96 *286:6 *2405:A 5.41385e-05
97 *286:10 *523:81 0.000332775
98 *305:10 *523:127 3.70553e-06
99 *306:30 *2311:A1 0.000181131
100 *366:8 *523:47 9.41704e-05
101 *367:10 *523:47 3.93338e-05
102 *393:8 *523:85 0
103 *394:12 *523:85 0
104 *403:8 *523:85 0.000193388
105 *486:44 *2405:A 9.13962e-05
106 *490:27 *523:8 1.55328e-05
107 *490:29 *523:8 4.01707e-05
108 *491:10 *523:85 0
109 *497:69 *523:65 6.3698e-05
110 *511:16 *2218:A1 1.40094e-05
111 *511:34 *523:85 1.83667e-05
*RES
1 *2441:X *523:8 39.9057 
2 *523:8 *523:12 16.5743 
3 *523:12 *2405:A 34.2479 
4 *523:12 *523:27 17.61 
5 *523:27 *523:31 17.0507 
6 *523:31 *523:47 36.5664 
7 *523:47 *2365:B2 23 
8 *523:31 *2366:B 25.0507 
9 *523:27 *523:65 11.8279 
10 *523:65 *523:73 19.5986 
11 *523:73 *523:81 49.4507 
12 *523:81 *523:85 45.7814 
13 *523:85 *2218:A1 47.9014 
14 *523:81 *2245:A 23 
15 *523:73 *2263:A 23 
16 *523:65 *523:120 16.2429 
17 *523:120 *2264:A1 23 
18 *523:120 *523:127 5.86214 
19 *523:127 *2310:B 23 
20 *523:127 *2311:A1 27.5986 
21 *523:12 *2315:A1 23 
*END

*D_NET *524 0.0286549
*CONN
*I *2441:A I *D sky130_fd_sc_hd__buf_2
*I *2067:B I *D sky130_fd_sc_hd__nor2_1
*I *2109:B I *D sky130_fd_sc_hd__nand2_1
*I *2111:A0 I *D sky130_fd_sc_hd__mux2_2
*I *2231:A I *D sky130_fd_sc_hd__or2_1
*I *2232:A I *D sky130_fd_sc_hd__nand2_1
*I *2193:D I *D sky130_fd_sc_hd__or4_1
*I *2248:A1 I *D sky130_fd_sc_hd__a32o_1
*I *2277:B2 I *D sky130_fd_sc_hd__a32o_1
*I *2068:B I *D sky130_fd_sc_hd__or2_1
*I *2442:X O *D sky130_fd_sc_hd__buf_2
*CAP
1 *2441:A 0
2 *2067:B 0
3 *2109:B 3.89443e-05
4 *2111:A0 0
5 *2231:A 1.86599e-05
6 *2232:A 4.54783e-05
7 *2193:D 6.42966e-05
8 *2248:A1 0.000142051
9 *2277:B2 0
10 *2068:B 0
11 *2442:X 8.83535e-05
12 *524:173 0.000256983
13 *524:130 0.000364746
14 *524:108 0.000328786
15 *524:96 0.000624276
16 *524:85 0.000373244
17 *524:83 0.00105896
18 *524:71 0.00121794
19 *524:61 0.00163649
20 *524:57 0.00128404
21 *524:55 0.000270499
22 *524:44 0.000261693
23 *524:40 0.000607463
24 *524:30 0.00160275
25 *524:22 0.00162984
26 *524:14 0.00130568
27 *524:6 0.00115373
28 *2248:A1 *529:77 2.29356e-05
29 *524:14 *2406:B1 0
30 *524:14 *548:30 8.62876e-05
31 *524:14 *549:14 0.000425445
32 *524:22 *536:114 0.00111672
33 *524:22 *552:50 0.000178517
34 *524:22 *552:60 0.000352421
35 *524:30 *543:116 0.000559366
36 *524:30 *547:10 0.000475026
37 *524:40 *543:101 0
38 *524:44 *547:105 0.000322883
39 *524:55 *547:105 0.000284572
40 *524:57 *549:89 3.28382e-05
41 *524:61 *2229:A2 0
42 *524:61 *526:86 0
43 *524:61 *526:108 0
44 *524:61 *549:106 0
45 *524:71 *526:108 3.72639e-05
46 *524:71 *549:116 0.000166081
47 *524:83 *2458:A 0.000607156
48 *524:83 *541:18 1.86973e-05
49 *524:83 *542:79 0.00026808
50 *524:83 *549:116 0.000872004
51 *524:96 *2458:A 1.94693e-05
52 *524:96 *546:74 0.000391419
53 *524:108 *529:71 5.0135e-05
54 *524:108 *546:74 9.168e-05
55 *524:130 *2229:A2 0
56 *524:130 *551:158 0
57 *524:173 *545:44 0.00010404
58 *524:173 *555:18 0
59 *1987:B1_N *524:30 5.3304e-05
60 *1991:A1 *524:22 5.50049e-05
61 *2024:A2 *524:30 2.80394e-05
62 *2024:B1 *524:30 3.22879e-05
63 *2067:A *524:30 2.35625e-05
64 *2104:A *524:40 5.42115e-05
65 *2104:B *524:40 9.67842e-05
66 *2110:B *2109:B 0
67 *2111:A1 *2109:B 5.50106e-05
68 *2111:A1 *524:57 9.41704e-05
69 *2111:S *2109:B 1.5769e-05
70 *2111:S *524:57 1.59094e-05
71 *2223:B *2231:A 2.93845e-05
72 *2223:B *2232:A 1.03836e-05
73 *2231:B *2232:A 6.10255e-05
74 *2248:B2 *2248:A1 9.67842e-05
75 *2255:A *524:83 0.000715152
76 *2277:B1 *524:83 4.37645e-05
77 *2277:B1 *524:96 5.50049e-05
78 *2290:C *524:14 4.09742e-05
79 *2366:D *524:173 0.00014504
80 *38:31 *524:14 0.000105669
81 *54:8 *524:40 2.82307e-05
82 *55:10 *524:30 1.32314e-05
83 *55:10 *524:40 0.000157407
84 *57:29 *524:40 0.000160191
85 *59:8 *524:30 2.4754e-05
86 *59:8 *524:40 5.67058e-05
87 *97:38 *524:61 0.000296721
88 *167:12 *524:61 8.62876e-05
89 *169:8 *524:61 4.83778e-05
90 *178:33 *524:71 8.72173e-05
91 *179:8 *524:61 0.000385726
92 *191:51 *524:130 0
93 *192:22 *524:96 0.000155032
94 *199:72 *2248:A1 5.13978e-05
95 *201:10 *524:96 1.86869e-05
96 *205:55 *2248:A1 0.000136851
97 *215:10 *524:130 0.000115371
98 *215:14 *524:71 0.000181925
99 *215:27 *524:71 4.17736e-05
100 *218:10 *524:61 4.90891e-05
101 *218:10 *524:130 5.51325e-05
102 *219:14 *524:40 1.37246e-05
103 *219:23 *524:40 0
104 *223:10 *2231:A 2.32101e-05
105 *223:10 *2232:A 0.00010018
106 *242:18 *2193:D 4.96717e-05
107 *242:18 *524:108 9.41704e-05
108 *247:10 *524:83 1.84833e-05
109 *273:39 *524:71 1.01436e-05
110 *286:10 *524:14 0
111 *391:6 *524:30 4.5051e-05
112 *391:12 *524:30 2.64616e-05
113 *401:14 *524:30 0.000138444
114 *412:10 *524:22 0.000188916
115 *423:8 *524:30 0.000424977
116 *474:8 *524:30 0.000151851
117 *490:27 *524:173 2.72055e-05
118 *490:29 *524:173 0
119 *516:30 *524:61 3.55215e-05
120 *516:38 *524:61 0.00100228
121 *517:10 *524:44 0.000156143
122 *517:10 *524:55 6.07611e-06
123 *517:19 *524:55 0.000126538
124 *517:21 *524:55 1.22803e-05
125 *517:107 *524:22 1.01436e-05
126 *517:124 *524:22 0.000185755
127 *518:142 *524:14 5.36208e-05
128 *519:41 *524:14 0
129 *520:48 *524:14 0.000106198
130 *520:111 *524:108 0.000225944
131 *520:124 *524:96 0
132 *520:124 *524:108 0
133 *521:30 *524:96 8.56254e-05
134 *521:34 *524:83 1.58949e-05
135 *521:34 *524:96 4.05745e-05
136 *523:8 *524:173 7.03766e-05
137 *523:27 *524:173 0.000188926
138 *523:31 *524:6 1.95556e-05
139 *523:31 *524:14 1.05235e-05
140 *523:65 *524:173 0.000118174
141 *523:81 *524:14 3.70094e-05
*RES
1 *2442:X *524:6 24.0979 
2 *524:6 *524:14 44.79 
3 *524:14 *524:22 45.1421 
4 *524:22 *524:30 25.3336 
5 *524:30 *524:40 38.2443 
6 *524:40 *524:44 19.3707 
7 *524:44 *2068:B 38 
8 *524:44 *524:55 19.0186 
9 *524:55 *524:57 2.05071 
10 *524:57 *524:61 42.9643 
11 *524:61 *524:71 49.6814 
12 *524:71 *524:83 37.7443 
13 *524:83 *524:85 15 
14 *524:85 *2277:B2 23 
15 *524:85 *524:96 23.9071 
16 *524:96 *524:108 49.5571 
17 *524:108 *2248:A1 26.5007 
18 *524:96 *2193:D 39.0979 
19 *524:61 *524:130 20.7793 
20 *524:130 *2232:A 25.0921 
21 *524:130 *2231:A 23.6214 
22 *524:57 *2111:A0 23 
23 *524:55 *2109:B 24.1186 
24 *524:30 *2067:B 23 
25 *524:6 *524:173 36.8357 
26 *524:173 *2441:A 23 
*END

*D_NET *525 0.0211738
*CONN
*I *2211:A I *D sky130_fd_sc_hd__and2_1
*I *2208:B2 I *D sky130_fd_sc_hd__a32o_1
*I *2287:A1 I *D sky130_fd_sc_hd__a22oi_1
*I *2286:B I *D sky130_fd_sc_hd__and4_1
*I *2261:A I *D sky130_fd_sc_hd__nand2_1
*I *2311:B2 I *D sky130_fd_sc_hd__a22oi_1
*I *2310:A I *D sky130_fd_sc_hd__and4_1
*I *2364:A I *D sky130_fd_sc_hd__nand2_1
*I *2421:A1 I *D sky130_fd_sc_hd__a31o_1
*I *2407:B I *D sky130_fd_sc_hd__nand4_1
*I *2443:X O *D sky130_fd_sc_hd__buf_2
*CAP
1 *2211:A 0
2 *2208:B2 9.93926e-05
3 *2287:A1 0.000307487
4 *2286:B 0
5 *2261:A 0.000398697
6 *2311:B2 0
7 *2310:A 7.8117e-05
8 *2364:A 0
9 *2421:A1 4.4742e-05
10 *2407:B 0
11 *2443:X 3.88336e-05
12 *525:129 0.000959992
13 *525:112 0.00247354
14 *525:90 0.000307487
15 *525:88 0.00184859
16 *525:77 0.000935514
17 *525:70 0.000268816
18 *525:60 0.000426631
19 *525:49 0.000525124
20 *525:31 0.000286256
21 *525:20 0.000516571
22 *525:8 0.000987281
23 *525:6 0.000659597
24 *2208:B2 *527:44 0.000181925
25 *2287:A1 *2286:A 0.000224605
26 *2287:A1 *2287:A2 2.30041e-05
27 *2287:A1 *2287:B1 5.3304e-05
28 *2287:A1 *538:110 2.81041e-05
29 *2310:A *527:127 6.17437e-06
30 *2310:A *540:134 2.64616e-05
31 *2421:A1 *2405:B 5.90675e-06
32 *2421:A1 *537:88 2.02517e-05
33 *525:6 *526:12 2.4754e-05
34 *525:8 *526:12 2.32101e-05
35 *525:8 *526:25 0.000255642
36 *525:20 *2407:C 5.67058e-05
37 *525:20 *526:25 0.000335201
38 *525:20 *526:33 0.000210786
39 *525:20 *540:93 1.41077e-05
40 *525:20 *549:6 0.00012612
41 *525:20 *549:14 0.000307132
42 *525:31 *537:78 2.3529e-05
43 *525:49 *540:77 6.25829e-05
44 *525:49 *540:79 0.000552802
45 *525:49 *544:27 0
46 *525:49 *544:29 0
47 *525:60 *534:108 4.08537e-05
48 *525:60 *540:77 0.000103949
49 *525:77 *534:108 0.000134687
50 *525:77 *540:77 0.000263098
51 *525:88 *534:108 0.00011218
52 *525:88 *538:103 2.71291e-05
53 *525:88 *538:120 0
54 *525:88 *540:55 0.000147165
55 *525:88 *540:77 0.000187335
56 *525:112 *538:80 0
57 *525:112 *538:103 0.000586601
58 *525:112 *554:92 2.05503e-05
59 *525:129 *549:67 0.000794077
60 *2213:B1 *525:112 0.000253905
61 *2218:A2 *525:129 1.97789e-05
62 *2249:B1 *525:112 0.000122125
63 *2295:A_N *2287:A1 1.24376e-05
64 *2312:A1 *525:49 0
65 *2313:B *525:49 0
66 *2313:B *525:60 0
67 *2313:B *525:70 0.000213486
68 *2367:B *525:31 0.000181943
69 *2421:B1 *2421:A1 5.50049e-05
70 *2421:B1 *525:31 0.000236326
71 *188:101 *525:112 0.000196925
72 *196:10 *525:129 0.000110922
73 *196:23 *525:129 0.000229693
74 *197:135 *525:129 0.000112604
75 *198:12 *2208:B2 2.93747e-05
76 *199:18 *525:129 0.000109064
77 *199:31 *525:112 0.000100185
78 *199:31 *525:129 0
79 *199:48 *525:112 6.5074e-05
80 *199:52 *525:112 0.00013432
81 *202:6 *525:129 2.93845e-05
82 *202:16 *525:129 0.000141327
83 *205:120 *525:129 1.21972e-05
84 *211:8 *525:129 7.88926e-05
85 *254:10 *2261:A 2.64616e-05
86 *272:10 *525:112 7.20089e-05
87 *280:8 *525:88 0
88 *288:8 *525:88 0.000114092
89 *298:10 *525:112 0.000339769
90 *299:10 *525:112 0
91 *300:10 *525:112 0
92 *305:14 *525:70 9.0102e-05
93 *305:29 *525:70 0.000160182
94 *311:10 *2421:A1 0.000143655
95 *335:10 *525:112 6.41609e-05
96 *364:8 *2421:A1 4.79641e-05
97 *489:76 *525:129 6.07611e-06
98 *490:29 *525:31 0.000223645
99 *511:10 *525:129 0
100 *511:14 *525:129 0
101 *514:8 *2208:B2 2.31209e-05
102 *514:8 *525:129 0.000338208
103 *514:33 *525:112 0
104 *519:41 *525:20 0.000820219
105 *519:52 *525:88 0
106 *519:52 *525:112 0
107 *519:72 *525:112 0
108 *523:65 *525:20 0.000110913
109 *523:127 *2310:A 5.61255e-06
*RES
1 *2443:X *525:6 23.6214 
2 *525:6 *525:8 3.48 
3 *525:8 *525:20 44.7279 
4 *525:20 *2407:B 23 
5 *525:8 *525:31 36.4836 
6 *525:31 *2421:A1 25.0714 
7 *525:31 *2364:A 23 
8 *525:6 *525:49 23.2443 
9 *525:49 *2310:A 39.0979 
10 *525:49 *525:60 1.55357 
11 *525:60 *525:70 49.785 
12 *525:70 *2311:B2 23 
13 *525:60 *525:77 3.66643 
14 *525:77 *2261:A 43.8621 
15 *525:77 *525:88 9.65286 
16 *525:88 *525:90 15 
17 *525:90 *2286:B 23 
18 *525:90 *2287:A1 28.0957 
19 *525:88 *525:112 32.1796 
20 *525:112 *2208:B2 40.3718 
21 *525:112 *525:129 39.3289 
22 *525:129 *2211:A 23 
*END

*D_NET *526 0.0284528
*CONN
*I *2249:A1 I *D sky130_fd_sc_hd__a221o_1
*I *2193:B I *D sky130_fd_sc_hd__or4_1
*I *2178:A1 I *D sky130_fd_sc_hd__o211a_1
*I *2175:A0 I *D sky130_fd_sc_hd__mux2_1
*I *2223:A I *D sky130_fd_sc_hd__nand2_1
*I *2224:A I *D sky130_fd_sc_hd__xnor2_1
*I *2115:B I *D sky130_fd_sc_hd__or2_2
*I *2173:B I *D sky130_fd_sc_hd__nand2_1
*I *2406:B2 I *D sky130_fd_sc_hd__a22o_1
*I *2443:A I *D sky130_fd_sc_hd__buf_2
*I *2444:X O *D sky130_fd_sc_hd__clkbuf_4
*CAP
1 *2249:A1 5.93188e-05
2 *2193:B 0.000143814
3 *2178:A1 0
4 *2175:A0 0
5 *2223:A 0.000138086
6 *2224:A 0.000137272
7 *2115:B 0.0002819
8 *2173:B 2.58191e-05
9 *2406:B2 0.000347419
10 *2443:A 0
11 *2444:X 6.38531e-05
12 *526:108 0.000957732
13 *526:86 0.000777171
14 *526:84 0.00118269
15 *526:80 0.000142716
16 *526:78 0.00164273
17 *526:62 0.00206215
18 *526:56 0.000470257
19 *526:52 0.00178233
20 *526:33 0.000635733
21 *526:25 0.00233128
22 *526:12 0.000452124
23 *526:8 0.000231854
24 *2193:B *529:63 6.88885e-05
25 *2224:A *551:143 0.0003489
26 *2406:B2 *2406:A1 0.000134676
27 *2406:B2 *2406:B1 2.06616e-05
28 *2406:B2 *2407:C 1.22822e-05
29 *526:8 *544:27 5.61311e-05
30 *526:25 *540:93 0.000232633
31 *526:33 *2407:C 0.00010018
32 *526:33 *529:14 0.000903658
33 *526:33 *529:24 9.43172e-05
34 *526:33 *535:21 4.95487e-06
35 *526:33 *549:6 0.000139352
36 *526:33 *549:14 0.000305431
37 *526:52 *545:36 9.78179e-05
38 *526:52 *545:42 6.97553e-05
39 *526:52 *545:101 0.00017585
40 *526:52 *555:43 4.77911e-05
41 *526:52 *555:60 8.02315e-05
42 *526:62 *529:63 0.000306771
43 *526:62 *529:71 0
44 *526:78 *2178:C1 9.45591e-05
45 *526:78 *2192:A 7.07833e-06
46 *526:78 *538:14 0.000298506
47 *526:78 *538:21 2.32004e-05
48 *526:78 *538:51 0.00037069
49 *526:78 *538:74 4.45839e-05
50 *526:78 *552:8 2.16066e-05
51 *526:78 *553:26 1.44086e-05
52 *526:78 *554:82 6.46682e-05
53 *526:80 *2178:C1 5.67058e-05
54 *526:86 *547:105 1.22803e-05
55 *2173:A *2115:B 9.98891e-05
56 *2173:A *2173:B 6.17437e-06
57 *2175:S *526:80 5.50049e-05
58 *2177:B *526:108 1.99391e-05
59 *2187:A1 *526:108 0.000171315
60 *2192:B *526:78 0.00018625
61 *2227:B1 *526:108 0
62 *2235:A3 *2223:A 2.60152e-05
63 *2246:B *526:52 0
64 *2249:A2 *2249:A1 1.46586e-05
65 *2249:C1 *2249:A1 3.62204e-05
66 *2249:C1 *526:62 0.000100733
67 *2292:A *526:52 0
68 *2307:A2 *526:78 0.00044107
69 *2350:A2 *526:52 1.06628e-05
70 *2430:B1 *526:52 0.000159938
71 *2455:A *526:78 6.55539e-05
72 *2468:A *526:62 0.000529601
73 *97:38 *526:86 4.06408e-05
74 *107:66 *2115:B 0
75 *107:66 *2173:B 5.50106e-05
76 *107:66 *526:86 3.70094e-05
77 *166:10 *2115:B 6.48142e-05
78 *166:10 *526:86 0
79 *166:10 *526:108 0
80 *167:12 *526:86 0
81 *167:12 *526:108 0
82 *167:23 *526:108 7.81176e-05
83 *170:8 *526:80 0.00020956
84 *170:8 *526:84 0.00014196
85 *181:16 *2224:A 0.000189272
86 *184:8 *526:62 0.000115013
87 *184:8 *526:78 8.62783e-05
88 *188:56 *526:52 0.000284694
89 *205:12 *526:52 1.69668e-05
90 *205:18 *526:52 0.000218962
91 *205:55 *526:78 4.15283e-06
92 *216:17 *526:108 0
93 *218:10 *2223:A 3.97399e-05
94 *218:10 *526:108 0.00015431
95 *222:10 *2223:A 0.000126343
96 *222:10 *526:108 3.70094e-05
97 *223:10 *2223:A 1.34354e-05
98 *223:10 *526:108 1.19692e-05
99 *224:10 *2223:A 5.56203e-05
100 *239:8 *526:52 0
101 *242:12 *526:62 0.00130398
102 *254:10 *526:52 0.000138708
103 *257:10 *526:52 0.000166522
104 *273:39 *526:108 0.000550491
105 *284:10 *526:52 0.000234675
106 *287:10 *526:52 0.000169674
107 *490:29 *526:25 5.68423e-05
108 *490:29 *526:52 0.000514477
109 *490:42 *526:52 0.000176041
110 *490:55 *526:52 0.000133453
111 *492:31 *526:78 0
112 *497:22 *526:78 0.000269775
113 *497:22 *526:80 6.22712e-05
114 *497:88 *526:12 2.64616e-05
115 *497:88 *526:25 1.03836e-05
116 *501:19 *526:78 0.000766027
117 *501:19 *526:80 0.000126065
118 *501:19 *526:84 7.88926e-05
119 *512:63 *2115:B 9.17394e-05
120 *512:63 *526:108 0
121 *516:30 *526:108 0.000308121
122 *519:27 *526:8 0.000169674
123 *519:41 *526:33 1.21972e-05
124 *520:124 *526:62 0
125 *523:65 *526:25 3.50267e-05
126 *523:65 *526:52 0.000167309
127 *523:73 *526:52 1.83667e-05
128 *523:85 *526:52 0
129 *524:61 *526:86 0
130 *524:61 *526:108 0
131 *524:71 *526:108 3.72639e-05
132 *525:6 *526:12 2.4754e-05
133 *525:8 *526:12 2.32101e-05
134 *525:8 *526:25 0.000255642
135 *525:20 *526:25 0.000335201
136 *525:20 *526:33 0.000210786
*RES
1 *2444:X *526:8 40.2579 
2 *526:8 *526:12 18.0036 
3 *526:12 *2443:A 23 
4 *526:12 *526:25 23.4929 
5 *526:25 *526:33 41.4757 
6 *526:33 *2406:B2 43.3029 
7 *526:25 *526:52 43.8729 
8 *526:52 *526:56 15.4971 
9 *526:56 *526:62 31.4679 
10 *526:62 *526:78 49.4686 
11 *526:78 *526:80 3.95643 
12 *526:80 *526:84 16.5743 
13 *526:84 *526:86 8.24429 
14 *526:86 *2173:B 38.6214 
15 *526:86 *2115:B 42.8886 
16 *526:84 *526:108 17.4 
17 *526:108 *2224:A 42.4536 
18 *526:108 *2223:A 41.5836 
19 *526:80 *2175:A0 23 
20 *526:78 *2178:A1 23 
21 *526:62 *2193:B 40.0507 
22 *526:56 *2249:A1 24.0979 
*END

*D_NET *527 0.0177704
*CONN
*I *2361:B1 I *D sky130_fd_sc_hd__o211a_1
*I *2362:A1 I *D sky130_fd_sc_hd__a211oi_1
*I *2309:A I *D sky130_fd_sc_hd__nand2_1
*I *2216:B I *D sky130_fd_sc_hd__and3_1
*I *2215:B2 I *D sky130_fd_sc_hd__a22o_1
*I *2208:A2 I *D sky130_fd_sc_hd__a32o_1
*I *2201:A2 I *D sky130_fd_sc_hd__a22oi_1
*I *2202:A2 I *D sky130_fd_sc_hd__o22a_1
*I *2287:B2 I *D sky130_fd_sc_hd__a22oi_1
*I *2286:A I *D sky130_fd_sc_hd__and4_1
*I *2445:X O *D sky130_fd_sc_hd__buf_2
*CAP
1 *2361:B1 0
2 *2362:A1 0
3 *2309:A 0
4 *2216:B 0
5 *2215:B2 0
6 *2208:A2 0
7 *2201:A2 0
8 *2202:A2 0.000255917
9 *2287:B2 0
10 *2286:A 0.000105156
11 *2445:X 0.000198241
12 *527:127 0.00069072
13 *527:117 0.000816207
14 *527:109 0.000223777
15 *527:100 0.000172654
16 *527:87 0.000103791
17 *527:79 0.000555919
18 *527:52 0.000486896
19 *527:44 0.000731354
20 *527:36 0.00195517
21 *527:22 0.000105156
22 *527:20 0.00039912
23 *527:12 0.00233027
24 *527:6 0.00105237
25 *2202:A2 *2201:A1 3.53115e-05
26 *2286:A *2286:C 5.50106e-05
27 *2286:A *2287:A2 1.22822e-05
28 *2286:A *538:110 0.00014196
29 *2286:A *540:55 2.98648e-05
30 *527:6 *2445:A 1.94693e-05
31 *527:12 *529:53 0
32 *527:12 *549:39 0.000386978
33 *527:12 *557:22 0
34 *527:20 *538:103 3.21327e-05
35 *527:20 *545:118 0.000388071
36 *527:36 *529:53 0
37 *527:36 *549:39 0.00213343
38 *527:44 *2213:A1 0.000185428
39 *527:44 *2213:A2 2.4754e-05
40 *527:44 *544:48 0.00020956
41 *527:44 *551:76 5.3304e-05
42 *527:44 *551:92 2.80533e-05
43 *527:79 *544:48 8.72173e-05
44 *527:79 *549:39 4.92689e-05
45 *527:79 *549:52 9.62666e-05
46 *527:87 *2216:A 2.13216e-05
47 *527:87 *549:52 7.9389e-05
48 *527:87 *549:67 4.77164e-06
49 *527:127 *535:49 0.000110783
50 *527:127 *540:79 0.000136486
51 *2201:B1 *2202:A2 3.93777e-05
52 *2201:B1 *527:52 0.000296238
53 *2202:B2 *2202:A2 4.79641e-05
54 *2208:B1 *527:44 0.000386431
55 *2208:B2 *527:44 0.000181925
56 *2213:B1 *527:44 9.58714e-05
57 *2217:A *527:87 0
58 *2272:A *527:36 0
59 *2274:B1 *527:79 1.94522e-05
60 *2287:A1 *2286:A 0.000224605
61 *2310:A *527:127 6.17437e-06
62 *2312:A2 *527:127 3.17516e-05
63 *2314:A *527:127 2.64616e-05
64 *2362:C1 *527:127 0.00014196
65 *188:24 *2202:A2 5.50049e-05
66 *190:10 *527:52 0.000163361
67 *190:16 *527:52 3.47781e-05
68 *197:135 *527:44 1.14154e-05
69 *198:12 *527:44 0.000151634
70 *204:10 *527:44 2.47815e-05
71 *205:12 *527:52 0.000188926
72 *207:14 *527:100 0
73 *208:12 *527:87 6.36377e-06
74 *234:10 *527:36 0
75 *234:10 *527:79 9.52814e-06
76 *234:10 *527:100 1.02949e-05
77 *234:12 *527:36 0
78 *234:18 *527:36 2.47132e-05
79 *259:6 *527:6 1.61628e-05
80 *259:6 *527:12 8.97286e-06
81 *264:10 *527:36 0
82 *289:12 *527:20 4.96264e-05
83 *289:27 *527:12 0.000197479
84 *290:10 *527:12 0.000102396
85 *305:10 *527:127 5.37348e-06
86 *305:29 *527:127 2.93845e-05
87 *309:10 *527:12 4.6318e-06
88 *309:10 *527:109 0
89 *309:14 *527:117 3.65271e-05
90 *323:12 *527:12 0.000167153
91 *323:12 *527:109 0.000166513
92 *323:12 *527:117 7.87577e-05
93 *324:8 *527:12 0.000105553
94 *519:52 *527:127 6.93449e-05
95 *521:30 *527:52 2.02872e-05
96 *523:127 *527:127 2.93747e-05
*RES
1 *2445:X *527:6 25.5271 
2 *527:6 *527:12 30.3286 
3 *527:12 *527:20 35.9864 
4 *527:20 *527:22 15 
5 *527:22 *2286:A 26.48 
6 *527:22 *2287:B2 23 
7 *527:12 *527:36 28.6686 
8 *527:36 *527:44 27.6979 
9 *527:44 *527:52 36.38 
10 *527:52 *2202:A2 27.5364 
11 *527:52 *2201:A2 23 
12 *527:44 *2208:A2 23 
13 *527:36 *527:79 19.5571 
14 *527:79 *527:87 32.5064 
15 *527:87 *2215:B2 23 
16 *527:79 *527:100 32.7757 
17 *527:100 *2216:B 23 
18 *527:6 *527:109 17.2579 
19 *527:109 *527:117 17.6721 
20 *527:117 *527:127 40.7714 
21 *527:127 *2309:A 23 
22 *527:117 *2362:A1 23 
23 *527:109 *2361:B1 38 
*END

*D_NET *528 0.00543169
*CONN
*I *2270:A1 I *D sky130_fd_sc_hd__a21oi_1
*I *2219:B2 I *D sky130_fd_sc_hd__a32o_1
*I *2240:C I *D sky130_fd_sc_hd__and4b_1
*I *2239:A1_N I *D sky130_fd_sc_hd__o2bb2a_1
*I *2269:A I *D sky130_fd_sc_hd__and3_1
*I *2446:X O *D sky130_fd_sc_hd__buf_1
*CAP
1 *2270:A1 0
2 *2219:B2 0
3 *2240:C 0.000160211
4 *2239:A1_N 1.98425e-06
5 *2269:A 0.000235296
6 *2446:X 0.000188461
7 *528:55 0.000687079
8 *528:27 0.000207748
9 *528:19 0.00110272
10 *528:6 0.000793844
11 *2240:C *2239:A2_N 3.17027e-05
12 *2240:C *545:128 6.69016e-05
13 *2269:A *2446:A 3.76554e-05
14 *528:6 *2446:A 1.5769e-05
15 *528:19 *2238:B 5.96687e-05
16 *528:19 *541:66 8.4047e-05
17 *528:19 *555:64 0.000183805
18 *528:27 *2239:A2_N 2.69146e-05
19 *528:55 *544:48 2.75733e-06
20 *528:55 *551:92 0.000263309
21 *2217:A *528:19 2.99565e-05
22 *2239:B1 *2240:C 0.000182826
23 *2239:B2 *2240:C 5.50049e-05
24 *2240:A_N *2240:C 0.000181125
25 *2269:C *2269:A 8.25698e-05
26 *2270:B1 *2269:A 9.5877e-05
27 *2270:B1 *528:6 8.264e-05
28 *205:120 *528:55 1.09886e-05
29 *207:14 *528:19 4.3407e-05
30 *231:10 *528:27 6.64163e-06
31 *232:12 *2240:C 5.79161e-05
32 *233:8 *528:19 0.00024936
33 *233:8 *528:55 2.11157e-05
34 *235:8 *528:19 4.59027e-05
35 *263:36 *528:19 0.000136486
*RES
1 *2446:X *528:6 25.5271 
2 *528:6 *2269:A 26.5007 
3 *528:6 *528:19 25.7093 
4 *528:19 *528:27 15.9736 
5 *528:27 *2239:A1_N 23.1605 
6 *528:27 *2240:C 27.93 
7 *528:19 *528:55 33.3296 
8 *528:55 *2219:B2 23 
9 *528:6 *2270:A1 23 
*END

*D_NET *529 0.0254933
*CONN
*I *2446:A I *D sky130_fd_sc_hd__buf_1
*I *2193:A I *D sky130_fd_sc_hd__or4_1
*I *2176:B I *D sky130_fd_sc_hd__and2_1
*I *2186:B I *D sky130_fd_sc_hd__nor2_1
*I *2178:C1 I *D sky130_fd_sc_hd__o211a_1
*I *2445:A I *D sky130_fd_sc_hd__buf_2
*I *2407:A I *D sky130_fd_sc_hd__nand4_1
*I *2406:A1 I *D sky130_fd_sc_hd__a22o_1
*I *2447:X O *D sky130_fd_sc_hd__buf_2
*CAP
1 *2446:A 0.000291138
2 *2193:A 0
3 *2176:B 0
4 *2186:B 6.56198e-05
5 *2178:C1 0.000185051
6 *2445:A 2.28373e-05
7 *2407:A 0
8 *2406:A1 7.91102e-05
9 *2447:X 0.000133186
10 *529:92 6.56198e-05
11 *529:77 0.00182348
12 *529:71 0.00192326
13 *529:63 0.00252012
14 *529:53 0.00428236
15 *529:40 0.00188971
16 *529:24 0.000251487
17 *529:14 0.00174319
18 *529:8 0.00181494
19 *2406:A1 *2406:A2 9.84794e-05
20 *2406:A1 *2406:B1 2.18506e-05
21 *2406:A1 *2407:C 5.50106e-05
22 *2446:A *541:66 9.84851e-05
23 *529:14 *548:8 5.3304e-05
24 *529:24 *2406:B1 0
25 *529:24 *532:26 0.000121092
26 *529:24 *535:21 4.61838e-05
27 *529:53 *541:51 0
28 *529:71 *2192:A 0.000111412
29 *529:71 *552:26 1.33851e-05
30 *529:77 *552:26 5.50106e-05
31 *2193:B *529:63 6.88885e-05
32 *2248:A1 *529:77 2.29356e-05
33 *2248:A3 *529:77 4.5051e-05
34 *2249:C1 *529:63 0.000210959
35 *2250:A1 *529:77 3.7122e-06
36 *2269:A *2446:A 3.76554e-05
37 *2269:C *2446:A 4.41689e-05
38 *2270:B1 *2446:A 3.59538e-05
39 *2272:A *529:63 5.67058e-05
40 *2298:B *529:53 0
41 *2361:A1 *529:14 3.3123e-05
42 *2362:B1 *529:14 9.39159e-05
43 *2406:B2 *2406:A1 0.000134676
44 *2435:A *2186:B 5.3304e-05
45 *2468:A *529:63 0.000199904
46 *199:72 *529:77 0.000199347
47 *205:55 *529:71 1.22803e-05
48 *205:55 *529:77 7.00439e-06
49 *219:50 *2178:C1 6.16439e-05
50 *219:50 *2186:B 0.000224605
51 *219:50 *529:77 3.47781e-05
52 *240:8 *529:77 0.00142015
53 *242:12 *529:63 0.000157626
54 *259:6 *2445:A 2.93747e-05
55 *264:10 *2446:A 0.000393293
56 *264:10 *529:53 0
57 *266:8 *529:53 0.000113759
58 *273:8 *2178:C1 0.000191157
59 *273:22 *2186:B 0.000181131
60 *280:40 *529:53 0.000108672
61 *289:27 *529:53 0
62 *290:10 *529:53 0
63 *292:14 *529:53 0
64 *297:8 *529:53 0
65 *297:14 *529:53 0
66 *323:12 *529:14 6.78567e-05
67 *323:12 *529:40 5.08795e-05
68 *323:12 *529:53 0.000137462
69 *327:14 *529:53 0.00010763
70 *328:8 *529:53 0
71 *329:12 *529:53 0
72 *331:10 *529:53 0
73 *361:8 *529:14 0.000116314
74 *388:10 *529:53 0
75 *494:12 *529:14 0.000484865
76 *501:19 *2178:C1 0.000223698
77 *510:92 *2178:C1 6.7177e-06
78 *510:92 *529:77 1.17152e-05
79 *514:22 *529:63 0.000184527
80 *514:33 *529:63 0.000466103
81 *516:16 *529:77 4.08641e-05
82 *516:151 *2178:C1 7.20518e-05
83 *516:151 *529:77 1.12487e-05
84 *519:41 *529:14 1.74129e-05
85 *520:111 *529:71 0
86 *520:124 *529:71 1.14452e-05
87 *524:108 *529:71 5.0135e-05
88 *526:33 *529:14 0.000903658
89 *526:33 *529:24 9.43172e-05
90 *526:62 *529:63 0.000306771
91 *526:62 *529:71 0
92 *526:78 *2178:C1 9.45591e-05
93 *526:80 *2178:C1 5.67058e-05
94 *527:6 *2445:A 1.94693e-05
95 *527:12 *529:53 0
96 *527:36 *529:53 0
97 *528:6 *2446:A 1.5769e-05
*RES
1 *2447:X *529:8 39.5743 
2 *529:8 *529:14 46.5271 
3 *529:14 *529:24 34.205 
4 *529:24 *2406:A1 25.5479 
5 *529:24 *2407:A 23 
6 *529:8 *529:40 2.25786 
7 *529:40 *2445:A 38.6214 
8 *529:40 *529:53 48.5986 
9 *529:53 *529:63 34.8829 
10 *529:63 *529:71 34.64 
11 *529:71 *529:77 39.4429 
12 *529:77 *2178:C1 43.9864 
13 *529:77 *529:92 15 
14 *529:92 *2186:B 25.5271 
15 *529:92 *2176:B 23 
16 *529:63 *2193:A 23 
17 *529:53 *2446:A 30.3121 
*END

*D_NET *530 0.00892481
*CONN
*I *2204:B I *D sky130_fd_sc_hd__nor3_1
*I *2198:C_N I *D sky130_fd_sc_hd__or3b_4
*I *2203:B I *D sky130_fd_sc_hd__nor3_1
*I *2199:C I *D sky130_fd_sc_hd__or4b_4
*I *2205:C I *D sky130_fd_sc_hd__and4b_2
*I *1978:A_N I *D sky130_fd_sc_hd__and3b_2
*I *2195:C1 I *D sky130_fd_sc_hd__o2111a_1
*I *2196:D I *D sky130_fd_sc_hd__and4b_2
*I *2207:B_N I *D sky130_fd_sc_hd__and4bb_2
*I *2200:B I *D sky130_fd_sc_hd__or4b_4
*I *2448:X O *D sky130_fd_sc_hd__clkbuf_2
*CAP
1 *2204:B 9.30701e-05
2 *2198:C_N 0
3 *2203:B 0
4 *2199:C 0
5 *2205:C 4.55529e-05
6 *1978:A_N 0.000378556
7 *2195:C1 0
8 *2196:D 0
9 *2207:B_N 0.000449127
10 *2200:B 5.93186e-05
11 *2448:X 0
12 *530:108 3.17211e-05
13 *530:102 0.000468671
14 *530:61 0.000674508
15 *530:55 0.000432295
16 *530:51 0.000231232
17 *530:38 0.000177186
18 *530:25 0.000596362
19 *530:14 0.000266953
20 *530:6 0.000179757
21 *530:4 0.000426493
22 *2200:B *551:125 0
23 *2205:C *551:125 2.93747e-05
24 *530:61 *546:74 0
25 *1977:A *530:55 1.83667e-05
26 *2195:A1 *1978:A_N 3.31198e-05
27 *2195:A2 *530:61 0
28 *2195:D1 *530:61 4.68476e-05
29 *2196:C *530:25 0
30 *2198:B *530:102 1.14154e-05
31 *2200:D_N *530:6 5.50049e-05
32 *2200:D_N *530:14 0.000143655
33 *2203:A *530:14 0.000200052
34 *2205:A_N *530:38 0
35 *2205:D *530:55 7.55491e-05
36 *2205:D *530:61 2.08324e-05
37 *2218:A1 *2204:B 8.79295e-05
38 *2218:A1 *530:102 0.000311549
39 *2218:B2 *2204:B 0
40 *2448:A *530:6 3.22879e-05
41 *2448:A *530:102 5.70419e-05
42 *188:10 *2207:B_N 0.000270682
43 *189:36 *530:6 5.79042e-05
44 *189:36 *530:14 0
45 *189:36 *530:102 1.03836e-05
46 *190:10 *530:108 5.94125e-05
47 *190:107 *530:108 1.01436e-05
48 *192:8 *2200:B 6.07611e-06
49 *195:14 *2200:B 7.75329e-06
50 *197:10 *530:61 0.000111852
51 *197:62 *1978:A_N 2.02872e-05
52 *197:116 *1978:A_N 8.85483e-05
53 *200:8 *1978:A_N 4.5051e-05
54 *201:10 *530:61 9.21347e-06
55 *205:12 *530:108 6.16531e-05
56 *211:8 *530:51 0.00043937
57 *315:8 *530:55 2.24973e-05
58 *315:8 *530:61 5.7203e-05
59 *315:36 *2200:B 1.14452e-05
60 *326:12 *1978:A_N 0.000243938
61 *326:12 *530:61 9.84851e-05
62 *489:24 *2207:B_N 0.000137613
63 *489:24 *530:51 0.000228903
64 *489:26 *530:51 0.000223698
65 *492:16 *2200:B 6.7177e-06
66 *492:16 *530:25 3.98859e-05
67 *492:16 *530:38 2.22183e-05
68 *492:16 *530:51 1.86869e-05
69 *502:10 *530:61 0
70 *511:20 *530:102 3.68147e-05
71 *511:34 *530:6 0.0001396
72 *511:34 *530:14 0.000267525
73 *511:34 *530:102 7.1349e-05
74 *511:36 *530:14 9.67842e-05
75 *511:46 *530:55 0.000139647
76 *511:46 *530:61 8.94487e-05
77 *511:77 *1978:A_N 0.000100782
78 *511:77 *2200:B 2.3529e-05
79 *520:124 *530:61 1.58805e-05
*RES
1 *2448:X *530:4 23 
2 *530:4 *530:6 3.00357 
3 *530:6 *530:14 19.5986 
4 *530:14 *2200:B 39.2014 
5 *530:14 *530:25 1.90571 
6 *530:25 *2207:B_N 44.8357 
7 *530:25 *530:38 0.849286 
8 *530:38 *2196:D 38 
9 *530:38 *530:51 20.7586 
10 *530:51 *530:55 17.61 
11 *530:55 *530:61 20.8207 
12 *530:61 *2195:C1 23 
13 *530:61 *1978:A_N 29.8564 
14 *530:55 *2205:C 38.6214 
15 *530:51 *2199:C 23 
16 *530:6 *2203:B 23 
17 *530:4 *530:102 6.85643 
18 *530:102 *530:108 30.8493 
19 *530:108 *2198:C_N 23 
20 *530:102 *2204:B 24.595 
*END

*D_NET *531 0.0205775
*CONN
*I *2167:C1 I *D sky130_fd_sc_hd__a211o_1
*I *2146:A I *D sky130_fd_sc_hd__and3_1
*I *2145:B1 I *D sky130_fd_sc_hd__a21oi_1
*I *2161:C1 I *D sky130_fd_sc_hd__a221o_1
*I *2162:C1 I *D sky130_fd_sc_hd__a211o_1
*I *2138:B1 I *D sky130_fd_sc_hd__a21oi_4
*I *1979:C I *D sky130_fd_sc_hd__or4_4
*I *2057:B I *D sky130_fd_sc_hd__or4_1
*I *2056:B I *D sky130_fd_sc_hd__nor4_1
*I *2100:C1 I *D sky130_fd_sc_hd__a311oi_4
*I *2449:X O *D sky130_fd_sc_hd__clkbuf_4
*CAP
1 *2167:C1 7.1398e-05
2 *2146:A 0.000413099
3 *2145:B1 0
4 *2161:C1 0
5 *2162:C1 0.000161251
6 *2138:B1 0.000176027
7 *1979:C 0.000452649
8 *2057:B 0.000116243
9 *2056:B 0.000233037
10 *2100:C1 0
11 *2449:X 0.000199482
12 *531:125 0.00134522
13 *531:117 0.00106888
14 *531:93 0.000225018
15 *531:73 0.00212685
16 *531:56 0.00200796
17 *531:34 0.000855934
18 *531:22 0.00130358
19 *531:18 0.00104264
20 *531:12 0.000926965
21 *531:10 0.000329983
22 *531:6 0.000390627
23 *1979:C *1979:B 0.000503283
24 *1979:C *534:80 0.000308595
25 *2056:B *2056:A 5.50106e-05
26 *2056:B *539:60 0.000115658
27 *2057:B *534:52 2.12234e-05
28 *2057:B *534:56 2.52345e-05
29 *2138:B1 *542:102 0.00011451
30 *2162:C1 *536:64 0.000264559
31 *531:12 *542:10 2.01531e-05
32 *531:12 *542:16 2.99716e-05
33 *531:18 *542:16 0.000284998
34 *531:18 *543:60 6.16439e-05
35 *531:18 *546:8 0.000191166
36 *531:34 *539:60 0.000153758
37 *531:34 *543:12 2.68708e-05
38 *531:34 *543:20 2.76611e-06
39 *531:56 *534:48 0.000738486
40 *531:56 *542:16 0.000182826
41 *531:56 *542:33 8.43466e-05
42 *531:73 *536:70 0
43 *531:93 *536:64 0.000141164
44 *2093:C *531:34 6.25657e-05
45 *2105:A0 *531:73 2.62931e-05
46 *2118:B1 *531:18 0.000111709
47 *2123:A2 *531:34 1.5769e-05
48 *2123:B1 *531:34 5.56306e-05
49 *2145:A1 *2146:A 1.92007e-05
50 *2145:A2 *2146:A 0.000271033
51 *2161:A2 *2162:C1 6.9886e-05
52 *2162:A2 *2162:C1 6.74107e-05
53 *2165:A *531:18 0.000109795
54 *2167:B1 *531:117 0
55 *47:6 *2056:B 0
56 *61:6 *531:56 0.000309975
57 *61:27 *531:34 1.24376e-05
58 *67:14 *531:34 0.000209062
59 *75:12 *531:18 0
60 *75:12 *531:22 0
61 *84:22 *531:34 5.56279e-05
62 *85:10 *531:34 5.3304e-05
63 *86:10 *531:34 0.000187069
64 *100:64 *531:18 4.75381e-05
65 *108:14 *2162:C1 2.84288e-05
66 *126:29 *2167:C1 0.000185434
67 *126:29 *531:6 0.000100488
68 *126:29 *531:117 5.50049e-05
69 *129:23 *2162:C1 4.83025e-05
70 *129:23 *531:93 0.000269781
71 *136:12 *2146:A 6.25714e-05
72 *137:10 *2146:A 8.7283e-06
73 *137:10 *531:125 5.37348e-06
74 *144:12 *531:125 0
75 *147:14 *531:125 0
76 *153:10 *2162:C1 2.24739e-05
77 *158:8 *531:10 0
78 *158:8 *531:12 0
79 *158:12 *2167:C1 6.17437e-06
80 *283:10 *531:22 0
81 *283:89 *531:125 0
82 *471:22 *2057:B 1.01436e-05
83 *471:87 *531:18 7.76364e-06
84 *471:87 *531:22 1.62015e-05
85 *471:91 *531:10 0
86 *471:91 *531:125 0
87 *496:12 *531:12 7.70598e-05
88 *496:12 *531:18 8.73252e-05
89 *501:12 *531:125 0
90 *512:42 *531:73 0.00112885
91 *516:46 *531:73 0
92 *516:52 *2057:B 0
*RES
1 *2449:X *531:6 26.0036 
2 *531:6 *531:10 16.9057 
3 *531:10 *531:12 3.31429 
4 *531:12 *531:18 14.9971 
5 *531:18 *531:22 18.6664 
6 *531:22 *531:34 45.2043 
7 *531:34 *2100:C1 23 
8 *531:22 *2056:B 27.4743 
9 *531:18 *531:56 39.1971 
10 *531:56 *2057:B 39.9057 
11 *531:56 *531:73 40.4889 
12 *531:73 *1979:C 33.6264 
13 *531:12 *2138:B1 41.48 
14 *531:10 *531:93 18.0036 
15 *531:93 *2162:C1 28.3029 
16 *531:93 *2161:C1 23 
17 *531:6 *531:117 1.47071 
18 *531:117 *531:125 45.6807 
19 *531:125 *2145:B1 23 
20 *531:125 *2146:A 29.7321 
21 *531:117 *2167:C1 25.0507 
*END

*D_NET *532 0.00884419
*CONN
*I *2429:A2 I *D sky130_fd_sc_hd__a21oi_1
*I *2431:A2 I *D sky130_fd_sc_hd__a32o_1
*I *2430:A2 I *D sky130_fd_sc_hd__o22a_1
*I *2397:B I *D sky130_fd_sc_hd__xnor2_1
*I *2407:C I *D sky130_fd_sc_hd__nand4_1
*I *2406:A2 I *D sky130_fd_sc_hd__a22o_1
*I *2450:X O *D sky130_fd_sc_hd__clkbuf_2
*CAP
1 *2429:A2 0.000214303
2 *2431:A2 0
3 *2430:A2 0.000167532
4 *2397:B 0
5 *2407:C 5.64576e-05
6 *2406:A2 1.60486e-05
7 *2450:X 0.00020216
8 *532:26 0.000833871
9 *532:22 0.000960604
10 *532:18 0.000444724
11 *532:12 0.000149063
12 *532:8 0.000487573
13 *2406:A2 *2406:B1 0.00010018
14 *2407:C *2406:B1 4.17736e-05
15 *532:8 *553:26 2.56967e-05
16 *532:22 *552:50 0.000561356
17 *532:26 *535:19 0
18 *532:26 *535:21 0
19 *532:26 *551:21 5.05465e-05
20 *532:26 *552:50 0.00130818
21 *2352:B *532:8 4.37586e-06
22 *2392:A3 *2429:A2 0
23 *2406:A1 *2406:A2 9.84794e-05
24 *2406:A1 *2407:C 5.50106e-05
25 *2406:B2 *2407:C 1.22822e-05
26 *2430:A1 *532:18 0
27 *2431:A3 *2429:A2 0.000252877
28 *2431:A3 *532:12 0.000135547
29 *2432:B1 *532:8 9.64943e-05
30 *190:69 *2429:A2 1.75582e-05
31 *199:62 *2429:A2 0.000134904
32 *205:55 *2429:A2 2.68177e-05
33 *326:90 *532:18 0
34 *440:12 *532:26 0.000286832
35 *492:31 *2429:A2 0.000242733
36 *492:31 *532:12 0.000135547
37 *492:37 *532:12 1.14452e-05
38 *492:37 *532:22 0.00041014
39 *492:37 *532:26 3.92407e-05
40 *492:39 *532:26 0.000584771
41 *492:45 *532:26 0.000323559
42 *492:94 *2430:A2 2.94414e-05
43 *492:94 *532:18 4.37033e-05
44 *492:113 *2430:A2 4.38068e-06
45 *525:20 *2407:C 5.67058e-05
46 *526:33 *2407:C 0.00010018
47 *529:24 *532:26 0.000121092
*RES
1 *2450:X *532:8 40.5271 
2 *532:8 *532:12 16.9057 
3 *532:12 *532:18 1.96786 
4 *532:18 *532:22 22.54 
5 *532:22 *532:26 38.0343 
6 *532:26 *2406:A2 24.0979 
7 *532:26 *2407:C 25.0507 
8 *532:22 *2397:B 38 
9 *532:18 *2430:A2 25.0507 
10 *532:12 *2431:A2 23 
11 *532:8 *2429:A2 43.2614 
*END

*D_NET *533 0.00437379
*CONN
*I *2447:A I *D sky130_fd_sc_hd__buf_2
*I *2486:X O *D sky130_fd_sc_hd__clkbuf_1
*CAP
1 *2447:A 0
2 *2486:X 0.000449165
3 *533:16 0.00111145
4 *533:8 0.00156061
5 *2383:A *533:16 0.000246767
6 *2403:B *533:16 1.39317e-05
7 *319:12 *533:16 0
8 *361:25 *533:16 5.31444e-05
9 *363:10 *533:16 0.000138708
10 *382:8 *533:16 0
11 *383:10 *533:16 3.81554e-05
12 *384:10 *533:16 0
13 *406:8 *533:16 7.03663e-05
14 *407:8 *533:16 0
15 *429:10 *533:16 0.000134226
16 *430:8 *533:16 0.000557265
*RES
1 *2486:X *533:8 43.8621 
2 *533:8 *533:16 37.91 
3 *533:16 *2447:A 23 
*END

*D_NET *534 0.0328317
*CONN
*I *2147:A I *D sky130_fd_sc_hd__xor2_1
*I *2184:A1 I *D sky130_fd_sc_hd__a21oi_1
*I *1976:A I *D sky130_fd_sc_hd__inv_2
*I *2354:A I *D sky130_fd_sc_hd__xor2_1
*I *1979:D I *D sky130_fd_sc_hd__or4_4
*I *2361:C1 I *D sky130_fd_sc_hd__o211a_1
*I *2057:C I *D sky130_fd_sc_hd__or4_1
*I *2056:C I *D sky130_fd_sc_hd__nor4_1
*I *2100:B1 I *D sky130_fd_sc_hd__a311oi_4
*I *2122:A I *D sky130_fd_sc_hd__xnor2_1
*I *2451:X O *D sky130_fd_sc_hd__buf_4
*CAP
1 *2147:A 0
2 *2184:A1 0.000626549
3 *1976:A 0
4 *2354:A 0.000271919
5 *1979:D 0
6 *2361:C1 0
7 *2057:C 0
8 *2056:C 7.85131e-05
9 *2100:B1 0.000218189
10 *2122:A 8.69506e-05
11 *2451:X 0
12 *534:148 0.00112463
13 *534:146 0.00143163
14 *534:108 0.00074647
15 *534:98 0.0013177
16 *534:92 0.00198491
17 *534:80 0.00171981
18 *534:76 0.00214845
19 *534:56 0.000195838
20 *534:52 0.00172204
21 *534:48 0.000704428
22 *534:33 0.00137202
23 *534:29 0.000930657
24 *534:21 0.000705966
25 *534:8 0.000499168
26 *534:4 0.00108673
27 *2056:C *2055:A 2.4754e-05
28 *2056:C *2056:A 2.93845e-05
29 *2056:C *539:60 0.000398497
30 *2354:A *549:89 1.03955e-05
31 *534:21 *536:12 0
32 *534:21 *536:14 0
33 *534:21 *539:18 0.000196914
34 *534:29 *536:14 0
35 *534:29 *539:18 0.000393989
36 *534:29 *539:105 0.000480242
37 *534:56 *536:70 0
38 *534:76 *536:87 5.77328e-05
39 *534:76 *536:104 0.00123625
40 *534:92 *535:19 2.05503e-05
41 *534:92 *549:35 0.000153485
42 *534:92 *552:50 5.58873e-06
43 *534:98 *540:49 0.00129329
44 *534:98 *545:34 0.000282061
45 *534:108 *2310:D 1.4295e-06
46 *534:108 *2311:A2 0.000371722
47 *534:108 *538:120 0
48 *1979:C *534:80 0.000308595
49 *2056:D *2056:C 5.67058e-05
50 *2057:B *534:52 2.12234e-05
51 *2057:B *534:56 2.52345e-05
52 *2057:D *2056:C 0.000230604
53 *2100:A2 *2100:B1 7.53384e-06
54 *2124:A *534:48 7.43845e-05
55 *2128:A *534:48 6.95513e-05
56 *2139:A *534:29 0.000174996
57 *2139:B *534:29 4.96717e-05
58 *2183:A *2184:A1 0.000159176
59 *2183:A *534:148 4.40995e-05
60 *2184:B1 *2184:A1 1.67818e-05
61 *2313:B *534:108 5.21127e-05
62 *2340:B *2354:A 6.17437e-06
63 *2353:B1 *2354:A 1.22906e-05
64 *2361:A2 *534:108 9.84851e-05
65 *2398:A2 *2354:A 9.41704e-05
66 *2398:B1 *2354:A 5.3304e-05
67 *2451:A *534:146 5.08899e-05
68 *2456:A *534:146 0
69 *50:24 *534:92 5.02657e-05
70 *61:6 *534:48 0.00022167
71 *67:14 *2100:B1 5.67058e-05
72 *67:48 *2100:B1 0
73 *67:48 *534:33 0.000430264
74 *87:12 *2100:B1 0
75 *88:8 *2100:B1 0.000114092
76 *92:8 *2100:B1 0.000342125
77 *92:8 *534:33 0.000140249
78 *112:14 *534:146 4.21594e-06
79 *113:28 *2122:A 2.93747e-05
80 *113:28 *534:8 9.62764e-05
81 *113:28 *534:146 4.6318e-06
82 *114:10 *534:8 0.000187613
83 *116:10 *534:48 2.97422e-05
84 *117:12 *534:33 0
85 *132:16 *534:33 3.47781e-05
86 *133:10 *534:29 2.45549e-06
87 *135:14 *534:148 0.000408555
88 *139:10 *2184:A1 1.22822e-05
89 *175:8 *2184:A1 0.000442771
90 *183:12 *534:92 0
91 *191:74 *2354:A 2.61595e-05
92 *288:12 *534:98 7.44257e-05
93 *305:29 *534:108 0
94 *306:30 *534:108 0.000101068
95 *338:10 *2354:A 4.96264e-05
96 *352:10 *2354:A 3.47781e-05
97 *380:30 *534:92 0
98 *401:14 *534:92 0
99 *434:45 *534:92 4.75766e-05
100 *471:22 *534:56 5.58534e-05
101 *471:30 *534:48 0.000436767
102 *471:32 *534:48 0.00150865
103 *471:53 *2100:B1 7.77503e-05
104 *475:94 *2354:A 0.000423298
105 *475:94 *534:76 0.000519502
106 *497:14 *534:146 0
107 *497:46 *2354:A 0
108 *497:46 *534:76 0.000104003
109 *499:10 *534:146 0.000203098
110 *525:60 *534:108 4.08537e-05
111 *525:77 *534:108 0.000134687
112 *525:88 *534:108 0.00011218
113 *531:56 *534:48 0.000738486
*RES
1 *2451:X *534:4 23 
2 *534:4 *534:8 3.85286 
3 *534:8 *2122:A 24.595 
4 *534:8 *534:21 20.4271 
5 *534:21 *534:29 42.5114 
6 *534:29 *534:33 12.5114 
7 *534:33 *2100:B1 44.0486 
8 *534:33 *534:48 38.49 
9 *534:48 *534:52 15.6732 
10 *534:52 *534:56 16.7296 
11 *534:56 *2056:C 27.4329 
12 *534:56 *2057:C 23 
13 *534:52 *534:76 27.447 
14 *534:76 *534:80 21.3386 
15 *534:80 *534:92 35.1415 
16 *534:92 *534:98 46.3436 
17 *534:98 *534:108 29.7486 
18 *534:108 *2361:C1 23 
19 *534:80 *1979:D 23 
20 *534:76 *2354:A 44.8771 
21 *534:21 *1976:A 38 
22 *534:4 *534:146 48.1768 
23 *534:146 *534:148 10.8646 
24 *534:148 *2184:A1 33.0464 
25 *534:148 *2147:A 23 
*END

*D_NET *535 0.0140892
*CONN
*I *2390:A2 I *D sky130_fd_sc_hd__a21oi_1
*I *2392:A2 I *D sky130_fd_sc_hd__a32o_1
*I *2391:A2 I *D sky130_fd_sc_hd__o22a_1
*I *2362:A2 I *D sky130_fd_sc_hd__a211oi_1
*I *2407:D I *D sky130_fd_sc_hd__nand4_1
*I *2406:B1 I *D sky130_fd_sc_hd__a22o_1
*I *2398:A1 I *D sky130_fd_sc_hd__a21o_1
*I *2452:X O *D sky130_fd_sc_hd__clkbuf_2
*CAP
1 *2390:A2 0.000147951
2 *2392:A2 0
3 *2391:A2 0.000134553
4 *2362:A2 0
5 *2407:D 0
6 *2406:B1 0.00036255
7 *2398:A1 0.000212578
8 *2452:X 0
9 *535:79 0.000374668
10 *535:62 0.00144621
11 *535:49 0.00140913
12 *535:21 0.000509349
13 *535:19 0.00259566
14 *535:17 0.00281329
15 *535:4 0.000901206
16 *2390:A2 *553:12 0.000127134
17 *2390:A2 *553:18 1.05441e-05
18 *2398:A1 *549:89 2.07242e-05
19 *2406:B1 *549:14 0
20 *2406:B1 *551:21 0
21 *535:17 *549:89 0.00104021
22 *535:19 *549:14 0
23 *535:19 *552:50 0
24 *535:21 *549:14 0
25 *535:62 *537:58 2.26497e-05
26 *535:62 *552:50 0
27 *535:79 *553:18 1.00806e-05
28 *2312:A2 *535:49 0.000143655
29 *2314:A *535:49 2.64616e-05
30 *2362:C1 *535:49 4.65917e-05
31 *2398:B1 *2398:A1 5.41288e-05
32 *2406:A1 *2406:B1 2.18506e-05
33 *2406:A2 *2406:B1 0.00010018
34 *2406:B2 *2406:B1 2.06616e-05
35 *2407:C *2406:B1 4.17736e-05
36 *192:110 *535:62 0
37 *197:72 *2390:A2 0
38 *199:56 *2391:A2 0.000182832
39 *199:88 *535:79 0
40 *262:8 *535:19 3.884e-05
41 *353:10 *2398:A1 2.80512e-05
42 *393:8 *2390:A2 3.56679e-05
43 *394:12 *535:62 6.75896e-05
44 *394:12 *535:79 3.05664e-05
45 *395:10 *535:62 6.72526e-05
46 *395:10 *535:79 0
47 *396:8 *535:62 0
48 *400:6 *2398:A1 0.000181125
49 *400:6 *535:17 0.000440374
50 *400:12 *535:62 8.51329e-05
51 *403:8 *535:62 0
52 *435:10 *535:62 2.46922e-05
53 *492:16 *2390:A2 2.76611e-06
54 *492:113 *535:62 3.21549e-05
55 *499:31 *2398:A1 9.5877e-05
56 *519:41 *2406:B1 0
57 *523:81 *535:19 0
58 *523:81 *535:62 0
59 *523:85 *535:62 0
60 *524:14 *2406:B1 0
61 *526:33 *535:21 4.95487e-06
62 *527:127 *535:49 0.000110783
63 *529:24 *2406:B1 0
64 *529:24 *535:21 4.61838e-05
65 *532:26 *535:19 0
66 *532:26 *535:21 0
67 *534:92 *535:19 2.05503e-05
*RES
1 *2452:X *535:4 23 
2 *535:4 *2398:A1 28.1579 
3 *535:4 *535:17 33.2493 
4 *535:17 *535:19 17.0479 
5 *535:19 *535:21 2.61 
6 *535:21 *2406:B1 42.9869 
7 *535:21 *2407:D 38 
8 *535:19 *535:49 37.4336 
9 *535:49 *2362:A2 23 
10 *535:17 *535:62 19.5129 
11 *535:62 *2391:A2 40.0507 
12 *535:62 *535:79 4.01857 
13 *535:79 *2392:A2 38 
14 *535:79 *2390:A2 40.61 
*END

*D_NET *536 0.0307134
*CONN
*I *2153:A I *D sky130_fd_sc_hd__nand2_1
*I *2152:A I *D sky130_fd_sc_hd__nor2_1
*I *1979:A I *D sky130_fd_sc_hd__or4_4
*I *2309:B I *D sky130_fd_sc_hd__nand2_1
*I *2057:A I *D sky130_fd_sc_hd__or4_1
*I *2056:A I *D sky130_fd_sc_hd__nor4_1
*I *2136:B2 I *D sky130_fd_sc_hd__o2bb2a_1
*I *2120:A I *D sky130_fd_sc_hd__xor2_1
*I *2076:A I *D sky130_fd_sc_hd__and3_1
*I *2077:B1 I *D sky130_fd_sc_hd__a21o_1
*I *2453:X O *D sky130_fd_sc_hd__clkbuf_4
*CAP
1 *2153:A 0
2 *2152:A 0
3 *1979:A 0.00044453
4 *2309:B 0
5 *2057:A 2.60788e-05
6 *2056:A 0.000119026
7 *2136:B2 0
8 *2120:A 0.000214505
9 *2076:A 0
10 *2077:B1 0.000485237
11 *2453:X 0
12 *536:150 0.000203081
13 *536:142 0.0010783
14 *536:114 0.00119431
15 *536:104 0.00331808
16 *536:87 0.00208207
17 *536:70 0.00147972
18 *536:64 0.00371705
19 *536:14 0.00149631
20 *536:12 0.00148356
21 *536:6 0.00050999
22 *536:4 0.00210991
23 *1979:A *1985:A 7.28891e-05
24 *1979:A *2024:A1 0.000191148
25 *1979:A *540:34 0.00018979
26 *1979:A *547:18 8.62876e-05
27 *1979:A *554:56 0
28 *2056:A *539:60 1.03836e-05
29 *2056:A *542:33 4.93266e-05
30 *536:14 *539:18 0
31 *536:14 *539:32 6.88552e-05
32 *536:64 *542:10 0.000140259
33 *536:70 *542:33 0.000187929
34 *536:70 *543:75 0
35 *536:87 *542:33 0.00023818
36 *536:104 *542:33 0.00100612
37 *536:104 *547:18 3.33144e-05
38 *536:114 *2264:A2 0.000311278
39 *536:114 *2311:A2 0
40 *536:114 *547:18 5.3304e-05
41 *536:114 *548:112 9.41704e-05
42 *536:114 *548:118 0.000468482
43 *536:142 *539:140 8.30364e-05
44 *536:142 *539:155 0.000161909
45 *536:142 *543:75 0
46 *536:142 *543:90 0
47 *536:150 *539:140 5.67058e-05
48 *1991:A1 *536:114 1.56762e-05
49 *1991:C1 *536:114 2.28212e-05
50 *2024:B1 *1979:A 1.22906e-05
51 *2056:B *2056:A 5.50106e-05
52 *2056:C *2056:A 2.93845e-05
53 *2099:A2 *536:14 0
54 *2134:C_N *536:64 4.96305e-05
55 *2135:A1 *2120:A 0
56 *2137:A1 *536:64 1.21972e-05
57 *2137:A2 *536:64 9.67842e-05
58 *2143:A3 *536:64 2.98648e-05
59 *2143:B1 *536:64 5.12254e-05
60 *2158:D *536:142 3.47781e-05
61 *2161:B1 *536:70 5.0135e-05
62 *2161:B1 *536:142 1.17152e-05
63 *2162:C1 *536:64 0.000264559
64 *2182:A2 *536:142 5.3304e-05
65 *2502:A *536:114 0.000262837
66 *18:17 *536:14 0
67 *38:14 *536:104 0
68 *47:6 *2056:A 2.02517e-05
69 *48:10 *2056:A 9.5877e-05
70 *66:12 *536:14 0
71 *68:12 *2077:B1 0
72 *68:12 *536:14 0
73 *69:10 *2077:B1 7.59964e-05
74 *97:53 *536:142 2.68774e-05
75 *98:8 *536:142 0.000166522
76 *105:20 *536:70 8.18929e-05
77 *106:25 *536:70 0.000191148
78 *106:43 *536:70 2.60152e-05
79 *107:25 *536:70 4.59027e-05
80 *107:35 *536:70 1.37246e-05
81 *113:8 *2120:A 0
82 *114:27 *536:64 1.92253e-05
83 *123:30 *536:64 0.000187353
84 *126:39 *536:142 6.78033e-05
85 *126:52 *536:142 0
86 *128:12 *536:64 4.83252e-05
87 *129:23 *536:64 0.000137103
88 *129:31 *536:142 0
89 *130:16 *536:64 1.01057e-05
90 *130:37 *536:142 0.000215393
91 *143:14 *536:150 5.67058e-05
92 *145:8 *536:142 0.000226295
93 *145:23 *536:142 4.6318e-06
94 *147:14 *536:142 0
95 *149:10 *536:142 0.000108681
96 *151:10 *536:70 7.75329e-06
97 *152:8 *536:70 3.31683e-05
98 *152:8 *536:142 1.62015e-05
99 *157:8 *536:70 0.000165593
100 *256:10 *536:114 5.41288e-05
101 *257:10 *536:114 3.22879e-05
102 *283:10 *536:70 1.34354e-05
103 *283:89 *536:70 0.000177369
104 *283:89 *536:142 0
105 *304:6 *2120:A 9.76358e-05
106 *337:10 *1979:A 0.000106987
107 *380:10 *536:114 5.70419e-05
108 *380:30 *1979:A 4.39444e-06
109 *401:14 *1979:A 2.05503e-05
110 *401:14 *536:104 2.25536e-05
111 *454:32 *1979:A 0
112 *471:22 *2056:A 0
113 *471:22 *2057:A 4.97925e-05
114 *471:30 *536:70 0
115 *474:10 *1979:A 7.48331e-05
116 *474:10 *536:104 4.68153e-05
117 *497:12 *536:6 0.000352426
118 *497:12 *536:12 0.000141954
119 *497:12 *536:64 0.000136743
120 *498:14 *536:64 1.32939e-05
121 *516:52 *2057:A 0
122 *517:90 *536:114 5.22214e-05
123 *523:73 *536:114 4.66047e-05
124 *523:127 *536:114 9.45748e-05
125 *524:22 *536:114 0.00111672
126 *531:73 *536:70 0
127 *531:93 *536:64 0.000141164
128 *534:21 *536:12 0
129 *534:21 *536:14 0
130 *534:29 *536:14 0
131 *534:56 *536:70 0
132 *534:76 *536:87 5.77328e-05
133 *534:76 *536:104 0.00123625
*RES
1 *2453:X *536:4 23 
2 *536:4 *536:6 3.95643 
3 *536:6 *536:12 18.9564 
4 *536:12 *536:14 19.5129 
5 *536:14 *2077:B1 47.5286 
6 *536:14 *2076:A 38 
7 *536:12 *2120:A 41.9771 
8 *536:6 *2136:B2 23 
9 *536:4 *536:64 43.7514 
10 *536:64 *536:70 20.2275 
11 *536:70 *2056:A 40.7446 
12 *536:70 *536:87 8.91467 
13 *536:87 *2057:A 46.6732 
14 *536:87 *536:104 14.654 
15 *536:104 *536:114 43.3164 
16 *536:114 *2309:B 23 
17 *536:104 *1979:A 47.2593 
18 *536:64 *536:142 32.8764 
19 *536:142 *536:150 32.6721 
20 *536:150 *2152:A 23 
21 *536:142 *2153:A 23 
*END

*D_NET *537 0.0228094
*CONN
*I *2349:A2 I *D sky130_fd_sc_hd__a32o_1
*I *2348:A2 I *D sky130_fd_sc_hd__o22a_1
*I *2347:A2 I *D sky130_fd_sc_hd__a21oi_1
*I *2421:A2 I *D sky130_fd_sc_hd__a31o_1
*I *2405:B I *D sky130_fd_sc_hd__nand2_1
*I *2364:B I *D sky130_fd_sc_hd__nand2_1
*I *2353:A1 I *D sky130_fd_sc_hd__a21o_1
*I *2340:A I *D sky130_fd_sc_hd__xnor2_1
*I *2454:X O *D sky130_fd_sc_hd__buf_2
*CAP
1 *2349:A2 3.72011e-05
2 *2348:A2 0
3 *2347:A2 0
4 *2421:A2 8.73399e-05
5 *2405:B 0.000781546
6 *2364:B 0
7 *2353:A1 0
8 *2340:A 0
9 *2454:X 0.000232978
10 *537:88 0.000966876
11 *537:78 0.00191068
12 *537:76 0.00188037
13 *537:66 0.00039703
14 *537:58 0.00112598
15 *537:32 0.000222355
16 *537:22 0.00119004
17 *537:10 0.00202129
18 *537:8 0.000352477
19 *2349:A2 *546:38 0.000102638
20 *2405:B *555:18 5.50049e-05
21 *537:10 *546:38 0.000163692
22 *537:22 *2342:A 0.000141052
23 *537:22 *2356:A 2.80512e-05
24 *537:22 *546:38 0.000781831
25 *537:22 *553:28 5.37348e-06
26 *537:22 *554:62 2.25809e-05
27 *537:32 *549:89 1.57571e-05
28 *537:76 *538:86 2.93747e-05
29 *537:78 *540:79 0
30 *537:78 *555:43 0.000278675
31 *537:88 *555:18 8.48502e-06
32 *2246:A_N *537:58 0.000175174
33 *2291:B1 *2405:B 9.58714e-05
34 *2315:B1 *2405:B 0.000308039
35 *2340:B *537:32 5.41385e-05
36 *2341:B *537:22 4.21378e-05
37 *2350:A2 *537:66 9.28078e-06
38 *2353:A2 *537:32 2.64616e-05
39 *2355:A *537:22 0.000356724
40 *2367:B *537:78 0.000187996
41 *2393:B1 *537:58 5.50049e-05
42 *2396:A2 *537:22 0.000103637
43 *2405:A *2405:B 3.75082e-05
44 *2405:A *537:88 0
45 *2413:A *2405:B 0.000195942
46 *2421:A1 *2405:B 5.90675e-06
47 *2421:A1 *537:88 2.02517e-05
48 *2421:B1 *537:78 0.000231854
49 *2454:A *537:8 0.000308039
50 *188:71 *537:58 6.70361e-05
51 *190:24 *537:66 4.26048e-06
52 *191:68 *537:32 0.000169097
53 *286:6 *2405:B 2.18506e-05
54 *294:70 *537:32 1.22906e-05
55 *302:18 *537:58 0.00128236
56 *311:10 *2405:B 2.80394e-05
57 *311:10 *537:88 5.50106e-05
58 *341:10 *537:22 0.000310653
59 *346:10 *537:66 6.0643e-05
60 *346:10 *537:76 5.67058e-05
61 *350:16 *537:58 0.000644277
62 *352:10 *537:22 1.94812e-05
63 *353:16 *537:22 0.000209914
64 *355:10 *537:22 0.000230604
65 *364:8 *537:88 6.17437e-06
66 *365:10 *537:78 0.000162422
67 *367:10 *537:78 5.20214e-05
68 *394:12 *537:58 2.05503e-05
69 *438:18 *537:58 0.000229218
70 *486:44 *2405:B 0.000269781
71 *490:29 *537:78 0
72 *490:29 *537:88 2.24608e-05
73 *490:42 *537:66 0.000134088
74 *490:55 *537:66 3.55303e-05
75 *497:46 *537:32 0.000136486
76 *519:52 *537:78 0.00233502
77 *520:98 *2349:A2 0.000117244
78 *520:98 *537:10 0.00016956
79 *520:98 *537:22 0.00078238
80 *520:138 *2421:A2 1.27424e-05
81 *523:47 *2421:A2 0
82 *523:47 *537:78 5.27196e-05
83 *525:31 *537:78 2.3529e-05
84 *535:62 *537:58 2.26497e-05
*RES
1 *2454:X *537:8 41.48 
2 *537:8 *537:10 2.43393 
3 *537:10 *537:22 42.7675 
4 *537:22 *537:32 34.5779 
5 *537:32 *2340:A 23 
6 *537:22 *2353:A1 23 
7 *537:10 *537:58 41.7149 
8 *537:58 *537:66 33.1071 
9 *537:66 *537:76 19.0186 
10 *537:76 *537:78 39.0568 
11 *537:78 *537:88 18.0139 
12 *537:88 *2364:B 23 
13 *537:88 *2405:B 37.9971 
14 *537:78 *2421:A2 39.4189 
15 *537:66 *2347:A2 23 
16 *537:58 *2348:A2 23 
17 *537:8 *2349:A2 39.5536 
*END

*D_NET *538 0.0209786
*CONN
*I *2302:A2 I *D sky130_fd_sc_hd__a21oi_1
*I *2287:B1 I *D sky130_fd_sc_hd__a22oi_1
*I *2310:D I *D sky130_fd_sc_hd__and4_1
*I *2311:B1 I *D sky130_fd_sc_hd__a22oi_1
*I *2286:D I *D sky130_fd_sc_hd__and4_1
*I *2303:A2 I *D sky130_fd_sc_hd__o22a_1
*I *2305:A2 I *D sky130_fd_sc_hd__a32o_1
*I *2339:A1 I *D sky130_fd_sc_hd__o21a_1
*I *1979:B I *D sky130_fd_sc_hd__or4_4
*I *2282:A I *D sky130_fd_sc_hd__xor2_1
*I *2455:X O *D sky130_fd_sc_hd__buf_2
*CAP
1 *2302:A2 0
2 *2287:B1 2.39682e-05
3 *2310:D 9.39535e-05
4 *2311:B1 0
5 *2286:D 0
6 *2303:A2 0
7 *2305:A2 0
8 *2339:A1 5.5367e-05
9 *1979:B 0.000559859
10 *2282:A 0
11 *2455:X 0
12 *538:120 0.00073026
13 *538:110 0.000703337
14 *538:103 0.000632625
15 *538:86 0.000902561
16 *538:80 0.000643341
17 *538:74 0.00145713
18 *538:51 0.00188576
19 *538:25 0.00127304
20 *538:21 0.00151907
21 *538:14 0.000249493
22 *538:4 0.000351762
23 *1979:B *542:69 8.40582e-05
24 *2287:B1 *2287:A2 2.02872e-05
25 *2310:D *2311:A2 0.000277932
26 *2339:A1 *546:25 7.15126e-05
27 *538:25 *542:69 0.00026753
28 *538:74 *2248:A2 0.000204948
29 *538:74 *546:63 0.000511548
30 *538:74 *552:8 2.12234e-05
31 *538:80 *555:60 2.02872e-05
32 *538:103 *544:29 0
33 *538:110 *2287:A2 0.000103637
34 *538:120 *544:29 0.000212882
35 *1979:C *1979:B 0.000503283
36 *2192:C *538:74 0.000117633
37 *2286:A *538:110 0.00014196
38 *2287:A1 *2287:B1 5.3304e-05
39 *2287:A1 *538:110 2.81041e-05
40 *2305:B1 *538:51 6.07611e-06
41 *2305:B1 *538:74 6.54368e-05
42 *2307:A2 *538:21 9.67842e-05
43 *2307:A2 *538:51 0.000354122
44 *2311:A1 *2310:D 0.00012239
45 *2312:A2 *538:120 3.70094e-05
46 *2313:C *538:120 0.000205648
47 *2344:A *538:25 0.000118889
48 *2347:B1 *538:86 0.00010973
49 *2469:A *538:74 5.50106e-05
50 *182:12 *2339:A1 0.000137651
51 *188:24 *538:80 0.000696701
52 *188:90 *538:86 0.00019012
53 *188:90 *538:103 7.88828e-05
54 *188:101 *538:80 8.17328e-05
55 *190:20 *538:80 3.47781e-05
56 *190:22 *538:80 0.000130588
57 *190:24 *538:80 2.33661e-05
58 *190:24 *538:86 0.000290306
59 *190:57 *538:74 3.90708e-05
60 *190:57 *538:80 0.000781042
61 *190:69 *538:74 0.000141154
62 *197:26 *538:51 0
63 *197:26 *538:74 0
64 *275:8 *538:14 6.16439e-05
65 *280:8 *538:120 9.2467e-06
66 *281:8 *538:120 0.000161888
67 *289:12 *538:103 0
68 *289:12 *538:120 0.000188926
69 *299:10 *538:103 0
70 *302:18 *538:74 0
71 *303:8 *538:51 0
72 *305:29 *538:120 0.000212621
73 *326:65 *538:51 0
74 *326:67 *538:51 0
75 *336:8 *538:25 4.95339e-05
76 *339:10 *538:25 0.000138727
77 *346:10 *538:86 2.95125e-05
78 *349:10 *538:51 3.98835e-05
79 *351:10 *538:51 2.96154e-05
80 *475:94 *1979:B 0.000133656
81 *475:94 *538:25 0.00052783
82 *492:16 *538:74 0.000183443
83 *497:46 *538:14 5.94125e-05
84 *501:19 *538:14 4.67488e-05
85 *507:12 *538:51 0
86 *514:58 *538:103 0
87 *519:52 *538:86 1.83667e-05
88 *519:61 *538:86 8.68016e-06
89 *519:72 *538:80 4.77164e-06
90 *519:72 *538:86 0.000117413
91 *519:104 *538:80 2.49196e-05
92 *521:58 *538:51 0
93 *525:88 *538:103 2.71291e-05
94 *525:88 *538:120 0
95 *525:112 *538:80 0
96 *525:112 *538:103 0.000586601
97 *526:78 *538:14 0.000298506
98 *526:78 *538:21 2.32004e-05
99 *526:78 *538:51 0.00037069
100 *526:78 *538:74 4.45839e-05
101 *527:20 *538:103 3.21327e-05
102 *534:108 *2310:D 1.4295e-06
103 *534:108 *538:120 0
104 *537:76 *538:86 2.93747e-05
*RES
1 *2455:X *538:4 23 
2 *538:4 *538:14 34.4743 
3 *538:14 *2282:A 23 
4 *538:4 *538:21 1.57429 
5 *538:21 *538:25 31.3436 
6 *538:25 *1979:B 48.005 
7 *538:25 *2339:A1 39.5743 
8 *538:21 *538:51 27.615 
9 *538:51 *2305:A2 38 
10 *538:51 *538:74 44.5745 
11 *538:74 *538:80 26.8071 
12 *538:80 *538:86 22.7057 
13 *538:86 *2303:A2 23 
14 *538:86 *538:103 43.8786 
15 *538:103 *2286:D 23 
16 *538:103 *538:110 2.05071 
17 *538:110 *538:120 45.3493 
18 *538:120 *2311:B1 23 
19 *538:120 *2310:D 26.5214 
20 *538:110 *2287:B1 23.6214 
21 *538:80 *2302:A2 38 
*END

*D_NET *539 0.0249193
*CONN
*I *2157:A I *D sky130_fd_sc_hd__nand2_1
*I *2156:A I *D sky130_fd_sc_hd__or2_1
*I *2127:A I *D sky130_fd_sc_hd__xor2_1
*I *2126:A I *D sky130_fd_sc_hd__and2_1
*I *2133:A1 I *D sky130_fd_sc_hd__o22a_1
*I *2409:D_N I *D sky130_fd_sc_hd__or4b_1
*I *2052:B1 I *D sky130_fd_sc_hd__a21oi_1
*I *2055:A I *D sky130_fd_sc_hd__and3_1
*I *2073:A I *D sky130_fd_sc_hd__or2_1
*I *2074:A I *D sky130_fd_sc_hd__xnor2_1
*I *2456:X O *D sky130_fd_sc_hd__buf_2
*CAP
1 *2157:A 0
2 *2156:A 1.17411e-05
3 *2127:A 4.11597e-05
4 *2126:A 7.26152e-05
5 *2133:A1 0
6 *2409:D_N 0
7 *2052:B1 1.9757e-05
8 *2055:A 5.97023e-05
9 *2073:A 0.000262235
10 *2074:A 0
11 *2456:X 2.34823e-05
12 *539:155 0.000186016
13 *539:140 0.00156596
14 *539:111 0.000149718
15 *539:105 0.0007314
16 *539:94 0.000718568
17 *539:73 0.0010906
18 *539:60 0.00155459
19 *539:43 0.00170178
20 *539:32 0.000367241
21 *539:24 0.00113731
22 *539:18 0.00187192
23 *539:12 0.00123754
24 *539:6 0.00169836
25 *539:94 *547:36 0
26 *539:155 *543:90 0
27 *2056:A *539:60 1.03836e-05
28 *2056:B *539:60 0.000115658
29 *2056:C *2055:A 2.4754e-05
30 *2056:C *539:60 0.000398497
31 *2057:D *2055:A 5.67058e-05
32 *2072:A1 *539:94 5.01986e-05
33 *2096:A *539:60 0.000161605
34 *2096:B *539:60 0.000306338
35 *2096:C *539:60 0.000128096
36 *2096:D_N *539:60 8.48502e-06
37 *2098:C_N *539:60 2.56944e-05
38 *2099:A1 *539:32 7.91871e-05
39 *2099:A1 *539:43 5.12328e-05
40 *2099:A2 *539:32 6.63698e-05
41 *2103:A0 *2073:A 5.09885e-05
42 *2103:A0 *539:24 0
43 *2103:A0 *539:43 4.24364e-05
44 *2120:B *539:18 0
45 *2123:A2 *539:60 0.000271695
46 *2140:B1 *2126:A 1.65153e-05
47 *2141:A *2126:A 5.56356e-05
48 *2141:A *539:105 0.000144494
49 *2141:C_N *539:105 2.4732e-05
50 *2141:C_N *539:111 0
51 *2151:A0 *539:140 0.00022789
52 *2151:S *539:140 0.000520162
53 *2153:B *539:140 5.67058e-05
54 *2182:A2 *2156:A 0
55 *2182:A2 *539:155 9.41704e-05
56 *2451:A *539:18 0.000196549
57 *2483:A *539:18 0
58 *44:8 *539:94 0.000166446
59 *45:36 *2052:B1 1.14452e-05
60 *45:36 *539:94 0.000186451
61 *45:57 *2052:B1 1.38978e-05
62 *45:57 *539:94 2.33476e-05
63 *47:6 *539:60 0
64 *49:10 *2055:A 5.3304e-05
65 *49:10 *539:73 0.000126914
66 *50:16 *539:94 0.000113153
67 *64:34 *2073:A 0.000175492
68 *65:10 *539:24 2.99716e-05
69 *66:12 *539:24 0.000122407
70 *67:48 *2073:A 0.000145946
71 *67:48 *539:43 6.08751e-05
72 *86:19 *539:60 0.00018304
73 *90:8 *2073:A 0.000140958
74 *93:16 *539:60 0.000191255
75 *94:8 *539:24 7.28526e-05
76 *95:8 *539:18 0
77 *95:8 *539:24 0.000410351
78 *95:19 *539:18 0
79 *112:14 *539:18 0
80 *113:28 *539:18 5.97612e-05
81 *115:10 *539:60 0.000271413
82 *117:12 *539:111 1.08978e-05
83 *117:27 *539:111 9.19153e-05
84 *118:17 *2126:A 0.000129111
85 *132:6 *2126:A 0.000216676
86 *132:6 *539:105 0.000189618
87 *132:16 *539:111 0
88 *133:10 *539:105 2.92911e-06
89 *143:14 *539:140 0.000440344
90 *144:6 *539:140 1.22822e-05
91 *145:8 *539:140 2.4754e-05
92 *173:10 *539:155 2.54046e-05
93 *241:16 *539:94 0.000528927
94 *304:14 *539:18 0.000130148
95 *471:22 *539:60 0.000226295
96 *471:40 *539:24 0
97 *471:40 *539:43 8.80821e-05
98 *471:53 *2073:A 6.7177e-06
99 *498:6 *2127:A 2.64616e-05
100 *499:10 *539:12 0.00018979
101 *499:10 *539:18 0.000482311
102 *516:52 *2052:B1 6.16439e-05
103 *516:52 *539:73 9.73644e-05
104 *516:76 *539:73 0
105 *516:76 *539:94 9.60977e-05
106 *531:34 *539:60 0.000153758
107 *534:21 *539:18 0.000196914
108 *534:29 *539:18 0.000393989
109 *534:29 *539:105 0.000480242
110 *536:14 *539:18 0
111 *536:14 *539:32 6.88552e-05
112 *536:142 *539:140 8.30364e-05
113 *536:142 *539:155 0.000161909
114 *536:150 *539:140 5.67058e-05
*RES
1 *2456:X *539:6 23.4971 
2 *539:6 *539:12 20.2614 
3 *539:12 *539:18 36.1079 
4 *539:18 *539:24 41.0614 
5 *539:24 *539:32 37.0429 
6 *539:32 *2074:A 23 
7 *539:24 *539:43 20.3857 
8 *539:43 *2073:A 45.105 
9 *539:43 *539:60 43.0264 
10 *539:60 *2055:A 24.5743 
11 *539:60 *539:73 21.4629 
12 *539:73 *2052:B1 38.8493 
13 *539:73 *539:94 32.3793 
14 *539:94 *2409:D_N 23 
15 *539:18 *539:105 9.36286 
16 *539:105 *539:111 33.3143 
17 *539:111 *2133:A1 23 
18 *539:105 *2126:A 26.0243 
19 *539:12 *2127:A 38.6214 
20 *539:6 *539:140 26.9907 
21 *539:140 *2156:A 23.4971 
22 *539:140 *539:155 33.48 
23 *539:155 *2157:A 23 
*END

*D_NET *540 0.0192572
*CONN
*I *2311:A2 I *D sky130_fd_sc_hd__a22oi_1
*I *2310:C I *D sky130_fd_sc_hd__and4_1
*I *2365:A2 I *D sky130_fd_sc_hd__a22oi_1
*I *2366:C I *D sky130_fd_sc_hd__and4_1
*I *2408:A2 I *D sky130_fd_sc_hd__a22o_1
*I *2287:A2 I *D sky130_fd_sc_hd__a22oi_1
*I *2286:C I *D sky130_fd_sc_hd__and4_1
*I *1980:A I *D sky130_fd_sc_hd__or2_2
*I *2024:A1 I *D sky130_fd_sc_hd__a21o_1
*I *1988:C1 I *D sky130_fd_sc_hd__a211oi_2
*I *2457:X O *D sky130_fd_sc_hd__buf_2
*CAP
1 *2311:A2 0.000188028
2 *2310:C 0
3 *2365:A2 0
4 *2366:C 0.00029761
5 *2408:A2 4.65006e-05
6 *2287:A2 0.000296706
7 *2286:C 5.34908e-05
8 *1980:A 6.96966e-05
9 *2024:A1 7.52141e-05
10 *1988:C1 0
11 *2457:X 0.00022919
12 *540:134 0.000242776
13 *540:112 0.000510791
14 *540:93 0.000865303
15 *540:79 0.00137616
16 *540:77 0.000660869
17 *540:55 0.000608929
18 *540:49 0.00142267
19 *540:34 0.00187262
20 *540:17 0.00109245
21 *540:8 0.00034549
22 *1980:A *545:23 2.84641e-05
23 *2408:A2 *551:21 7.0261e-05
24 *540:8 *550:94 6.12551e-05
25 *540:17 *1988:A1 5.3304e-05
26 *540:17 *550:94 0.000264559
27 *540:34 *545:23 2.24612e-05
28 *540:49 *545:23 8.06804e-06
29 *540:49 *545:34 1.48605e-05
30 *540:93 *545:42 9.87845e-05
31 *540:93 *548:18 0.000101007
32 *1972:A *1980:A 0
33 *1972:A *540:49 6.15314e-05
34 *1979:A *2024:A1 0.000191148
35 *1979:A *540:34 0.00018979
36 *1988:B1 *540:17 5.50049e-05
37 *2024:B1 *2024:A1 0.000154196
38 *2286:A *2286:C 5.50106e-05
39 *2286:A *2287:A2 1.22822e-05
40 *2286:A *540:55 2.98648e-05
41 *2287:A1 *2287:A2 2.30041e-05
42 *2287:B1 *2287:A2 2.02872e-05
43 *2295:A_N *2287:A2 8.50652e-06
44 *2310:A *540:134 2.64616e-05
45 *2310:D *2311:A2 0.000277932
46 *2311:A1 *2311:A2 2.33438e-05
47 *2311:A1 *540:134 2.93845e-05
48 *2365:A1 *2366:C 4.79641e-05
49 *2365:A1 *540:112 4.96717e-05
50 *2366:A *2366:C 0.000133588
51 *2366:A *540:112 6.17437e-06
52 *2366:D *2366:C 5.3304e-05
53 *2411:A1 *2408:A2 1.63599e-05
54 *38:14 *540:93 0.000302497
55 *288:8 *540:55 0.000116314
56 *305:10 *540:77 6.79006e-05
57 *306:30 *2311:A2 8.50652e-06
58 *337:10 *2024:A1 4.77461e-05
59 *337:10 *540:34 0.000151793
60 *337:38 *540:34 0.000301051
61 *348:8 *540:34 5.3304e-05
62 *365:10 *540:79 9.21347e-06
63 *365:10 *540:112 1.34354e-05
64 *367:10 *540:112 0.000110913
65 *409:8 *2408:A2 1.33899e-05
66 *497:69 *540:93 0.000978888
67 *497:88 *540:93 0.000478641
68 *497:88 *540:112 0.000139657
69 *519:27 *540:79 0
70 *519:27 *540:112 0
71 *519:52 *540:55 0.000205555
72 *519:52 *540:77 0.000152699
73 *519:52 *540:79 0.000113054
74 *523:47 *2366:C 5.50049e-05
75 *523:127 *540:134 2.64616e-05
76 *525:20 *540:93 1.41077e-05
77 *525:49 *540:77 6.25829e-05
78 *525:49 *540:79 0.000552802
79 *525:60 *540:77 0.000103949
80 *525:77 *540:77 0.000263098
81 *525:88 *540:55 0.000147165
82 *525:88 *540:77 0.000187335
83 *526:25 *540:93 0.000232633
84 *527:127 *540:79 0.000136486
85 *534:98 *540:49 0.00129329
86 *534:108 *2311:A2 0.000371722
87 *536:114 *2311:A2 0
88 *537:78 *540:79 0
89 *538:110 *2287:A2 0.000103637
*RES
1 *2457:X *540:8 26.7286 
2 *540:8 *1988:C1 23 
3 *540:8 *540:17 18.0036 
4 *540:17 *2024:A1 40.61 
5 *540:17 *540:34 28.5057 
6 *540:34 *1980:A 24.6779 
7 *540:34 *540:49 32.7729 
8 *540:49 *540:55 21.8771 
9 *540:55 *2286:C 24.4707 
10 *540:55 *2287:A2 28.308 
11 *540:49 *540:77 8.86571 
12 *540:77 *540:79 8.59643 
13 *540:79 *540:93 49.1496 
14 *540:93 *2408:A2 47.0254 
15 *540:79 *540:112 19.7073 
16 *540:112 *2366:C 28.4737 
17 *540:112 *2365:A2 23 
18 *540:77 *540:134 16.0979 
19 *540:134 *2310:C 23 
20 *540:134 *2311:A2 28.6291 
*END

*D_NET *541 0.00953816
*CONN
*I *2270:A2 I *D sky130_fd_sc_hd__a21oi_1
*I *2269:B I *D sky130_fd_sc_hd__and3_1
*I *2276:A2 I *D sky130_fd_sc_hd__o22a_1
*I *2275:A2 I *D sky130_fd_sc_hd__a21oi_1
*I *2277:A2 I *D sky130_fd_sc_hd__a32o_1
*I *2458:X O *D sky130_fd_sc_hd__dlymetal6s2s_1
*CAP
1 *2270:A2 0
2 *2269:B 0
3 *2276:A2 0
4 *2275:A2 2.34823e-05
5 *2277:A2 0
6 *2458:X 8.34375e-05
7 *541:66 0.000298895
8 *541:51 0.000121642
9 *541:45 0.00153664
10 *541:34 0.00120409
11 *541:25 0.00141825
12 *541:18 0.000385842
13 *541:10 0.00169263
14 *541:8 8.34375e-05
15 *541:66 *555:64 0.000133316
16 *2194:B *541:25 2.93845e-05
17 *2270:B1 *541:66 9.67842e-05
18 *2274:A2 *541:45 1.03836e-05
19 *2276:A1 *541:34 0.00014196
20 *2276:B2 *541:34 0.00010018
21 *2276:B2 *541:45 0.000105631
22 *2277:B1 *541:18 0
23 *2278:A2 *541:45 7.27694e-06
24 *2446:A *541:66 9.84851e-05
25 *186:10 *541:25 3.22465e-05
26 *190:16 *541:25 5.12254e-05
27 *190:16 *541:34 1.56762e-05
28 *197:18 *541:18 1.14452e-05
29 *197:20 *541:18 0.000213847
30 *261:10 *541:51 5.20202e-05
31 *263:10 *541:51 1.14452e-05
32 *263:36 *541:45 2.93747e-05
33 *263:36 *541:51 2.79064e-05
34 *263:36 *541:66 9.84767e-05
35 *264:10 *541:51 6.03634e-05
36 *265:6 *541:45 0.000170394
37 *265:10 *541:45 0.000140259
38 *266:8 *541:51 0
39 *267:6 *541:45 0.000524504
40 *270:20 *541:45 4.45125e-05
41 *507:12 *541:8 0.000189983
42 *521:58 *541:8 0.000189983
43 *524:83 *541:18 1.86973e-05
44 *528:19 *541:66 8.4047e-05
45 *529:53 *541:51 0
*RES
1 *2458:X *541:8 40.61 
2 *541:8 *541:10 15 
3 *541:10 *541:18 36.9186 
4 *541:18 *2277:A2 23 
5 *541:10 *541:25 22.0607 
6 *541:25 *2275:A2 23.4971 
7 *541:25 *541:34 2.52714 
8 *541:34 *2276:A2 23 
9 *541:34 *541:45 16.7371 
10 *541:45 *541:51 32.9621 
11 *541:51 *2269:B 23 
12 *541:45 *541:66 35.5307 
13 *541:66 *2270:A2 23 
*END

*D_NET *542 0.0303795
*CONN
*I *2131:A I *D sky130_fd_sc_hd__xnor2_1
*I *2149:B2 I *D sky130_fd_sc_hd__o32a_1
*I *2133:B2 I *D sky130_fd_sc_hd__o22a_1
*I *2457:A I *D sky130_fd_sc_hd__buf_2
*I *2458:A I *D sky130_fd_sc_hd__dlymetal6s2s_1
*I *2253:A I *D sky130_fd_sc_hd__xnor2_1
*I *2028:A I *D sky130_fd_sc_hd__nor2_1
*I *2023:A1 I *D sky130_fd_sc_hd__o21ba_1
*I *1974:A I *D sky130_fd_sc_hd__inv_2
*I *2459:X O *D sky130_fd_sc_hd__clkbuf_4
*CAP
1 *2131:A 0
2 *2149:B2 0
3 *2133:B2 0.000238032
4 *2457:A 0
5 *2458:A 0.000544124
6 *2253:A 0
7 *2028:A 0
8 *2023:A1 2.84005e-05
9 *1974:A 0
10 *2459:X 0.000162915
11 *542:146 0.000826661
12 *542:127 0.00112383
13 *542:102 0.00129904
14 *542:79 0.000317036
15 *542:71 0.00086116
16 *542:69 0.00172739
17 *542:67 0.00172739
18 *542:65 0.000477352
19 *542:54 0.000833485
20 *542:35 0.00126073
21 *542:33 0.00275273
22 *542:16 0.00238939
23 *542:10 0.00143962
24 *542:65 *550:94 0.000235867
25 *542:65 *550:104 0.000140668
26 *542:79 *2252:A2 0.000191166
27 *1979:B *542:69 8.40582e-05
28 *2008:A *542:54 0.000137651
29 *2041:A1 *542:54 0.000312348
30 *2041:B1 *542:54 0.000104127
31 *2056:A *542:33 4.93266e-05
32 *2118:B1 *542:16 0.000292865
33 *2131:B *542:146 8.38387e-05
34 *2133:B1 *2133:B2 3.7877e-05
35 *2138:A2 *542:102 0.000152662
36 *2138:B1 *542:102 0.00011451
37 *2149:B1 *542:127 0.000118304
38 *2149:B1 *542:146 4.77164e-06
39 *2151:S *542:146 7.37503e-05
40 *2155:A0 *542:146 0.000277167
41 *2165:A *542:16 0.000114092
42 *2255:A *2458:A 0
43 *2277:B1 *2458:A 9.24795e-06
44 *2344:A *542:69 0.000241355
45 *2345:B *542:69 0
46 *38:14 *542:33 0
47 *45:57 *542:33 0.000280381
48 *48:10 *542:33 2.24608e-05
49 *50:24 *542:69 0.000168873
50 *61:6 *542:16 0.000181125
51 *61:6 *542:33 9.67842e-05
52 *110:40 *542:127 1.05658e-05
53 *121:16 *2133:B2 4.65192e-05
54 *121:37 *542:127 0
55 *121:37 *542:146 0
56 *123:20 *542:146 0.00013449
57 *123:38 *542:127 0.000160734
58 *125:8 *2133:B2 6.99175e-05
59 *126:8 *542:127 3.76854e-05
60 *126:12 *2133:B2 4.29733e-05
61 *126:12 *542:102 9.77922e-06
62 *158:8 *542:10 3.83778e-05
63 *158:8 *542:16 0.000122304
64 *192:22 *2458:A 0
65 *192:80 *542:69 0
66 *247:14 *542:79 2.72055e-05
67 *250:20 *542:69 5.31444e-05
68 *251:8 *542:54 0.000139357
69 *276:10 *542:69 0
70 *279:12 *542:69 7.35181e-05
71 *283:10 *542:33 0.000131803
72 *336:8 *542:69 0.000317509
73 *344:10 *542:69 0.000187986
74 *353:10 *542:69 1.44813e-05
75 *456:27 *2023:A1 3.70094e-05
76 *457:10 *2023:A1 6.16439e-05
77 *457:10 *542:35 7.39034e-05
78 *457:16 *2023:A1 1.14452e-05
79 *470:10 *542:35 5.16299e-05
80 *470:10 *542:65 4.15283e-06
81 *471:22 *542:33 0
82 *471:87 *542:16 0.00086741
83 *471:135 *542:35 0.000215225
84 *472:10 *2023:A1 1.12487e-05
85 *472:10 *542:35 0.000186968
86 *475:84 *542:35 0.000157926
87 *475:94 *542:69 0
88 *477:14 *542:54 0.000135799
89 *477:31 *542:54 5.12055e-06
90 *497:46 *542:35 0.000527078
91 *497:46 *542:65 0.000483328
92 *498:27 *542:146 6.93267e-05
93 *499:31 *542:69 0.000297354
94 *506:16 *542:69 0
95 *506:16 *542:79 0.000133656
96 *510:111 *542:146 0.000317718
97 *510:120 *542:146 0.000206558
98 *512:18 *542:146 0
99 *516:76 *542:33 0
100 *518:119 *542:54 3.50723e-05
101 *524:83 *2458:A 0.000607156
102 *524:83 *542:79 0.00026808
103 *524:96 *2458:A 1.94693e-05
104 *531:12 *542:10 2.01531e-05
105 *531:12 *542:16 2.99716e-05
106 *531:18 *542:16 0.000284998
107 *531:56 *542:16 0.000182826
108 *531:56 *542:33 8.43466e-05
109 *536:64 *542:10 0.000140259
110 *536:70 *542:33 0.000187929
111 *536:87 *542:33 0.00023818
112 *536:104 *542:33 0.00100612
113 *538:25 *542:69 0.00026753
*RES
1 *2459:X *542:10 40.7757 
2 *542:10 *542:16 31.9857 
3 *542:16 *1974:A 23 
4 *542:16 *542:33 41.157 
5 *542:33 *542:35 12.2939 
6 *542:35 *2023:A1 38.8493 
7 *542:35 *542:54 30.1007 
8 *542:54 *2028:A 23 
9 *542:33 *542:65 26.5689 
10 *542:65 *542:67 15 
11 *542:67 *542:69 36.0636 
12 *542:69 *542:71 15 
13 *542:71 *542:79 36.67 
14 *542:79 *2253:A 23 
15 *542:71 *2458:A 31.6171 
16 *542:65 *2457:A 23 
17 *542:10 *542:102 24.6736 
18 *542:102 *2133:B2 27.495 
19 *542:102 *542:127 21.2557 
20 *542:127 *2149:B2 38 
21 *542:127 *542:146 31.1779 
22 *542:146 *2131:A 23 
*END

*D_NET *543 0.0238064
*CONN
*I *2001:A I *D sky130_fd_sc_hd__nor2_1
*I *2002:A I *D sky130_fd_sc_hd__or2_1
*I *1975:A I *D sky130_fd_sc_hd__inv_2
*I *2230:A I *D sky130_fd_sc_hd__xnor2_1
*I *2163:C1 I *D sky130_fd_sc_hd__o211a_1
*I *2107:A I *D sky130_fd_sc_hd__nor2_1
*I *2108:A I *D sky130_fd_sc_hd__and2_1
*I *2092:B1 I *D sky130_fd_sc_hd__a21oi_1
*I *2093:A I *D sky130_fd_sc_hd__and3_1
*I *2035:A I *D sky130_fd_sc_hd__nand2_1
*I *2460:X O *D sky130_fd_sc_hd__clkbuf_4
*CAP
1 *2001:A 9.10662e-05
2 *2002:A 0
3 *1975:A 0
4 *2230:A 0
5 *2163:C1 4.05375e-05
6 *2107:A 0
7 *2108:A 0
8 *2092:B1 0
9 *2093:A 8.37909e-06
10 *2035:A 0
11 *2460:X 0
12 *543:116 0.000630065
13 *543:103 0.000538999
14 *543:101 0.00151407
15 *543:90 0.0014459
16 *543:75 0.00204548
17 *543:71 0.0027132
18 *543:60 2.55832e-05
19 *543:54 0.000785483
20 *543:35 2.52614e-05
21 *543:26 0.000905056
22 *543:20 0.00190824
23 *543:12 0.00155636
24 *543:8 0.000715316
25 *543:4 0.000298827
26 *543:101 *546:25 0.000297285
27 *2001:B *2001:A 0.000173898
28 *2002:B *2001:A 0.00014196
29 *2044:B *543:26 0
30 *2053:A2 *543:26 0
31 *2079:B *543:26 0.000272383
32 *2093:C *2093:A 5.67058e-05
33 *2093:C *543:35 5.50049e-05
34 *2108:B *543:8 0.00023481
35 *2108:B *543:54 0.000166079
36 *2108:B *543:71 8.17328e-05
37 *2113:B *543:75 0
38 *2117:A2 *543:75 0
39 *2118:B1 *543:60 6.16439e-05
40 *2123:B1 *543:12 0
41 *2123:B1 *543:20 0
42 *2164:A1 *543:75 0
43 *2164:A2 *543:75 0
44 *2168:B *2163:C1 0.000140259
45 *2185:A1 *543:90 0
46 *2188:A *543:90 0
47 *2222:A *543:90 0
48 *34:36 *543:26 6.93449e-05
49 *39:10 *543:26 0
50 *39:29 *543:26 0
51 *45:8 *543:26 0.000245818
52 *45:36 *543:26 0.000312358
53 *61:23 *543:12 7.52589e-05
54 *64:22 *543:20 0.000136242
55 *67:14 *2093:A 3.22879e-05
56 *67:14 *543:35 2.18409e-05
57 *72:10 *543:26 0
58 *73:8 *543:26 0.000110913
59 *76:8 *543:20 1.14452e-05
60 *82:10 *543:20 3.3123e-05
61 *82:21 *543:20 3.36534e-05
62 *83:10 *543:12 0.000607464
63 *83:10 *543:20 0.000185755
64 *84:12 *543:20 0
65 *97:18 *543:71 0.000699814
66 *97:18 *543:101 0.000862584
67 *97:53 *543:75 0
68 *97:53 *543:90 0
69 *98:8 *543:90 0
70 *100:10 *543:8 2.3191e-05
71 *100:64 *543:12 0
72 *107:25 *543:75 0
73 *116:10 *543:12 0
74 *120:8 *543:12 2.54046e-05
75 *126:52 *543:75 0
76 *145:23 *543:90 0
77 *150:19 *543:90 0
78 *152:8 *543:75 0
79 *155:8 *543:90 0
80 *156:8 *543:75 0.000110207
81 *156:8 *543:90 4.41755e-05
82 *158:27 *2163:C1 7.59794e-05
83 *163:8 *543:90 0
84 *173:10 *543:90 0
85 *174:8 *543:90 0.00057082
86 *176:10 *543:90 0
87 *181:8 *543:90 0
88 *212:8 *543:90 0
89 *213:12 *543:90 0
90 *219:23 *543:101 0.000193173
91 *220:10 *543:90 0.000141954
92 *283:10 *543:26 2.96369e-05
93 *283:20 *543:26 9.60874e-05
94 *294:12 *543:101 6.16531e-05
95 *294:35 *543:26 0
96 *294:70 *543:101 0.000636449
97 *326:49 *543:90 0
98 *423:10 *543:116 7.63578e-05
99 *423:14 *543:116 3.98859e-05
100 *439:10 *2001:A 7.88926e-05
101 *452:10 *2001:A 1.94693e-05
102 *475:94 *543:116 0.000129995
103 *495:18 *543:12 0.00010858
104 *496:12 *543:12 0
105 *512:18 *543:12 0.000268221
106 *512:33 *543:12 5.19151e-05
107 *513:12 *543:20 6.17437e-06
108 *524:30 *543:116 0.000559366
109 *524:40 *543:101 0
110 *531:18 *543:60 6.16439e-05
111 *531:34 *543:12 2.68708e-05
112 *531:34 *543:20 2.76611e-06
113 *536:70 *543:75 0
114 *536:142 *543:75 0
115 *536:142 *543:90 0
116 *539:155 *543:90 0
*RES
1 *2460:X *543:4 23 
2 *543:4 *543:8 3.97714 
3 *543:8 *543:12 28.8786 
4 *543:12 *543:20 44.0443 
5 *543:20 *543:26 34.3471 
6 *543:26 *2035:A 23 
7 *543:12 *543:35 15.6214 
8 *543:35 *2093:A 23.6214 
9 *543:35 *2092:B1 23 
10 *543:8 *2108:A 23 
11 *543:4 *543:54 2.05071 
12 *543:54 *543:60 30.8493 
13 *543:60 *2107:A 23 
14 *543:54 *543:71 10.3157 
15 *543:71 *543:75 25.3571 
16 *543:75 *2163:C1 39.5743 
17 *543:75 *543:90 42.9021 
18 *543:90 *2230:A 23 
19 *543:71 *543:101 43.0264 
20 *543:101 *543:103 15 
21 *543:103 *1975:A 23 
22 *543:103 *543:116 42.1179 
23 *543:116 *2002:A 23 
24 *543:116 *2001:A 26.48 
*END

*D_NET *544 0.0160099
*CONN
*I *2215:A2 I *D sky130_fd_sc_hd__a22o_1
*I *2213:A1 I *D sky130_fd_sc_hd__o22a_1
*I *2444:A I *D sky130_fd_sc_hd__clkbuf_4
*I *2487:X O *D sky130_fd_sc_hd__buf_1
*CAP
1 *2215:A2 0
2 *2213:A1 3.05231e-05
3 *2444:A 0
4 *2487:X 0.000420681
5 *544:48 0.000284289
6 *544:31 0.000314812
7 *544:29 0.00171459
8 *544:27 0.00205313
9 *544:16 0.00155231
10 *544:8 0.00163445
11 *2213:A1 *2213:A2 0.000185428
12 *544:16 *555:12 0.00104046
13 *544:27 *557:22 0.000172841
14 *544:29 *557:22 0.00342314
15 *544:48 *2213:A2 0.000181131
16 *544:48 *549:52 0.000128923
17 *544:48 *551:92 1.98028e-05
18 *2274:B1 *544:29 0.000105062
19 *2274:B1 *544:48 0
20 *2296:A *544:29 0.000135557
21 *2312:A2 *544:29 0.000243587
22 *2313:C *544:29 0.000218013
23 *2486:A *544:8 2.82105e-05
24 *2488:A *544:8 9.4987e-05
25 *199:48 *544:29 0
26 *199:52 *544:29 0
27 *202:26 *544:48 1.70074e-05
28 *203:10 *544:29 0
29 *208:12 *544:48 1.06533e-05
30 *282:10 *544:29 0.000216721
31 *289:12 *544:29 2.60049e-05
32 *296:10 *544:29 0.000165294
33 *320:8 *544:16 0.000141879
34 *320:8 *544:27 0.000227497
35 *429:10 *544:8 0
36 *514:33 *544:29 0.000227345
37 *514:35 *544:29 7.60389e-05
38 *514:58 *544:29 0.000165581
39 *519:27 *544:16 0
40 *519:27 *544:27 0
41 *519:93 *544:29 0
42 *525:49 *544:27 0
43 *525:49 *544:29 0
44 *526:8 *544:27 5.61311e-05
45 *527:44 *2213:A1 0.000185428
46 *527:44 *544:48 0.00020956
47 *527:79 *544:48 8.72173e-05
48 *528:55 *544:48 2.75733e-06
49 *538:103 *544:29 0
50 *538:120 *544:29 0.000212882
*RES
1 *2487:X *544:8 46.5964 
2 *544:8 *544:16 49.6786 
3 *544:16 *2444:A 38 
4 *544:16 *544:27 8.3375 
5 *544:27 *544:29 48.9168 
6 *544:29 *544:31 15 
7 *544:31 *2213:A1 25.0507 
8 *544:31 *544:48 36.7011 
9 *544:48 *2215:A2 23 
*END

*D_NET *545 0.0251183
*CONN
*I *2240:B I *D sky130_fd_sc_hd__and4b_1
*I *2239:A2_N I *D sky130_fd_sc_hd__o2bb2a_1
*I *2245:B I *D sky130_fd_sc_hd__nand2_1
*I *2261:B I *D sky130_fd_sc_hd__nand2_1
*I *2315:A2 I *D sky130_fd_sc_hd__a31oi_2
*I *2316:B I *D sky130_fd_sc_hd__nand2_1
*I *2369:B I *D sky130_fd_sc_hd__nand2_1
*I *2415:B I *D sky130_fd_sc_hd__nand2_1
*I *1980:B I *D sky130_fd_sc_hd__or2_2
*I *1988:A1 I *D sky130_fd_sc_hd__a211oi_2
*I *2461:X O *D sky130_fd_sc_hd__clkbuf_4
*CAP
1 *2240:B 9.38736e-05
2 *2239:A2_N 7.49622e-05
3 *2245:B 6.84964e-05
4 *2261:B 4.24211e-05
5 *2315:A2 0
6 *2316:B 0.000148251
7 *2369:B 0
8 *2415:B 0
9 *1980:B 2.34823e-05
10 *1988:A1 0.000247035
11 *2461:X 0
12 *545:128 0.000385489
13 *545:120 0.00170218
14 *545:118 0.00313893
15 *545:101 0.00220449
16 *545:63 0.000148251
17 *545:56 0.00109957
18 *545:44 0.00188201
19 *545:42 0.0015711
20 *545:36 0.00101231
21 *545:34 0.00125536
22 *545:23 0.0015566
23 *545:6 0.00100086
24 *1988:A1 *2461:A 8.62876e-05
25 *1988:A1 *550:94 6.07175e-05
26 *1988:A1 *554:56 2.49836e-05
27 *2316:B *548:68 0.000276502
28 *545:23 *2461:A 0.000214599
29 *545:23 *554:56 9.79039e-05
30 *545:42 *548:18 8.20468e-05
31 *545:42 *548:104 0.000168423
32 *545:56 *552:124 0.000103623
33 *545:56 *554:20 0.00013672
34 *545:56 *554:28 0
35 *545:120 *555:72 0.000138727
36 *1972:A *1980:B 0
37 *1972:A *545:34 0.00017761
38 *1980:A *545:23 2.84641e-05
39 *1988:A2 *1988:A1 0.000139346
40 *2239:B1 *2240:B 5.50106e-05
41 *2239:B2 *545:128 5.50049e-05
42 *2240:A_N *545:128 0.000168687
43 *2240:C *2239:A2_N 3.17027e-05
44 *2240:C *545:128 6.69016e-05
45 *2240:D *2239:A2_N 0
46 *2240:D *2240:B 5.50106e-05
47 *2267:A_N *545:120 8.26672e-05
48 *2268:B *545:120 0
49 *2289:B1_N *545:42 6.16531e-05
50 *2292:A *545:101 8.51432e-05
51 *2369:A *2316:B 1.89095e-05
52 *2374:A *2316:B 9.31853e-05
53 *2387:A *545:120 2.96051e-05
54 *2388:B *545:120 0.000271382
55 *2389:B *545:120 0.000215801
56 *2427:A *545:118 0.000392082
57 *2428:B *545:120 7.80035e-05
58 *202:55 *545:120 0
59 *202:55 *545:128 4.4382e-05
60 *202:68 *545:120 0
61 *227:10 *2240:B 2.01531e-05
62 *227:10 *545:120 2.54046e-05
63 *228:8 *2240:B 1.58805e-05
64 *232:12 *2239:A2_N 1.32314e-05
65 *232:23 *2240:B 2.93666e-05
66 *232:23 *545:120 5.26101e-05
67 *233:8 *545:128 8.94394e-05
68 *253:8 *545:120 0.000414771
69 *256:10 *545:42 0.000111852
70 *257:10 *545:42 8.41115e-05
71 *259:18 *545:120 0
72 *285:8 *545:42 0.000174417
73 *286:10 *545:36 0
74 *286:10 *545:42 2.75142e-05
75 *286:10 *545:44 2.76611e-06
76 *286:10 *545:101 0
77 *329:23 *545:120 7.80251e-05
78 *334:10 *545:120 0
79 *337:38 *545:23 0.000128606
80 *348:8 *545:23 1.05235e-05
81 *369:6 *1988:A1 4.08664e-05
82 *369:17 *1988:A1 3.47781e-05
83 *374:10 *545:44 1.19646e-05
84 *374:10 *545:56 5.58873e-06
85 *375:14 *2316:B 5.70419e-05
86 *398:12 *2245:B 0
87 *425:8 *545:44 0.000114083
88 *431:10 *545:120 3.70187e-05
89 *438:18 *545:120 0
90 *448:33 *545:56 0.000115782
91 *490:27 *545:44 0
92 *508:10 *545:120 4.84045e-05
93 *518:33 *2316:B 0.000140552
94 *518:33 *545:44 0
95 *518:50 *545:44 0
96 *518:142 *545:44 0
97 *523:27 *545:42 0.000193388
98 *523:27 *545:44 1.14452e-05
99 *523:65 *545:42 0.00047223
100 *523:73 *545:42 1.77309e-05
101 *523:81 *545:101 0
102 *524:173 *545:44 0.00010404
103 *526:52 *545:36 9.78179e-05
104 *526:52 *545:42 6.97553e-05
105 *526:52 *545:101 0.00017585
106 *527:20 *545:118 0.000388071
107 *528:27 *2239:A2_N 2.69146e-05
108 *534:98 *545:34 0.000282061
109 *540:17 *1988:A1 5.3304e-05
110 *540:34 *545:23 2.24612e-05
111 *540:49 *545:23 8.06804e-06
112 *540:49 *545:34 1.48605e-05
113 *540:93 *545:42 9.87845e-05
*RES
1 *2461:X *545:6 38 
2 *545:6 *1988:A1 43.1579 
3 *545:6 *545:23 26.2064 
4 *545:23 *1980:B 23.4971 
5 *545:23 *545:34 26.1029 
6 *545:34 *545:36 4.01857 
7 *545:36 *545:42 20.6314 
8 *545:42 *545:44 14.2307 
9 *545:44 *545:56 34.2741 
10 *545:56 *2415:B 23 
11 *545:44 *545:63 15 
12 *545:63 *2369:B 23 
13 *545:63 *2316:B 29.7529 
14 *545:42 *2315:A2 38 
15 *545:36 *2261:B 38.6214 
16 *545:34 *545:101 22.1879 
17 *545:101 *2245:B 24.1186 
18 *545:101 *545:118 42.4671 
19 *545:118 *545:120 31.1336 
20 *545:120 *545:128 35.1579 
21 *545:128 *2239:A2_N 39.6157 
22 *545:120 *2240:B 40.175 
*END

*D_NET *546 0.0233909
*CONN
*I *2252:A3 I *D sky130_fd_sc_hd__o31a_1
*I *2247:A2 I *D sky130_fd_sc_hd__o22a_1
*I *2248:A2 I *D sky130_fd_sc_hd__a32o_1
*I *2461:A I *D sky130_fd_sc_hd__clkbuf_4
*I *2460:A I *D sky130_fd_sc_hd__clkbuf_4
*I *2462:X O *D sky130_fd_sc_hd__clkbuf_2
*CAP
1 *2252:A3 0
2 *2247:A2 0
3 *2248:A2 0.000122261
4 *2461:A 0.000195645
5 *2460:A 0
6 *2462:X 8.08197e-05
7 *546:74 0.000896517
8 *546:63 0.00142711
9 *546:40 0.00154937
10 *546:38 0.00182645
11 *546:27 0.00112558
12 *546:25 0.00266317
13 *546:10 0.00266317
14 *546:8 8.08197e-05
15 *2461:A *554:56 2.11887e-05
16 *546:38 *554:56 0.000132161
17 *546:63 *555:43 3.39192e-05
18 *546:63 *555:60 0.000112797
19 *546:74 *551:125 9.16362e-05
20 *1988:A1 *2461:A 8.62876e-05
21 *2108:B *546:25 8.56254e-05
22 *2166:A *546:25 0.000138444
23 *2305:B1 *2248:A2 4.77911e-05
24 *2339:A1 *546:25 7.15126e-05
25 *2349:A2 *546:38 0.000102638
26 *2350:A2 *546:63 7.98243e-05
27 *97:18 *546:25 0.000356158
28 *105:8 *546:25 0.00024754
29 *106:43 *546:25 5.67058e-05
30 *182:12 *546:25 0.000406803
31 *182:22 *546:25 3.98818e-05
32 *188:32 *546:63 4.67488e-05
33 *191:14 *546:74 0.000608643
34 *191:32 *546:74 5.67058e-05
35 *199:56 *546:63 0.000100069
36 *201:10 *546:74 0
37 *205:18 *546:63 5.63476e-05
38 *230:8 *546:74 1.24376e-05
39 *302:18 *2248:A2 0
40 *338:10 *546:25 3.70553e-06
41 *343:23 *546:38 0
42 *351:10 *546:38 0
43 *355:10 *546:38 3.14377e-05
44 *357:8 *546:38 8.62783e-05
45 *496:12 *546:8 9.53602e-05
46 *502:10 *546:74 3.98859e-05
47 *507:12 *546:38 0.000398822
48 *507:12 *546:74 0.00109361
49 *516:42 *546:25 0.000437768
50 *519:104 *546:63 0.0016085
51 *519:114 *2248:A2 0.000114363
52 *519:114 *546:63 0.000404212
53 *520:98 *2461:A 0.000172514
54 *520:98 *546:38 0.000282762
55 *520:98 *546:74 2.41841e-05
56 *520:111 *546:74 8.13297e-05
57 *521:58 *2248:A2 4.51887e-05
58 *524:96 *546:74 0.000391419
59 *524:108 *546:74 9.168e-05
60 *530:61 *546:74 0
61 *531:18 *546:8 0.000191166
62 *537:10 *546:38 0.000163692
63 *537:22 *546:38 0.000781831
64 *538:74 *2248:A2 0.000204948
65 *538:74 *546:63 0.000511548
66 *543:101 *546:25 0.000297285
67 *545:23 *2461:A 0.000214599
*RES
1 *2462:X *546:8 40.61 
2 *546:8 *546:10 15 
3 *546:10 *2460:A 23 
4 *546:10 *546:25 47.995 
5 *546:25 *546:27 15 
6 *546:27 *2461:A 43.075 
7 *546:27 *546:38 22.5061 
8 *546:38 *546:40 8 
9 *546:40 *2248:A2 47.0727 
10 *546:40 *546:63 30.0138 
11 *546:63 *2247:A2 23 
12 *546:38 *546:74 39.3082 
13 *546:74 *2252:A3 23 
*END

*D_NET *547 0.0219724
*CONN
*I *1986:A I *D sky130_fd_sc_hd__or2_1
*I *1984:A1 I *D sky130_fd_sc_hd__a211o_1
*I *1985:A I *D sky130_fd_sc_hd__nor2_1
*I *2065:A I *D sky130_fd_sc_hd__and3_1
*I *1973:A I *D sky130_fd_sc_hd__inv_2
*I *2064:B1 I *D sky130_fd_sc_hd__a21o_1
*I *2043:C1 I *D sky130_fd_sc_hd__o211ai_2
*I *2370:B I *D sky130_fd_sc_hd__nand2_1
*I *2017:A1 I *D sky130_fd_sc_hd__a31o_1
*I *2016:B1 I *D sky130_fd_sc_hd__a21o_1
*I *2463:X O *D sky130_fd_sc_hd__clkbuf_4
*CAP
1 *1986:A 0.000384075
2 *1984:A1 0
3 *1985:A 5.62479e-05
4 *2065:A 0
5 *1973:A 0
6 *2064:B1 0
7 *2043:C1 0
8 *2370:B 0.000730261
9 *2017:A1 0
10 *2016:B1 0.000131582
11 *2463:X 0
12 *547:130 5.13698e-05
13 *547:105 0.00124556
14 *547:88 0.00138146
15 *547:46 0.000286596
16 *547:42 0.0020468
17 *547:36 0.00201968
18 *547:30 0.00138184
19 *547:18 0.00142393
20 *547:10 0.00154825
21 *547:6 0.000741983
22 *547:4 0.000618837
23 *1985:A *554:56 1.62751e-05
24 *1986:A *549:16 0.000141954
25 *2370:B *1997:B 0
26 *2370:B *2012:B1 2.30292e-05
27 *2370:B *550:38 8.74935e-05
28 *2370:B *554:32 5.71524e-05
29 *547:18 *554:56 2.96369e-05
30 *547:30 *550:108 4.99867e-05
31 *547:36 *550:116 0
32 *547:130 *550:86 0
33 *1979:A *1985:A 7.28891e-05
34 *1979:A *547:18 8.62876e-05
35 *1986:B *1986:A 0
36 *2011:B *547:42 0.00010018
37 *2012:A2 *2370:B 0.00010018
38 *2013:B *2370:B 2.25419e-05
39 *2016:A2 *2016:B1 0
40 *2019:A2 *547:46 1.83564e-05
41 *2026:A *547:42 4.95081e-05
42 *2033:A0 *547:42 0.000184527
43 *2033:S *547:42 0.000192096
44 *2043:A1 *547:36 0
45 *2061:B *547:88 0
46 *2062:A *547:30 0
47 *2065:B *547:18 1.00493e-05
48 *2173:A *547:105 2.29895e-05
49 *2174:B *547:105 1.57961e-05
50 *2409:C *547:36 0
51 *2417:A *2370:B 0
52 *32:12 *547:36 4.21594e-06
53 *32:12 *547:42 1.02387e-05
54 *33:8 *547:36 0.000170909
55 *45:57 *547:36 2.11157e-05
56 *51:10 *547:30 2.99477e-05
57 *51:10 *547:88 5.99806e-05
58 *51:10 *547:105 6.07611e-06
59 *51:19 *547:18 0
60 *52:10 *547:36 0
61 *52:10 *547:88 0
62 *52:20 *547:30 9.28078e-06
63 *53:12 *547:18 1.4345e-05
64 *53:12 *547:30 1.14154e-05
65 *53:12 *547:105 0
66 *56:10 *547:105 0
67 *57:10 *547:30 7.11195e-06
68 *57:10 *547:105 0
69 *96:8 *547:105 0.000135547
70 *97:10 *547:105 0.000192087
71 *97:38 *547:105 0.000666206
72 *107:66 *547:105 0.000461817
73 *166:10 *547:105 8.06804e-06
74 *337:55 *547:130 4.21594e-06
75 *380:10 *547:130 5.94125e-05
76 *380:30 *1985:A 6.07611e-06
77 *380:30 *547:130 1.05441e-05
78 *412:10 *1986:A 0.000405947
79 *412:10 *547:6 0.000306332
80 *412:10 *547:10 5.3304e-05
81 *412:10 *547:130 3.47781e-05
82 *439:22 *2370:B 7.22308e-05
83 *439:22 *547:46 0
84 *453:21 *2370:B 0.000185434
85 *462:36 *2016:B1 5.86165e-05
86 *462:36 *547:46 4.21594e-06
87 *463:10 *2370:B 2.3191e-05
88 *463:10 *547:46 0
89 *466:10 *2016:B1 0
90 *466:10 *547:46 0
91 *467:10 *547:46 8.51329e-05
92 *468:8 *547:42 6.51763e-05
93 *475:43 *547:36 2.70558e-06
94 *475:43 *547:42 0.000366108
95 *475:67 *547:36 0
96 *476:10 *547:42 5.67058e-05
97 *478:29 *547:36 0
98 *478:29 *547:42 0
99 *482:8 *547:42 5.561e-05
100 *516:76 *547:36 0
101 *516:76 *547:105 0
102 *517:10 *547:105 0.000113029
103 *517:21 *547:105 3.60842e-05
104 *517:58 *547:30 0
105 *517:90 *547:18 0.00163492
106 *517:124 *547:130 1.34739e-05
107 *524:30 *547:10 0.000475026
108 *524:44 *547:105 0.000322883
109 *524:55 *547:105 0.000284572
110 *526:86 *547:105 1.22803e-05
111 *536:104 *547:18 3.33144e-05
112 *536:114 *547:18 5.3304e-05
113 *539:94 *547:36 0
*RES
1 *2463:X *547:4 23 
2 *547:4 *547:6 3.48 
3 *547:6 *547:10 21.3386 
4 *547:10 *547:18 36.9571 
5 *547:18 *547:30 21.4732 
6 *547:30 *547:36 15.5254 
7 *547:36 *547:42 37.8064 
8 *547:42 *547:46 18.3143 
9 *547:46 *2016:B1 40.9621 
10 *547:46 *2017:A1 38 
11 *547:42 *2370:B 35.8843 
12 *547:36 *2043:C1 38 
13 *547:30 *547:88 2.43393 
14 *547:88 *2064:B1 38 
15 *547:88 *547:105 42.7779 
16 *547:105 *1973:A 23 
17 *547:18 *2065:A 23 
18 *547:10 *1985:A 39.2014 
19 *547:6 *547:130 31.2014 
20 *547:130 *1984:A1 23 
21 *547:4 *1986:A 30.2086 
*END

*D_NET *548 0.0152139
*CONN
*I *2264:A2 I *D sky130_fd_sc_hd__a21oi_1
*I *2263:B I *D sky130_fd_sc_hd__and3_1
*I *1981:B1 I *D sky130_fd_sc_hd__a2111oi_1
*I *1982:A2 I *D sky130_fd_sc_hd__o41ai_4
*I *2290:B I *D sky130_fd_sc_hd__and3_1
*I *2262:B I *D sky130_fd_sc_hd__nand2_1
*I *2317:B I *D sky130_fd_sc_hd__and3_1
*I *2318:A2 I *D sky130_fd_sc_hd__a21oi_1
*I *2372:B1 I *D sky130_fd_sc_hd__a22oi_1
*I *2371:B I *D sky130_fd_sc_hd__and3_1
*I *2464:X O *D sky130_fd_sc_hd__buf_2
*CAP
1 *2264:A2 9.48441e-05
2 *2263:B 0
3 *1981:B1 0.000194328
4 *1982:A2 6.48508e-05
5 *2290:B 0
6 *2262:B 0
7 *2317:B 4.72073e-05
8 *2318:A2 0
9 *2372:B1 0
10 *2371:B 0.000250369
11 *2464:X 4.99221e-05
12 *548:118 0.00109951
13 *548:112 0.000914881
14 *548:104 0.000319548
15 *548:78 0.000283475
16 *548:68 0.000994877
17 *548:42 0.000280111
18 *548:40 0.00109449
19 *548:30 0.000897876
20 *548:18 0.000776561
21 *548:8 0.000479317
22 *1981:B1 *2190:A 0.000237481
23 *1981:B1 *550:86 2.70366e-05
24 *1981:B1 *551:21 0.000423748
25 *2371:B *552:141 8.23371e-05
26 *548:68 *554:20 9.24795e-06
27 *548:118 *550:86 2.49836e-05
28 *548:118 *551:21 0.000336732
29 *2262:A *548:30 7.31471e-05
30 *2262:A *548:40 8.0163e-06
31 *2264:B1 *2264:A2 2.18409e-05
32 *2290:C *548:18 6.35797e-06
33 *2316:B *548:68 0.000276502
34 *2318:A1 *548:78 7.75329e-06
35 *2369:A *548:68 6.04017e-05
36 *2372:A1 *2371:B 3.39192e-05
37 *2372:A1 *548:40 0.000326973
38 *2372:A1 *548:42 6.32666e-05
39 *2372:A1 *548:68 1.59094e-05
40 *2374:A *548:68 1.32939e-05
41 *2414:A1 *548:68 1.32939e-05
42 *2414:A2 *548:68 5.50106e-05
43 *2467:A *548:40 0.000238464
44 *255:10 *548:30 5.50106e-05
45 *286:10 *548:18 0.000284116
46 *286:10 *548:104 0.000336072
47 *286:10 *548:112 8.72173e-05
48 *372:10 *2371:B 2.61544e-05
49 *373:6 *548:68 0.000140259
50 *373:12 *2371:B 0
51 *375:14 *2317:B 4.08664e-05
52 *375:14 *548:68 0.000272377
53 *375:14 *548:78 0
54 *417:8 *548:40 0.000199701
55 *418:10 *548:40 8.51329e-05
56 *418:10 *548:68 0.000265466
57 *424:10 *548:40 0
58 *448:33 *2371:B 7.75151e-06
59 *448:58 *548:78 8.85189e-05
60 *486:44 *548:40 0.000133864
61 *492:58 *548:118 0.000286524
62 *517:124 *1982:A2 9.41704e-05
63 *518:10 *548:78 3.95159e-06
64 *518:142 *548:30 0.000545004
65 *518:142 *548:40 0
66 *520:21 *548:78 8.4047e-05
67 *520:25 *548:30 0.00014196
68 *520:48 *548:30 0.000146967
69 *523:73 *2264:A2 0.00012692
70 *523:73 *548:112 9.58714e-05
71 *523:81 *548:112 4.43717e-05
72 *523:120 *2264:A2 2.93747e-05
73 *523:127 *2264:A2 2.93431e-05
74 *524:14 *548:30 8.62876e-05
75 *529:14 *548:8 5.3304e-05
76 *536:114 *2264:A2 0.000311278
77 *536:114 *548:112 9.41704e-05
78 *536:114 *548:118 0.000468482
79 *540:93 *548:18 0.000101007
80 *545:42 *548:18 8.20468e-05
81 *545:42 *548:104 0.000168423
*RES
1 *2464:X *548:8 38.6214 
2 *548:8 *548:18 21.1107 
3 *548:18 *548:30 42.0868 
4 *548:30 *548:40 26.6725 
5 *548:40 *548:42 0.849286 
6 *548:42 *2371:B 42.2879 
7 *548:42 *2372:B1 38 
8 *548:40 *548:68 27.6979 
9 *548:68 *548:78 34.4329 
10 *548:78 *2318:A2 23 
11 *548:68 *2317:B 23.6214 
12 *548:30 *2262:B 23 
13 *548:18 *2290:B 23 
14 *548:8 *548:104 19.7229 
15 *548:104 *548:112 32.2993 
16 *548:112 *548:118 29.3964 
17 *548:118 *1982:A2 39.0979 
18 *548:118 *1981:B1 43.7793 
19 *548:112 *2263:B 23 
20 *548:104 *2264:A2 26.48 
*END

*D_NET *549 0.036631
*CONN
*I *2464:A I *D sky130_fd_sc_hd__buf_2
*I *2229:A2 I *D sky130_fd_sc_hd__o21a_1
*I *2252:A2 I *D sky130_fd_sc_hd__o31a_1
*I *2114:A I *D sky130_fd_sc_hd__xnor2_2
*I *2190:B I *D sky130_fd_sc_hd__or3_1
*I *2211:B I *D sky130_fd_sc_hd__and2_1
*I *2215:B1 I *D sky130_fd_sc_hd__a22o_1
*I *2213:A2 I *D sky130_fd_sc_hd__o22a_1
*I *2463:A I *D sky130_fd_sc_hd__clkbuf_4
*I *2465:X O *D sky130_fd_sc_hd__clkbuf_4
*CAP
1 *2464:A 0
2 *2229:A2 0.000234483
3 *2252:A2 0.000383924
4 *2114:A 0.000102124
5 *2190:B 0
6 *2211:B 0
7 *2215:B1 0
8 *2213:A2 0.000181882
9 *2463:A 0
10 *2465:X 3.72055e-05
11 *549:116 0.001023
12 *549:106 0.00218219
13 *549:91 0.00147307
14 *549:89 0.00246599
15 *549:85 0.00247723
16 *549:74 0.000158161
17 *549:67 0.000648205
18 *549:52 0.000888848
19 *549:39 0.0013745
20 *549:35 0.00275328
21 *549:29 0.0023887
22 *549:16 0.0010015
23 *549:14 0.00101678
24 *549:6 0.000555265
25 *2229:A2 *551:158 0.000114092
26 *549:35 *551:44 9.28029e-05
27 *549:39 *557:22 0.000281239
28 *549:52 *551:92 4.89546e-05
29 *1984:B1 *549:29 9.58714e-05
30 *1986:A *549:16 0.000141954
31 *1986:B *549:16 0.000112087
32 *1986:B *549:29 2.25809e-05
33 *2111:S *549:89 0.000178517
34 *2113:B *549:91 0
35 *2164:A1 *549:91 0
36 *2164:A1 *549:106 0
37 *2164:A2 *549:106 0
38 *2213:A1 *2213:A2 0.000185428
39 *2222:A *2229:A2 5.93774e-05
40 *2222:A *549:106 1.19796e-05
41 *2255:A *549:116 0
42 *2256:B *2252:A2 3.3746e-05
43 *2274:B1 *549:39 0.000216946
44 *2340:B *549:89 0.000262858
45 *2354:A *549:89 1.03955e-05
46 *2398:A1 *549:89 2.07242e-05
47 *2398:B1 *549:89 6.53382e-05
48 *2406:B1 *549:14 0
49 *103:6 *549:89 8.6949e-05
50 *103:10 *2114:A 0.000128391
51 *103:10 *549:89 9.84851e-05
52 *103:43 *549:91 3.0647e-05
53 *103:43 *549:106 9.63918e-05
54 *104:8 *549:106 0.000351599
55 *153:10 *549:106 5.26101e-05
56 *156:8 *549:106 0
57 *161:8 *549:106 0.000579668
58 *164:8 *549:106 0.000151899
59 *179:8 *549:106 0
60 *180:10 *549:106 0
61 *183:12 *549:35 0.000112951
62 *191:32 *2252:A2 0.000379126
63 *191:51 *2229:A2 0.000101657
64 *192:30 *2252:A2 0.000111852
65 *202:6 *549:67 3.53115e-05
66 *205:120 *549:67 0
67 *207:14 *549:52 0
68 *215:27 *549:116 8.95826e-05
69 *234:10 *549:52 3.7122e-06
70 *247:10 *549:116 5.12254e-05
71 *247:14 *2252:A2 3.0647e-05
72 *273:39 *549:116 0.000523716
73 *283:131 *549:106 7.39816e-05
74 *291:8 *549:39 0.000769902
75 *291:25 *549:39 0.000480832
76 *326:49 *549:106 0
77 *337:42 *549:29 9.98954e-05
78 *337:55 *549:29 0.000133316
79 *337:64 *549:29 9.18471e-05
80 *348:10 *549:29 8.60265e-05
81 *348:34 *549:29 0.000103047
82 *348:34 *549:74 7.57281e-06
83 *353:10 *549:89 0.000312348
84 *358:8 *549:74 2.29603e-05
85 *358:8 *549:85 2.04313e-05
86 *412:10 *549:16 2.25927e-05
87 *499:31 *549:89 1.76557e-05
88 *506:16 *2252:A2 0.000159946
89 *510:44 *549:106 0
90 *512:63 *549:89 0.000126914
91 *516:38 *549:106 0
92 *517:124 *549:29 0
93 *520:98 *549:29 0
94 *520:98 *549:74 0
95 *523:81 *549:14 0.000130045
96 *524:14 *549:14 0.000425445
97 *524:57 *549:89 3.28382e-05
98 *524:61 *2229:A2 0
99 *524:61 *549:106 0
100 *524:71 *549:116 0.000166081
101 *524:83 *549:116 0.000872004
102 *524:130 *2229:A2 0
103 *525:20 *549:6 0.00012612
104 *525:20 *549:14 0.000307132
105 *525:129 *549:67 0.000794077
106 *526:33 *549:6 0.000139352
107 *526:33 *549:14 0.000305431
108 *527:12 *549:39 0.000386978
109 *527:36 *549:39 0.00213343
110 *527:44 *2213:A2 2.4754e-05
111 *527:79 *549:39 4.92689e-05
112 *527:79 *549:52 9.62666e-05
113 *527:87 *549:52 7.9389e-05
114 *527:87 *549:67 4.77164e-06
115 *534:92 *549:35 0.000153485
116 *535:17 *549:89 0.00104021
117 *535:19 *549:14 0
118 *535:21 *549:14 0
119 *537:32 *549:89 1.57571e-05
120 *542:79 *2252:A2 0.000191166
121 *544:48 *2213:A2 0.000181131
122 *544:48 *549:52 0.000128923
*RES
1 *2465:X *549:6 24.5743 
2 *549:6 *549:14 42.7807 
3 *549:14 *549:16 8.24429 
4 *549:16 *2463:A 23 
5 *549:16 *549:29 24.9118 
6 *549:29 *549:35 21.0363 
7 *549:35 *549:39 49.4789 
8 *549:39 *2213:A2 27.4329 
9 *549:39 *549:52 20.4893 
10 *549:52 *2215:B1 38 
11 *549:52 *549:67 28.8371 
12 *549:67 *2211:B 23 
13 *549:29 *549:74 1.3775 
14 *549:74 *2190:B 38 
15 *549:74 *549:85 16.2014 
16 *549:85 *549:89 49.9243 
17 *549:89 *549:91 1.20143 
18 *549:91 *2114:A 40.5271 
19 *549:91 *549:106 28.3786 
20 *549:106 *549:116 47.8143 
21 *549:116 *2252:A2 47.3214 
22 *549:106 *2229:A2 43.4271 
23 *549:6 *2464:A 23 
*END

*D_NET *550 0.0202286
*CONN
*I *2190:A I *D sky130_fd_sc_hd__or3_1
*I *1968:A I *D sky130_fd_sc_hd__inv_2
*I *2045:A I *D sky130_fd_sc_hd__nor2_1
*I *2047:A I *D sky130_fd_sc_hd__nand2_1
*I *1983:B I *D sky130_fd_sc_hd__and2b_1
*I *1995:A I *D sky130_fd_sc_hd__or2_1
*I *2036:A I *D sky130_fd_sc_hd__nand2_1
*I *2416:A I *D sky130_fd_sc_hd__nand2_1
*I *1998:A I *D sky130_fd_sc_hd__and2_1
*I *1997:A I *D sky130_fd_sc_hd__nor2_1
*I *2466:X O *D sky130_fd_sc_hd__buf_2
*CAP
1 *2190:A 0.000466414
2 *1968:A 2.0995e-05
3 *2045:A 0
4 *2047:A 0
5 *1983:B 0
6 *1995:A 0
7 *2036:A 0
8 *2416:A 0.000106723
9 *1998:A 0
10 *1997:A 0
11 *2466:X 0.000138624
12 *550:116 0.000977566
13 *550:108 0.00101458
14 *550:104 0.000858914
15 *550:94 0.00207871
16 *550:86 0.00192226
17 *550:77 0.000975388
18 *550:52 0.000170667
19 *550:38 0.000282536
20 *550:26 0.000649875
21 *550:20 0.000654373
22 *550:18 0.000551065
23 *550:10 0.00122195
24 *2190:A *551:44 2.04898e-05
25 *550:10 *551:6 2.3191e-05
26 *550:18 *552:114 0
27 *550:20 *552:114 0
28 *550:26 *552:114 0
29 *550:26 *552:124 0.000185428
30 *550:26 *554:24 9.90162e-05
31 *550:26 *554:28 0
32 *550:38 *552:124 5.67058e-05
33 *550:38 *554:24 5.70419e-05
34 *550:38 *554:28 0.000195248
35 *550:38 *554:32 0.000143655
36 *550:38 *554:50 2.68751e-05
37 *550:77 *552:60 0
38 *550:77 *556:8 0
39 *1981:B1 *2190:A 0.000237481
40 *1981:B1 *550:86 2.70366e-05
41 *1981:C1 *2190:A 2.79543e-05
42 *1981:D1 *2190:A 2.64616e-05
43 *1982:B1 *550:94 7.43025e-06
44 *1984:B1 *550:86 0.000160191
45 *1988:A1 *550:94 6.07175e-05
46 *1988:A2 *550:94 0.000139346
47 *2046:B *550:116 0.000264147
48 *2047:B *550:116 2.02872e-05
49 *2051:A *550:104 0.000271476
50 *2059:A *550:104 5.50106e-05
51 *2059:B *550:116 3.47776e-05
52 *2190:C *2190:A 5.12254e-05
53 *2370:B *550:38 8.74935e-05
54 *2408:B1 *550:77 4.51431e-05
55 *2467:A *550:10 5.70419e-05
56 *33:8 *550:116 5.3656e-05
57 *38:14 *550:116 2.39911e-05
58 *43:12 *550:104 1.22822e-05
59 *219:6 *550:104 3.7122e-06
60 *241:12 *550:116 0.000114092
61 *241:16 *550:116 0.000881726
62 *294:12 *550:104 0.000415819
63 *294:70 *550:104 0.000168744
64 *337:55 *550:86 1.37246e-05
65 *337:55 *550:94 7.15126e-05
66 *348:10 *2190:A 0.000124873
67 *348:10 *550:86 6.48049e-05
68 *348:34 *2190:A 0.000151286
69 *358:8 *2190:A 0.000109898
70 *369:6 *550:94 0.00022109
71 *412:10 *550:77 0
72 *412:10 *550:86 0
73 *419:10 *550:26 0
74 *420:8 *550:26 0
75 *440:12 *2190:A 3.35885e-06
76 *448:33 *550:38 1.76557e-05
77 *462:8 *550:38 0
78 *470:10 *550:104 8.25811e-05
79 *484:31 *550:116 1.94693e-05
80 *486:10 *2416:A 1.32939e-05
81 *486:44 *550:10 0.000228001
82 *492:58 *550:10 0.000195238
83 *492:58 *550:77 0.00137976
84 *492:58 *550:86 0.000317481
85 *497:46 *550:104 0
86 *517:58 *550:108 0
87 *517:58 *550:116 0
88 *517:100 *550:77 0
89 *517:124 *550:94 7.38136e-05
90 *518:56 *2416:A 4.96101e-05
91 *518:64 *550:10 4.43717e-05
92 *518:64 *550:18 0
93 *518:64 *550:20 0
94 *520:84 *550:104 0.000123934
95 *540:8 *550:94 6.12551e-05
96 *540:17 *550:94 0.000264559
97 *542:65 *550:94 0.000235867
98 *542:65 *550:104 0.000140668
99 *547:30 *550:108 4.99867e-05
100 *547:36 *550:116 0
101 *547:130 *550:86 0
102 *548:118 *550:86 2.49836e-05
*RES
1 *2466:X *550:10 43.1371 
2 *550:10 *550:18 34.5571 
3 *550:18 *550:20 3.66643 
4 *550:20 *550:26 22.4779 
5 *550:26 *550:38 36.7321 
6 *550:38 *1997:A 23 
7 *550:26 *1998:A 23 
8 *550:20 *550:52 16.0979 
9 *550:52 *2416:A 25.5686 
10 *550:52 *2036:A 23 
11 *550:18 *1995:A 38 
12 *550:10 *550:77 18.4564 
13 *550:77 *1983:B 38 
14 *550:77 *550:86 5.77929 
15 *550:86 *550:94 37.2264 
16 *550:94 *550:104 45.805 
17 *550:104 *550:108 15.8493 
18 *550:108 *550:116 35.1964 
19 *550:116 *2047:A 23 
20 *550:108 *2045:A 38 
21 *550:94 *1968:A 23.4971 
22 *550:86 *2190:A 47.57 
*END

*D_NET *551 0.0284709
*CONN
*I *2252:A1 I *D sky130_fd_sc_hd__o31a_1
*I *2229:A1 I *D sky130_fd_sc_hd__o21a_1
*I *2221:A I *D sky130_fd_sc_hd__nand2_1
*I *2208:A1 I *D sky130_fd_sc_hd__a32o_1
*I *2216:A I *D sky130_fd_sc_hd__and3_1
*I *2215:A1 I *D sky130_fd_sc_hd__a22o_1
*I *2201:A1 I *D sky130_fd_sc_hd__a22oi_1
*I *2202:A1 I *D sky130_fd_sc_hd__o22a_1
*I *1981:A1 I *D sky130_fd_sc_hd__a2111oi_1
*I *2466:A I *D sky130_fd_sc_hd__buf_2
*I *2467:X O *D sky130_fd_sc_hd__buf_2
*CAP
1 *2252:A1 0
2 *2229:A1 0
3 *2221:A 0.000303314
4 *2208:A1 0
5 *2216:A 8.2366e-05
6 *2215:A1 0
7 *2201:A1 2.78697e-05
8 *2202:A1 0
9 *1981:A1 0
10 *2466:A 0.000119967
11 *2467:X 7.98291e-05
12 *551:158 0.000102576
13 *551:143 0.000939077
14 *551:141 0.00107199
15 *551:125 0.00154145
16 *551:94 8.2366e-05
17 *551:92 0.00110784
18 *551:76 0.00146308
19 *551:58 4.80218e-05
20 *551:54 0.00096488
21 *551:44 0.00317225
22 *551:21 0.00283678
23 *551:6 0.00145646
24 *551:44 *553:26 0.000129592
25 *1981:B1 *551:21 0.000423748
26 *2190:A *551:44 2.04898e-05
27 *2195:A2 *551:125 0.000160191
28 *2195:B1 *551:125 8.57765e-05
29 *2200:B *551:125 0
30 *2201:B1 *2201:A1 5.67058e-05
31 *2201:B2 *2201:A1 5.67058e-05
32 *2201:B2 *551:54 8.9787e-05
33 *2201:B2 *551:58 9.84851e-05
34 *2202:A2 *2201:A1 3.53115e-05
35 *2202:B2 *2201:A1 8.6949e-05
36 *2202:B2 *551:58 9.84851e-05
37 *2203:A *551:125 9.67842e-05
38 *2205:C *551:125 2.93747e-05
39 *2208:B1 *551:92 0.000120217
40 *2209:C1 *551:54 8.82055e-05
41 *2221:B *2221:A 2.87566e-05
42 *2224:A *551:143 0.0003489
43 *2229:A2 *551:158 0.000114092
44 *2233:B *551:143 5.41288e-05
45 *2235:B1 *551:141 0.000135143
46 *2259:C_N *551:141 5.50106e-05
47 *2406:B1 *551:21 0
48 *2408:A2 *551:21 7.0261e-05
49 *2411:A1 *551:21 1.39705e-05
50 *2467:A *2466:A 0.000172726
51 *181:16 *551:143 2.26778e-05
52 *183:12 *551:44 9.11904e-05
53 *183:24 *551:44 0.00225848
54 *183:24 *551:54 2.23334e-06
55 *183:24 *551:125 2.60807e-06
56 *186:10 *551:54 4.77883e-05
57 *186:10 *551:125 6.47565e-05
58 *188:24 *551:54 0.000109693
59 *190:107 *551:92 0.000298755
60 *191:14 *551:125 0.000620173
61 *191:32 *551:125 0.000125567
62 *191:32 *551:141 0.000351867
63 *191:51 *551:158 1.69668e-05
64 *192:8 *551:125 1.02219e-05
65 *192:22 *551:54 5.40337e-05
66 *192:36 *551:141 3.39986e-05
67 *195:14 *551:125 0.000365829
68 *197:116 *551:76 0.000175686
69 *197:116 *551:92 5.31444e-05
70 *198:12 *551:76 2.02872e-05
71 *200:8 *551:76 0.000530627
72 *202:26 *2216:A 0.000184527
73 *205:12 *551:92 0
74 *208:12 *2216:A 4.25832e-05
75 *213:12 *2221:A 0.000308045
76 *213:12 *551:143 4.34745e-05
77 *215:10 *551:143 9.67842e-05
78 *223:25 *551:141 5.0135e-05
79 *223:25 *551:143 0.000268011
80 *224:10 *551:143 9.84851e-05
81 *225:6 *551:141 9.84851e-05
82 *230:8 *551:125 0.000151985
83 *230:19 *551:125 2.18506e-05
84 *230:32 *551:125 2.71291e-05
85 *243:12 *551:141 0
86 *272:18 *551:44 4.74508e-05
87 *272:18 *551:92 0
88 *409:8 *551:21 1.929e-05
89 *411:12 *551:21 0.000196549
90 *416:10 *551:21 0
91 *440:12 *551:21 0.00106181
92 *440:12 *551:44 4.89546e-05
93 *486:44 *551:21 0
94 *491:10 *551:54 8.4824e-05
95 *491:10 *551:76 0.000150977
96 *492:58 *551:21 0.000734379
97 *511:46 *551:125 0.000221997
98 *514:8 *551:92 9.91005e-05
99 *514:12 *551:92 1.58805e-05
100 *518:85 *2466:A 0
101 *521:30 *2201:A1 4.19743e-05
102 *524:130 *551:158 0
103 *527:44 *551:76 5.3304e-05
104 *527:44 *551:92 2.80533e-05
105 *527:87 *2216:A 2.13216e-05
106 *528:55 *551:92 0.000263309
107 *532:26 *551:21 5.05465e-05
108 *544:48 *551:92 1.98028e-05
109 *546:74 *551:125 9.16362e-05
110 *548:118 *551:21 0.000336732
111 *549:35 *551:44 9.28029e-05
112 *549:52 *551:92 4.89546e-05
113 *550:10 *551:6 2.3191e-05
*RES
1 *2467:X *551:6 24.0979 
2 *551:6 *2466:A 26.045 
3 *551:6 *551:21 45.0771 
4 *551:21 *1981:A1 38 
5 *551:21 *551:44 38.4711 
6 *551:44 *551:54 39.1661 
7 *551:54 *551:58 16.0979 
8 *551:58 *2202:A1 23 
9 *551:58 *2201:A1 25.0507 
10 *551:54 *551:76 25.0257 
11 *551:76 *551:92 39.7424 
12 *551:92 *551:94 15 
13 *551:94 *2215:A1 23 
14 *551:94 *2216:A 25.5479 
15 *551:76 *2208:A1 23 
16 *551:44 *551:125 38.7904 
17 *551:125 *551:141 42.1386 
18 *551:141 *551:143 11.5793 
19 *551:143 *2221:A 28.7586 
20 *551:143 *551:158 32.2579 
21 *551:158 *2229:A1 23 
22 *551:125 *2252:A1 23 
*END

*D_NET *552 0.0207341
*CONN
*I *1983:A_N I *D sky130_fd_sc_hd__and2b_1
*I *2370:A I *D sky130_fd_sc_hd__nand2_1
*I *2371:A I *D sky130_fd_sc_hd__and3_1
*I *2372:A2 I *D sky130_fd_sc_hd__a22oi_1
*I *2006:A1 I *D sky130_fd_sc_hd__a22o_1
*I *1992:A I *D sky130_fd_sc_hd__and3_1
*I *1993:A I *D sky130_fd_sc_hd__nand3_1
*I *1994:A1 I *D sky130_fd_sc_hd__a21o_1
*I *2192:D I *D sky130_fd_sc_hd__or4_1
*I *2349:B2 I *D sky130_fd_sc_hd__a32o_1
*I *2468:X O *D sky130_fd_sc_hd__buf_2
*CAP
1 *1983:A_N 0
2 *2370:A 0
3 *2371:A 0
4 *2372:A2 0
5 *2006:A1 0
6 *1992:A 0
7 *1993:A 0
8 *1994:A1 0
9 *2192:D 0
10 *2349:B2 0
11 *2468:X 0.000155771
12 *552:141 0.000200968
13 *552:124 0.00071312
14 *552:114 0.00137641
15 *552:100 0.000308383
16 *552:88 0.000529612
17 *552:74 0.000133663
18 *552:66 0.000231624
19 *552:62 0.0004417
20 *552:60 0.00161006
21 *552:50 0.00194861
22 *552:44 0.00180772
23 *552:26 0.000216674
24 *552:14 0.000508813
25 *552:10 0.000774544
26 *552:8 0.000155771
27 *552:14 *2192:A 8.06804e-06
28 *552:26 *2192:A 2.17646e-05
29 *552:26 *554:82 8.61037e-06
30 *552:44 *553:12 3.4154e-05
31 *552:60 *556:8 8.62876e-05
32 *552:114 *554:50 0.00103444
33 *552:114 *554:56 0
34 *552:124 *2415:A 1.09903e-05
35 *552:124 *554:20 0.000621838
36 *552:124 *554:24 7.06229e-05
37 *552:124 *554:28 0.000169674
38 *552:124 *554:50 3.70187e-05
39 *552:141 *554:20 1.59912e-05
40 *1990:A2 *552:60 0.000166513
41 *1992:B *552:100 4.30894e-05
42 *1993:B *552:66 5.3304e-05
43 *1993:B *552:88 5.3304e-05
44 *1993:C *552:66 9.84794e-05
45 *1993:C *552:88 0.00010018
46 *2000:B *552:100 2.64616e-05
47 *2000:C *552:100 5.50106e-05
48 *2006:A2 *552:66 0
49 *2006:A2 *552:88 4.67488e-05
50 *2006:A2 *552:100 2.64616e-05
51 *2007:A1 *552:100 8.03739e-06
52 *2021:A2 *552:100 6.05022e-05
53 *2192:C *552:14 0.000227112
54 *2192:C *552:44 0.000142173
55 *2371:B *552:141 8.23371e-05
56 *2392:B2 *552:44 7.1459e-05
57 *2431:A3 *552:44 3.15684e-05
58 *2431:A3 *552:50 0.000268834
59 *2454:A *552:26 1.99109e-05
60 *50:16 *552:100 5.78583e-05
61 *184:8 *552:8 4.334e-05
62 *190:69 *552:44 0.000137651
63 *197:72 *552:8 0
64 *197:72 *552:44 0.000101527
65 *199:62 *552:26 3.45774e-05
66 *199:72 *552:26 0.000126457
67 *205:55 *552:14 2.03764e-06
68 *205:55 *552:26 2.38288e-05
69 *205:96 *552:44 0.000167797
70 *205:96 *552:50 3.46744e-05
71 *262:8 *552:50 0.000135547
72 *396:8 *552:50 0.000228451
73 *400:12 *552:50 0
74 *412:10 *552:60 1.01436e-05
75 *418:10 *552:141 3.7122e-06
76 *419:10 *552:124 0.000153148
77 *434:27 *552:74 1.14452e-05
78 *435:10 *552:50 0
79 *438:10 *552:50 7.39704e-05
80 *439:16 *552:100 3.70522e-05
81 *441:25 *552:66 0.000231421
82 *441:25 *552:88 2.61526e-05
83 *441:40 *552:74 5.45669e-05
84 *443:6 *552:88 0.000247812
85 *443:6 *552:100 0.000352421
86 *443:34 *552:88 5.3304e-05
87 *448:33 *552:141 8.4047e-05
88 *456:10 *552:100 3.34129e-05
89 *474:10 *552:74 0.000131997
90 *492:16 *552:44 1.41129e-05
91 *492:29 *552:8 7.75736e-06
92 *492:37 *552:50 2.65002e-05
93 *517:100 *552:60 6.35934e-05
94 *517:100 *552:114 9.43251e-05
95 *520:68 *552:74 1.94812e-05
96 *520:98 *552:26 1.47563e-05
97 *520:98 *552:114 0.000217827
98 *524:22 *552:50 0.000178517
99 *524:22 *552:60 0.000352421
100 *526:78 *552:8 2.16066e-05
101 *529:71 *552:26 1.33851e-05
102 *529:77 *552:26 5.50106e-05
103 *532:22 *552:50 0.000561356
104 *532:26 *552:50 0.00130818
105 *534:92 *552:50 5.58873e-06
106 *535:19 *552:50 0
107 *535:62 *552:50 0
108 *538:74 *552:8 2.12234e-05
109 *545:56 *552:124 0.000103623
110 *550:18 *552:114 0
111 *550:20 *552:114 0
112 *550:26 *552:114 0
113 *550:26 *552:124 0.000185428
114 *550:38 *552:124 5.67058e-05
115 *550:77 *552:60 0
*RES
1 *2468:X *552:8 40.9621 
2 *552:8 *552:10 15 
3 *552:10 *552:14 3.97714 
4 *552:14 *552:26 34.3604 
5 *552:26 *2349:B2 23 
6 *552:14 *2192:D 23 
7 *552:10 *552:44 22.9439 
8 *552:44 *552:50 46.9518 
9 *552:50 *552:60 42.035 
10 *552:60 *552:62 2.05071 
11 *552:62 *552:66 3.50071 
12 *552:66 *552:74 32.5271 
13 *552:74 *1994:A1 23 
14 *552:66 *1993:A 23 
15 *552:62 *552:88 5.75857 
16 *552:88 *552:100 37.105 
17 *552:100 *1992:A 23 
18 *552:88 *2006:A1 23 
19 *552:60 *552:114 34.865 
20 *552:114 *552:124 29.9971 
21 *552:124 *2372:A2 23 
22 *552:124 *552:141 33.3557 
23 *552:141 *2371:A 23 
24 *552:114 *2370:A 38 
25 *552:50 *1983:A_N 23 
*END

*D_NET *553 0.00769109
*CONN
*I *2391:A1 I *D sky130_fd_sc_hd__o22a_1
*I *2390:A1 I *D sky130_fd_sc_hd__a21oi_1
*I *2392:A1 I *D sky130_fd_sc_hd__a32o_1
*I *2432:A1 I *D sky130_fd_sc_hd__a211o_1
*I *2396:A1 I *D sky130_fd_sc_hd__a21oi_1
*I *2356:A I *D sky130_fd_sc_hd__xor2_1
*I *2469:X O *D sky130_fd_sc_hd__clkbuf_2
*CAP
1 *2391:A1 0
2 *2390:A1 0
3 *2392:A1 0
4 *2432:A1 2.35926e-05
5 *2396:A1 0
6 *2356:A 0.000134947
7 *2469:X 0
8 *553:69 0.000263427
9 *553:28 0.000366709
10 *553:26 0.000899228
11 *553:18 0.000911836
12 *553:12 0.000406819
13 *553:6 0.000332714
14 *553:4 0.000410099
15 *2356:A *554:62 0.000401106
16 *2356:A *554:82 0.000182832
17 *553:26 *554:82 0
18 *553:28 *554:82 0.000256544
19 *2352:B *553:18 0.000112087
20 *2352:B *553:26 9.61399e-05
21 *2355:A *2356:A 0.000177909
22 *2390:A2 *553:12 0.000127134
23 *2390:A2 *553:18 1.05441e-05
24 *2396:A2 *2356:A 0.000185428
25 *2432:B1 *2432:A1 5.12055e-06
26 *2432:B1 *553:18 3.88669e-05
27 *2432:B1 *553:26 4.96207e-05
28 *190:57 *553:6 0.000129522
29 *190:57 *553:69 0.000185428
30 *190:69 *553:6 9.84794e-05
31 *190:69 *553:12 9.5877e-05
32 *199:88 *553:18 0.000153218
33 *205:96 *553:12 2.2539e-05
34 *205:96 *553:18 0.000338668
35 *353:16 *2356:A 1.14154e-05
36 *358:8 *553:26 3.70187e-05
37 *394:12 *553:69 2.75733e-06
38 *398:12 *553:28 0.000167466
39 *437:10 *553:26 0.000137216
40 *440:12 *553:26 3.49691e-05
41 *492:31 *553:26 2.01839e-05
42 *515:8 *553:26 0.000589161
43 *523:85 *553:69 2.711e-05
44 *526:78 *553:26 1.44086e-05
45 *532:8 *553:26 2.56967e-05
46 *535:79 *553:18 1.00806e-05
47 *537:22 *2356:A 2.80512e-05
48 *537:22 *553:28 5.37348e-06
49 *551:44 *553:26 0.000129592
50 *552:44 *553:12 3.4154e-05
*RES
1 *2469:X *553:4 23 
2 *553:4 *553:6 2.52714 
3 *553:6 *553:12 18.0036 
4 *553:12 *553:18 20.4893 
5 *553:18 *553:26 44.1686 
6 *553:26 *553:28 5.86214 
7 *553:28 *2356:A 29.8357 
8 *553:28 *2396:A1 23 
9 *553:18 *2432:A1 23.4971 
10 *553:12 *2392:A1 38 
11 *553:6 *2390:A1 23 
12 *553:4 *553:69 33.9564 
13 *553:69 *2391:A1 23 
*END

*D_NET *554 0.0233534
*CONN
*I *2372:B2 I *D sky130_fd_sc_hd__a22oi_1
*I *2415:A I *D sky130_fd_sc_hd__nand2_1
*I *1998:B I *D sky130_fd_sc_hd__and2_1
*I *1999:B I *D sky130_fd_sc_hd__or2_1
*I *2192:A I *D sky130_fd_sc_hd__or4_1
*I *2304:A I *D sky130_fd_sc_hd__and2_1
*I *2342:A I *D sky130_fd_sc_hd__nand2_1
*I *2341:A I *D sky130_fd_sc_hd__or2_1
*I *1997:B I *D sky130_fd_sc_hd__nor2_1
*I *2012:B1 I *D sky130_fd_sc_hd__o21ai_1
*I *2470:X O *D sky130_fd_sc_hd__buf_2
*CAP
1 *2372:B2 0
2 *2415:A 2.29409e-05
3 *1998:B 0
4 *1999:B 0
5 *2192:A 0.000285242
6 *2304:A 0
7 *2342:A 6.79298e-05
8 *2341:A 0
9 *1997:B 2.1727e-05
10 *2012:B1 9.53207e-06
11 *2470:X 0.000235939
12 *554:92 0.00135484
13 *554:82 0.00286678
14 *554:62 0.000644585
15 *554:58 0.00180335
16 *554:56 0.0014883
17 *554:50 0.00203687
18 *554:32 0.000181626
19 *554:28 0.000797147
20 *554:24 0.000184351
21 *554:20 0.000389807
22 *554:12 0.000280726
23 *554:10 0.000235939
24 *554:92 *555:43 4.93791e-05
25 *1979:A *554:56 0
26 *1985:A *554:56 1.62751e-05
27 *1988:A1 *554:56 2.49836e-05
28 *1990:B1 *554:56 0
29 *1991:A2 *554:56 9.168e-05
30 *1993:C *554:56 5.58473e-05
31 *2012:A2 *1997:B 4.00259e-06
32 *2013:B *2012:B1 5.67058e-05
33 *2192:C *2192:A 7.06218e-05
34 *2341:B *2342:A 5.67058e-05
35 *2341:B *554:62 0
36 *2349:A1 *554:82 0
37 *2349:A1 *554:92 0.00026388
38 *2355:A *554:62 8.48502e-06
39 *2356:A *554:62 0.000401106
40 *2356:A *554:82 0.000182832
41 *2370:B *1997:B 0
42 *2370:B *2012:B1 2.30292e-05
43 *2370:B *554:32 5.71524e-05
44 *2372:A1 *554:10 0.00018742
45 *2372:A1 *554:20 9.75779e-05
46 *2417:A *554:32 6.17437e-06
47 *2461:A *554:56 2.11887e-05
48 *2470:A *554:10 3.06338e-05
49 *199:52 *554:92 9.85586e-06
50 *205:55 *2192:A 0.00023526
51 *302:18 *554:92 0.000129667
52 *353:16 *2342:A 0
53 *353:16 *554:62 0.00012103
54 *356:10 *554:82 0
55 *358:8 *554:82 0
56 *369:17 *554:56 0.000178172
57 *369:19 *554:56 4.80045e-05
58 *369:21 *554:56 0.000145171
59 *372:10 *554:10 3.61511e-05
60 *373:6 *554:20 5.37348e-06
61 *373:12 *554:10 6.72184e-06
62 *380:30 *554:56 2.26406e-05
63 *413:8 *554:56 5.12328e-05
64 *418:10 *554:20 2.81406e-06
65 *424:10 *554:10 3.70553e-06
66 *441:8 *554:56 0.000328671
67 *443:34 *554:56 0.00011091
68 *448:33 *554:20 0.000606942
69 *448:33 *554:24 0.000468228
70 *454:32 *554:56 0
71 *462:8 *554:28 0
72 *474:10 *554:50 0
73 *474:10 *554:56 0
74 *474:16 *554:50 0
75 *487:8 *554:50 0.000141879
76 *490:55 *554:92 0.000530445
77 *517:100 *554:56 5.41288e-05
78 *519:104 *554:92 0.00183151
79 *519:114 *554:92 0.000121177
80 *520:98 *554:56 0
81 *520:98 *554:82 0
82 *525:112 *554:92 2.05503e-05
83 *526:78 *2192:A 7.07833e-06
84 *526:78 *554:82 6.46682e-05
85 *529:71 *2192:A 0.000111412
86 *537:22 *2342:A 0.000141052
87 *537:22 *554:62 2.25809e-05
88 *545:23 *554:56 9.79039e-05
89 *545:56 *554:20 0.00013672
90 *545:56 *554:28 0
91 *546:38 *554:56 0.000132161
92 *547:18 *554:56 2.96369e-05
93 *548:68 *554:20 9.24795e-06
94 *550:26 *554:24 9.90162e-05
95 *550:26 *554:28 0
96 *550:38 *554:24 5.70419e-05
97 *550:38 *554:28 0.000195248
98 *550:38 *554:32 0.000143655
99 *550:38 *554:50 2.68751e-05
100 *552:14 *2192:A 8.06804e-06
101 *552:26 *2192:A 2.17646e-05
102 *552:26 *554:82 8.61037e-06
103 *552:114 *554:50 0.00103444
104 *552:114 *554:56 0
105 *552:124 *2415:A 1.09903e-05
106 *552:124 *554:20 0.000621838
107 *552:124 *554:24 7.06229e-05
108 *552:124 *554:28 0.000169674
109 *552:124 *554:50 3.70187e-05
110 *552:141 *554:20 1.59912e-05
111 *553:26 *554:82 0
112 *553:28 *554:82 0.000256544
*RES
1 *2470:X *554:10 42.1843 
2 *554:10 *554:12 15 
3 *554:12 *554:20 10.3364 
4 *554:20 *554:24 5.40643 
5 *554:24 *554:28 17.9621 
6 *554:28 *554:32 18.48 
7 *554:32 *2012:B1 23.6214 
8 *554:32 *1997:B 23.4971 
9 *554:28 *554:50 29.2307 
10 *554:50 *554:56 44.1864 
11 *554:56 *554:58 15 
12 *554:58 *554:62 8.74143 
13 *554:62 *2341:A 23 
14 *554:62 *2342:A 25.0714 
15 *554:58 *554:82 35.3725 
16 *554:82 *554:92 35.4987 
17 *554:92 *2304:A 23 
18 *554:82 *2192:A 44.4732 
19 *554:50 *1999:B 23 
20 *554:24 *1998:B 23 
21 *554:20 *2415:A 23.4971 
22 *554:12 *2372:B2 23 
*END

*D_NET *555 0.0188702
*CONN
*I *2238:B I *D sky130_fd_sc_hd__and3_1
*I *2236:A2 I *D sky130_fd_sc_hd__a21o_1
*I *2247:A1 I *D sky130_fd_sc_hd__o22a_1
*I *2442:A I *D sky130_fd_sc_hd__buf_2
*I *2488:X O *D sky130_fd_sc_hd__dlymetal6s2s_1
*CAP
1 *2238:B 0.00018563
2 *2236:A2 0
3 *2247:A1 0
4 *2442:A 0
5 *2488:X 0.000764184
6 *555:72 0.000461514
7 *555:64 0.00110541
8 *555:60 0.00205373
9 *555:43 0.00450337
10 *555:18 0.00348238
11 *555:12 0.00133866
12 *2238:A *2238:B 2.38288e-05
13 *2267:A_N *555:64 0
14 *2268:B *555:60 2.64616e-05
15 *2268:B *555:64 6.25829e-05
16 *2297:A1 *555:60 9.84794e-05
17 *2350:A2 *555:43 4.15283e-06
18 *2366:D *555:18 1.86973e-05
19 *2366:D *555:43 4.57602e-05
20 *2405:B *555:18 5.50049e-05
21 *188:101 *555:60 6.87362e-05
22 *190:57 *555:60 0.000175903
23 *202:55 *2238:B 7.38842e-05
24 *202:68 *555:72 4.21594e-06
25 *205:18 *555:60 4.15283e-06
26 *233:8 *2238:B 9.26098e-05
27 *253:8 *2238:B 0
28 *253:8 *555:64 0
29 *263:10 *555:64 0
30 *263:36 *555:64 2.01531e-05
31 *284:10 *555:43 0.000113929
32 *291:25 *555:60 0.000298769
33 *292:10 *555:60 0.000139346
34 *302:18 *555:43 4.49573e-06
35 *311:10 *555:12 1.59094e-05
36 *311:10 *555:18 7.43025e-06
37 *364:8 *555:12 1.14154e-05
38 *364:8 *555:18 0.000478422
39 *368:10 *555:12 0.000114499
40 *426:10 *555:12 4.21089e-05
41 *490:29 *555:18 0.000135557
42 *490:29 *555:43 0.00060099
43 *490:55 *555:43 2.55744e-05
44 *493:24 *555:72 2.47015e-05
45 *524:173 *555:18 0
46 *526:52 *555:43 4.77911e-05
47 *526:52 *555:60 8.02315e-05
48 *528:19 *2238:B 5.96687e-05
49 *528:19 *555:64 0.000183805
50 *537:78 *555:43 0.000278675
51 *537:88 *555:18 8.48502e-06
52 *538:80 *555:60 2.02872e-05
53 *541:66 *555:64 0.000133316
54 *544:16 *555:12 0.00104046
55 *545:120 *555:72 0.000138727
56 *546:63 *555:43 3.39192e-05
57 *546:63 *555:60 0.000112797
58 *554:92 *555:43 4.93791e-05
*RES
1 *2488:X *555:12 43.3414 
2 *555:12 *555:18 23.7207 
3 *555:18 *2442:A 38 
4 *555:18 *555:43 42.2441 
5 *555:43 *2247:A1 38 
6 *555:43 *555:60 38.6557 
7 *555:60 *555:64 25.005 
8 *555:64 *555:72 36.3386 
9 *555:72 *2236:A2 38 
10 *555:64 *2238:B 42.06 
*END

*D_NET *556 0.000486805
*CONN
*I *1990:A1 I *D sky130_fd_sc_hd__a21oi_1
*I *2502:X O *D sky130_fd_sc_hd__dlygate4sd1_1
*CAP
1 *1990:A1 0.000121439
2 *2502:X 5.94633e-05
3 *556:8 0.000180902
4 *440:8 *1990:A1 3.87132e-05
5 *550:77 *556:8 0
6 *552:60 *556:8 8.62876e-05
*RES
1 *2502:X *556:8 39.2014 
2 *556:8 *1990:A1 39.5743 
*END

*D_NET *557 0.0136383
*CONN
*I *2439:A I *D sky130_fd_sc_hd__clkbuf_4
*I *2440:A I *D sky130_fd_sc_hd__dlymetal6s2s_1
*I *2489:X O *D sky130_fd_sc_hd__buf_1
*CAP
1 *2439:A 0
2 *2440:A 4.11597e-05
3 *2489:X 0.000806242
4 *557:22 0.00217827
5 *557:20 0.0027266
6 *557:8 0.00139574
7 *557:20 *558:14 0.000139346
8 *2274:B1 *557:22 0.000212621
9 *2320:C *557:20 0.000105072
10 *2422:A1 *557:20 4.42688e-05
11 *2422:B1 *557:20 7.00173e-05
12 *236:8 *2440:A 2.64616e-05
13 *291:8 *557:22 0.000382355
14 *291:25 *557:22 0.000224198
15 *302:10 *557:22 2.33476e-05
16 *309:10 *557:22 6.07826e-05
17 *309:14 *557:22 0.000104143
18 *310:8 *557:22 0.000162147
19 *311:10 *557:22 0
20 *313:23 *557:8 0
21 *313:29 *557:20 1.14452e-05
22 *316:8 *557:20 0
23 *316:8 *557:22 1.27424e-05
24 *317:8 *557:22 2.72055e-05
25 *318:8 *557:22 0
26 *320:8 *557:22 0.000589133
27 *323:12 *557:22 0
28 *324:8 *557:22 0.00010906
29 *368:10 *557:22 0
30 *376:10 *557:20 0.000126936
31 *378:10 *557:20 0
32 *427:8 *557:20 7.46212e-05
33 *427:8 *557:22 0.000107203
34 *519:27 *557:22 0
35 *527:12 *557:22 0
36 *544:27 *557:22 0.000172841
37 *544:29 *557:22 0.00342314
38 *549:39 *557:22 0.000281239
*RES
1 *2489:X *557:8 36.8579 
2 *557:8 *557:20 27.1075 
3 *557:20 *557:22 63.0025 
4 *557:22 *2440:A 38.6214 
5 *557:8 *2439:A 23 
*END

*D_NET *558 0.0039818
*CONN
*I *2438:A I *D sky130_fd_sc_hd__clkbuf_4
*I *2490:X O *D sky130_fd_sc_hd__clkbuf_1
*CAP
1 *2438:A 0
2 *2490:X 0.0010102
3 *558:14 0.000591482
4 *558:6 0.00160168
5 *2319:B1 *558:14 9.16459e-05
6 *312:6 *558:14 7.53384e-06
7 *313:23 *558:14 3.65917e-05
8 *313:29 *558:14 0
9 *376:10 *558:14 0.000111852
10 *520:10 *558:14 0.000391473
11 *557:20 *558:14 0.000139346
*RES
1 *2490:X *558:6 36.485 
2 *558:6 *558:14 42.5736 
3 *558:14 *2438:A 23 
*END
