*SPEF "ieee 1481-1999"
*DESIGN "alu8bit"
*DATE "11:43:03 Wednesday August 05, 2026"
*VENDOR "The OpenROAD Project"
*PROGRAM "OpenROAD"
*VERSION "edf00dff99f6c40d67a30c0e22a8191c5d2ed9d6"
*DESIGN_FLOW "NAME_SCOPE LOCAL" "PIN_CAP NONE"
*DIVIDER /
*DELIMITER :
*BUS_DELIMITER []
*T_UNIT 1 NS
*C_UNIT 1 PF
*R_UNIT 1 OHM
*L_UNIT 1 HENRY

*NAME_MAP
*3 inst[0]
*4 inst[1]
*5 inst[2]
*6 inst[3]
*7 op_a[0]
*8 op_a[1]
*9 op_a[2]
*10 op_a[3]
*11 op_a[4]
*12 op_a[5]
*13 op_a[6]
*14 op_a[7]
*15 op_b[0]
*16 op_b[1]
*17 op_b[2]
*18 op_b[3]
*19 op_b[4]
*20 op_b[5]
*21 op_b[6]
*22 op_b[7]
*23 op_out[0]
*24 op_out[1]
*25 op_out[2]
*26 op_out[3]
*27 op_out[4]
*28 op_out[5]
*29 op_out[6]
*30 op_out[7]
*31 _000_
*32 _001_
*33 _002_
*34 _003_
*35 _004_
*36 _005_
*37 _006_
*38 _007_
*39 _008_
*40 _009_
*41 _010_
*42 _011_
*43 _012_
*44 _013_
*45 _014_
*46 _015_
*47 _016_
*48 _017_
*49 _018_
*50 _019_
*51 _020_
*52 _021_
*53 _022_
*54 _023_
*55 _024_
*56 _025_
*57 _026_
*58 _027_
*59 _028_
*60 _029_
*61 _030_
*62 _031_
*63 _032_
*64 _033_
*65 _034_
*66 _035_
*67 _036_
*68 _037_
*69 _038_
*70 _039_
*71 _040_
*72 _041_
*73 _042_
*74 _043_
*75 _044_
*76 _045_
*77 _046_
*78 _047_
*79 _048_
*80 _049_
*81 _050_
*82 _051_
*83 _052_
*84 _053_
*85 _054_
*86 _055_
*87 _056_
*88 _057_
*89 _058_
*90 _059_
*91 _060_
*92 _061_
*93 _062_
*94 _063_
*95 _064_
*96 _065_
*97 _066_
*98 _067_
*99 _068_
*100 _069_
*101 _070_
*102 _071_
*103 _072_
*104 _073_
*105 _074_
*106 _075_
*107 _076_
*108 _077_
*109 _078_
*110 _079_
*111 _080_
*112 _081_
*113 _082_
*114 _083_
*115 _084_
*116 _085_
*117 _086_
*118 _087_
*119 _088_
*120 _089_
*121 _090_
*122 _091_
*123 _092_
*124 _093_
*125 _094_
*126 _095_
*127 _096_
*128 _097_
*129 _098_
*130 _099_
*131 _100_
*132 _101_
*133 _102_
*134 _103_
*135 _104_
*136 _105_
*137 _106_
*138 _107_
*139 _108_
*140 _109_
*141 _110_
*142 _111_
*143 _112_
*144 _113_
*145 _114_
*146 _115_
*147 _116_
*148 _117_
*149 _118_
*150 _119_
*151 _120_
*152 _121_
*153 _122_
*154 _123_
*155 _124_
*156 _125_
*157 _126_
*158 _127_
*159 _128_
*160 _129_
*161 _130_
*162 _131_
*163 _132_
*164 _133_
*165 _134_
*166 _135_
*167 _136_
*168 _137_
*169 _138_
*170 _139_
*171 _140_
*172 _141_
*173 _142_
*174 _143_
*175 _144_
*176 _145_
*177 _146_
*178 _147_
*179 _148_
*180 _149_
*181 _150_
*182 _151_
*183 _152_
*184 _153_
*185 _154_
*186 _155_
*187 _156_
*188 _157_
*189 _158_
*190 _159_
*191 _160_
*192 _161_
*193 _162_
*194 _163_
*195 _164_
*196 _165_
*197 _166_
*198 _167_
*199 _168_
*200 _169_
*201 _170_
*202 _171_
*203 _172_
*204 _173_
*205 _174_
*206 _175_
*207 _176_
*208 _177_
*209 _178_
*210 _179_
*211 _180_
*212 _181_
*213 _182_
*214 _183_
*215 _184_
*216 _185_
*217 _186_
*218 _187_
*219 _188_
*220 _189_
*221 _190_
*222 _191_
*223 _192_
*224 _193_
*225 _194_
*226 _195_
*227 _196_
*228 _197_
*229 _198_
*230 _199_
*231 _200_
*232 _201_
*233 _202_
*234 _203_
*235 _204_
*236 _205_
*237 _206_
*238 _207_
*239 _208_
*240 _209_
*241 _210_
*242 _211_
*243 _212_
*244 _213_
*245 _214_
*246 _215_
*247 _216_
*248 _217_
*249 _218_
*250 _219_
*251 _220_
*252 _221_
*253 _222_
*254 _223_
*255 _224_
*256 _225_
*257 _226_
*258 _227_
*259 _228_
*260 _229_
*261 _230_
*262 _231_
*263 _232_
*264 _233_
*265 _234_
*266 _235_
*267 _236_
*268 _237_
*269 _238_
*270 _239_
*271 _240_
*272 _241_
*273 _242_
*274 _243_
*275 _244_
*276 _245_
*277 _246_
*278 _247_
*279 _248_
*280 _249_
*281 _250_
*282 _251_
*283 _252_
*284 _253_
*285 _254_
*286 _255_
*287 _256_
*288 _257_
*289 _258_
*290 _259_
*291 _260_
*292 _261_
*293 _262_
*294 _263_
*295 _264_
*296 _265_
*297 _266_
*298 _267_
*299 _268_
*300 _269_
*301 _270_
*302 _271_
*303 _272_
*304 _273_
*305 _274_
*306 _275_
*307 _276_
*308 _277_
*309 _278_
*310 _279_
*311 _280_
*312 _281_
*313 _282_
*314 _283_
*315 _284_
*316 _285_
*317 _286_
*318 _287_
*319 _288_
*320 _289_
*321 _290_
*322 _291_
*323 _292_
*324 _293_
*325 _294_
*326 _295_
*327 _296_
*328 _297_
*329 _298_
*330 _299_
*331 _300_
*332 _301_
*333 _302_
*334 _303_
*335 _304_
*336 _305_
*337 _306_
*338 _307_
*339 _308_
*340 _309_
*341 _310_
*342 _311_
*343 _312_
*344 _313_
*345 _314_
*346 _315_
*347 _316_
*348 _317_
*349 _318_
*350 _319_
*351 _320_
*352 _321_
*353 _322_
*354 _323_
*355 _324_
*356 _325_
*357 _326_
*358 _327_
*359 _328_
*360 _329_
*361 _330_
*362 _331_
*363 _332_
*364 _333_
*365 _334_
*366 _335_
*367 _336_
*368 _337_
*369 _338_
*370 _339_
*371 _340_
*372 _341_
*373 _342_
*374 _343_
*375 _344_
*376 _345_
*377 _346_
*378 _347_
*379 _348_
*380 _349_
*381 _350_
*382 _351_
*383 _352_
*384 _353_
*385 _354_
*386 _355_
*387 _356_
*388 _357_
*389 _358_
*390 _359_
*391 _360_
*392 _361_
*393 _362_
*394 _363_
*395 _364_
*396 _365_
*397 _366_
*398 _367_
*399 _368_
*400 _369_
*401 _370_
*402 _371_
*403 _372_
*404 _373_
*405 _374_
*406 _375_
*407 _376_
*408 _377_
*409 _378_
*410 _379_
*411 _380_
*412 _381_
*413 _382_
*414 _383_
*415 _384_
*416 _385_
*417 _386_
*418 _387_
*419 _388_
*420 _389_
*421 _390_
*422 _391_
*423 _392_
*424 _393_
*425 _394_
*426 _395_
*427 _396_
*428 _397_
*429 _398_
*430 _399_
*431 _400_
*432 _401_
*433 _402_
*434 _403_
*435 _404_
*436 _405_
*437 _406_
*438 _407_
*439 _408_
*440 _409_
*441 _410_
*442 _411_
*443 _412_
*444 _413_
*445 _414_
*446 _415_
*447 _416_
*448 _417_
*449 _418_
*450 _419_
*451 _420_
*452 _421_
*453 _422_
*454 _423_
*455 _424_
*456 _425_
*457 _426_
*458 _427_
*459 _428_
*460 _429_
*461 _430_
*462 _431_
*463 _432_
*464 _433_
*465 _434_
*466 _435_
*467 _436_
*468 _437_
*469 _438_
*470 _439_
*471 _440_
*472 _441_
*473 _442_
*474 _443_
*475 _444_
*476 _445_
*477 _446_
*478 _447_
*479 _448_
*480 _449_
*481 _450_
*482 _451_
*483 _452_
*484 _453_
*485 _454_
*486 _455_
*487 _456_
*488 _457_
*489 net1
*490 net10
*491 net11
*492 net12
*493 net13
*494 net14
*495 net15
*496 net16
*497 net17
*498 net18
*499 net19
*500 net2
*501 net20
*502 net21
*503 net22
*504 net23
*505 net24
*506 net25
*507 net26
*508 net27
*509 net28
*510 net29
*511 net3
*512 net30
*513 net31
*514 net32
*515 net33
*516 net34
*517 net35
*518 net36
*519 net37
*520 net38
*521 net39
*522 net4
*523 net40
*524 net41
*525 net42
*526 net43
*527 net44
*528 net45
*529 net46
*530 net47
*531 net48
*532 net49
*533 net5
*534 net50
*535 net51
*536 net52
*537 net53
*538 net54
*539 net55
*540 net56
*541 net57
*542 net58
*543 net59
*544 net6
*545 net60
*546 net61
*547 net62
*548 net63
*549 net64
*550 net65
*551 net66
*552 net67
*553 net68
*554 net69
*555 net7
*556 net70
*557 net71
*558 net72
*559 net73
*560 net74
*561 net75
*562 net76
*563 net77
*564 net78
*565 net79
*566 net8
*567 net80
*568 net81
*569 net82
*570 net83
*571 net84
*572 net85
*573 net86
*574 net87
*575 net88
*576 net89
*577 net9
*578 net90
*579 net91
*580 net92
*581 net93
*582 net94
*583 net95
*584 net96
*585 net97
*586 FILLER_0_109
*587 FILLER_0_113
*588 FILLER_0_125
*589 FILLER_0_137
*590 FILLER_0_141
*591 FILLER_0_15
*592 FILLER_0_153
*593 FILLER_0_165
*594 FILLER_0_169
*595 FILLER_0_181
*596 FILLER_0_193
*597 FILLER_0_197
*598 FILLER_0_209
*599 FILLER_0_221
*600 FILLER_0_225
*601 FILLER_0_237
*602 FILLER_0_249
*603 FILLER_0_253
*604 FILLER_0_27
*605 FILLER_0_29
*606 FILLER_0_3
*607 FILLER_0_41
*608 FILLER_0_53
*609 FILLER_0_57
*610 FILLER_0_69
*611 FILLER_0_81
*612 FILLER_0_85
*613 FILLER_0_97
*614 FILLER_10_109
*615 FILLER_10_121
*616 FILLER_10_133
*617 FILLER_10_139
*618 FILLER_10_141
*619 FILLER_10_15
*620 FILLER_10_153
*621 FILLER_10_165
*622 FILLER_10_177
*623 FILLER_10_189
*624 FILLER_10_195
*625 FILLER_10_197
*626 FILLER_10_209
*627 FILLER_10_221
*628 FILLER_10_233
*629 FILLER_10_245
*630 FILLER_10_251
*631 FILLER_10_253
*632 FILLER_10_27
*633 FILLER_10_29
*634 FILLER_10_3
*635 FILLER_10_41
*636 FILLER_10_53
*637 FILLER_10_65
*638 FILLER_10_77
*639 FILLER_10_83
*640 FILLER_10_85
*641 FILLER_10_97
*642 FILLER_11_105
*643 FILLER_11_111
*644 FILLER_11_113
*645 FILLER_11_125
*646 FILLER_11_137
*647 FILLER_11_149
*648 FILLER_11_15
*649 FILLER_11_161
*650 FILLER_11_167
*651 FILLER_11_169
*652 FILLER_11_181
*653 FILLER_11_193
*654 FILLER_11_205
*655 FILLER_11_217
*656 FILLER_11_223
*657 FILLER_11_225
*658 FILLER_11_237
*659 FILLER_11_249
*660 FILLER_11_255
*661 FILLER_11_27
*662 FILLER_11_3
*663 FILLER_11_39
*664 FILLER_11_51
*665 FILLER_11_55
*666 FILLER_11_57
*667 FILLER_11_69
*668 FILLER_11_81
*669 FILLER_11_93
*670 FILLER_12_109
*671 FILLER_12_121
*672 FILLER_12_133
*673 FILLER_12_139
*674 FILLER_12_141
*675 FILLER_12_15
*676 FILLER_12_153
*677 FILLER_12_165
*678 FILLER_12_177
*679 FILLER_12_189
*680 FILLER_12_195
*681 FILLER_12_197
*682 FILLER_12_209
*683 FILLER_12_221
*684 FILLER_12_233
*685 FILLER_12_245
*686 FILLER_12_251
*687 FILLER_12_253
*688 FILLER_12_27
*689 FILLER_12_29
*690 FILLER_12_3
*691 FILLER_12_41
*692 FILLER_12_53
*693 FILLER_12_65
*694 FILLER_12_77
*695 FILLER_12_83
*696 FILLER_12_85
*697 FILLER_12_97
*698 FILLER_13_105
*699 FILLER_13_111
*700 FILLER_13_113
*701 FILLER_13_125
*702 FILLER_13_137
*703 FILLER_13_149
*704 FILLER_13_15
*705 FILLER_13_161
*706 FILLER_13_167
*707 FILLER_13_169
*708 FILLER_13_181
*709 FILLER_13_188
*710 FILLER_13_194
*711 FILLER_13_206
*712 FILLER_13_214
*713 FILLER_13_222
*714 FILLER_13_229
*715 FILLER_13_241
*716 FILLER_13_253
*717 FILLER_13_27
*718 FILLER_13_3
*719 FILLER_13_39
*720 FILLER_13_51
*721 FILLER_13_55
*722 FILLER_13_57
*723 FILLER_13_69
*724 FILLER_13_81
*725 FILLER_13_93
*726 FILLER_14_107
*727 FILLER_14_119
*728 FILLER_14_125
*729 FILLER_14_129
*730 FILLER_14_138
*731 FILLER_14_144
*732 FILLER_14_15
*733 FILLER_14_152
*734 FILLER_14_159
*735 FILLER_14_168
*736 FILLER_14_180
*737 FILLER_14_204
*738 FILLER_14_231
*739 FILLER_14_243
*740 FILLER_14_251
*741 FILLER_14_253
*742 FILLER_14_27
*743 FILLER_14_29
*744 FILLER_14_3
*745 FILLER_14_41
*746 FILLER_14_53
*747 FILLER_14_65
*748 FILLER_14_77
*749 FILLER_14_83
*750 FILLER_14_85
*751 FILLER_15_107
*752 FILLER_15_111
*753 FILLER_15_116
*754 FILLER_15_126
*755 FILLER_15_15
*756 FILLER_15_153
*757 FILLER_15_166
*758 FILLER_15_176
*759 FILLER_15_191
*760 FILLER_15_203
*761 FILLER_15_211
*762 FILLER_15_221
*763 FILLER_15_230
*764 FILLER_15_242
*765 FILLER_15_254
*766 FILLER_15_27
*767 FILLER_15_3
*768 FILLER_15_39
*769 FILLER_15_51
*770 FILLER_15_55
*771 FILLER_15_57
*772 FILLER_15_69
*773 FILLER_15_81
*774 FILLER_15_93
*775 FILLER_16_105
*776 FILLER_16_113
*777 FILLER_16_137
*778 FILLER_16_141
*779 FILLER_16_15
*780 FILLER_16_153
*781 FILLER_16_171
*782 FILLER_16_183
*783 FILLER_16_195
*784 FILLER_16_197
*785 FILLER_16_209
*786 FILLER_16_221
*787 FILLER_16_230
*788 FILLER_16_242
*789 FILLER_16_250
*790 FILLER_16_253
*791 FILLER_16_27
*792 FILLER_16_29
*793 FILLER_16_3
*794 FILLER_16_41
*795 FILLER_16_53
*796 FILLER_16_72
*797 FILLER_16_76
*798 FILLER_16_80
*799 FILLER_16_85
*800 FILLER_17_113
*801 FILLER_17_15
*802 FILLER_17_151
*803 FILLER_17_166
*804 FILLER_17_181
*805 FILLER_17_187
*806 FILLER_17_195
*807 FILLER_17_207
*808 FILLER_17_215
*809 FILLER_17_225
*810 FILLER_17_234
*811 FILLER_17_246
*812 FILLER_17_254
*813 FILLER_17_27
*814 FILLER_17_3
*815 FILLER_17_39
*816 FILLER_17_47
*817 FILLER_17_68
*818 FILLER_17_80
*819 FILLER_17_92
*820 FILLER_18_118
*821 FILLER_18_138
*822 FILLER_18_148
*823 FILLER_18_15
*824 FILLER_18_160
*825 FILLER_18_172
*826 FILLER_18_180
*827 FILLER_18_186
*828 FILLER_18_194
*829 FILLER_18_201
*830 FILLER_18_213
*831 FILLER_18_221
*832 FILLER_18_225
*833 FILLER_18_233
*834 FILLER_18_244
*835 FILLER_18_253
*836 FILLER_18_27
*837 FILLER_18_29
*838 FILLER_18_3
*839 FILLER_18_41
*840 FILLER_18_56
*841 FILLER_18_68
*842 FILLER_18_72
*843 FILLER_18_93
*844 FILLER_18_97
*845 FILLER_19_104
*846 FILLER_19_120
*847 FILLER_19_141
*848 FILLER_19_15
*849 FILLER_19_153
*850 FILLER_19_165
*851 FILLER_19_169
*852 FILLER_19_219
*853 FILLER_19_223
*854 FILLER_19_225
*855 FILLER_19_237
*856 FILLER_19_27
*857 FILLER_19_3
*858 FILLER_19_39
*859 FILLER_19_51
*860 FILLER_19_55
*861 FILLER_19_57
*862 FILLER_19_69
*863 FILLER_19_98
*864 FILLER_1_105
*865 FILLER_1_111
*866 FILLER_1_113
*867 FILLER_1_125
*868 FILLER_1_137
*869 FILLER_1_149
*870 FILLER_1_15
*871 FILLER_1_161
*872 FILLER_1_167
*873 FILLER_1_169
*874 FILLER_1_181
*875 FILLER_1_193
*876 FILLER_1_205
*877 FILLER_1_217
*878 FILLER_1_223
*879 FILLER_1_225
*880 FILLER_1_237
*881 FILLER_1_249
*882 FILLER_1_257
*883 FILLER_1_27
*884 FILLER_1_3
*885 FILLER_1_39
*886 FILLER_1_51
*887 FILLER_1_55
*888 FILLER_1_57
*889 FILLER_1_69
*890 FILLER_1_81
*891 FILLER_1_93
*892 FILLER_20_100
*893 FILLER_20_114
*894 FILLER_20_122
*895 FILLER_20_126
*896 FILLER_20_132
*897 FILLER_20_15
*898 FILLER_20_162
*899 FILLER_20_170
*900 FILLER_20_184
*901 FILLER_20_197
*902 FILLER_20_221
*903 FILLER_20_233
*904 FILLER_20_251
*905 FILLER_20_253
*906 FILLER_20_27
*907 FILLER_20_29
*908 FILLER_20_3
*909 FILLER_20_41
*910 FILLER_20_67
*911 FILLER_20_83
*912 FILLER_20_88
*913 FILLER_21_108
*914 FILLER_21_116
*915 FILLER_21_124
*916 FILLER_21_15
*917 FILLER_21_161
*918 FILLER_21_167
*919 FILLER_21_183
*920 FILLER_21_194
*921 FILLER_21_202
*922 FILLER_21_208
*923 FILLER_21_214
*924 FILLER_21_222
*925 FILLER_21_225
*926 FILLER_21_238
*927 FILLER_21_255
*928 FILLER_21_27
*929 FILLER_21_3
*930 FILLER_21_39
*931 FILLER_21_55
*932 FILLER_21_60
*933 FILLER_21_78
*934 FILLER_21_84
*935 FILLER_21_96
*936 FILLER_22_103
*937 FILLER_22_107
*938 FILLER_22_111
*939 FILLER_22_123
*940 FILLER_22_139
*941 FILLER_22_181
*942 FILLER_22_189
*943 FILLER_22_195
*944 FILLER_22_203
*945 FILLER_22_215
*946 FILLER_22_227
*947 FILLER_22_239
*948 FILLER_22_244
*949 FILLER_22_253
*950 FILLER_22_26
*951 FILLER_22_29
*952 FILLER_22_3
*953 FILLER_22_59
*954 FILLER_22_71
*955 FILLER_22_75
*956 FILLER_22_83
*957 FILLER_22_91
*958 FILLER_23_100
*959 FILLER_23_107
*960 FILLER_23_111
*961 FILLER_23_120
*962 FILLER_23_128
*963 FILLER_23_137
*964 FILLER_23_153
*965 FILLER_23_167
*966 FILLER_23_175
*967 FILLER_23_187
*968 FILLER_23_199
*969 FILLER_23_211
*970 FILLER_23_231
*971 FILLER_23_235
*972 FILLER_23_241
*973 FILLER_23_251
*974 FILLER_23_3
*975 FILLER_23_36
*976 FILLER_23_54
*977 FILLER_23_60
*978 FILLER_23_68
*979 FILLER_23_78
*980 FILLER_23_94
*981 FILLER_24_112
*982 FILLER_24_124
*983 FILLER_24_128
*984 FILLER_24_13
*985 FILLER_24_135
*986 FILLER_24_139
*987 FILLER_24_141
*988 FILLER_24_145
*989 FILLER_24_182
*990 FILLER_24_188
*991 FILLER_24_194
*992 FILLER_24_201
*993 FILLER_24_205
*994 FILLER_24_222
*995 FILLER_24_237
*996 FILLER_24_24
*997 FILLER_24_256
*998 FILLER_24_3
*999 FILLER_24_53
*1000 FILLER_24_65
*1001 FILLER_24_78
*1002 FILLER_24_94
*1003 FILLER_25_116
*1004 FILLER_25_120
*1005 FILLER_25_124
*1006 FILLER_25_136
*1007 FILLER_25_140
*1008 FILLER_25_17
*1009 FILLER_25_185
*1010 FILLER_25_189
*1011 FILLER_25_208
*1012 FILLER_25_214
*1013 FILLER_25_219
*1014 FILLER_25_223
*1015 FILLER_25_225
*1016 FILLER_25_229
*1017 FILLER_25_234
*1018 FILLER_25_246
*1019 FILLER_25_258
*1020 FILLER_25_29
*1021 FILLER_25_3
*1022 FILLER_25_49
*1023 FILLER_25_55
*1024 FILLER_25_57
*1025 FILLER_25_65
*1026 FILLER_25_71
*1027 FILLER_25_83
*1028 FILLER_25_91
*1029 FILLER_26_114
*1030 FILLER_26_12
*1031 FILLER_26_125
*1032 FILLER_26_133
*1033 FILLER_26_141
*1034 FILLER_26_181
*1035 FILLER_26_193
*1036 FILLER_26_20
*1037 FILLER_26_200
*1038 FILLER_26_212
*1039 FILLER_26_224
*1040 FILLER_26_236
*1041 FILLER_26_240
*1042 FILLER_26_248
*1043 FILLER_26_253
*1044 FILLER_26_29
*1045 FILLER_26_41
*1046 FILLER_26_59
*1047 FILLER_26_6
*1048 FILLER_26_66
*1049 FILLER_26_78
*1050 FILLER_26_85
*1051 FILLER_26_97
*1052 FILLER_27_110
*1053 FILLER_27_113
*1054 FILLER_27_125
*1055 FILLER_27_137
*1056 FILLER_27_14
*1057 FILLER_27_159
*1058 FILLER_27_167
*1059 FILLER_27_179
*1060 FILLER_27_191
*1061 FILLER_27_203
*1062 FILLER_27_215
*1063 FILLER_27_225
*1064 FILLER_27_235
*1065 FILLER_27_247
*1066 FILLER_27_25
*1067 FILLER_27_37
*1068 FILLER_27_41
*1069 FILLER_27_51
*1070 FILLER_27_55
*1071 FILLER_27_6
*1072 FILLER_27_73
*1073 FILLER_27_85
*1074 FILLER_27_97
*1075 FILLER_28_102
*1076 FILLER_28_109
*1077 FILLER_28_121
*1078 FILLER_28_131
*1079 FILLER_28_139
*1080 FILLER_28_141
*1081 FILLER_28_15
*1082 FILLER_28_153
*1083 FILLER_28_175
*1084 FILLER_28_187
*1085 FILLER_28_195
*1086 FILLER_28_197
*1087 FILLER_28_211
*1088 FILLER_28_220
*1089 FILLER_28_228
*1090 FILLER_28_239
*1091 FILLER_28_251
*1092 FILLER_28_253
*1093 FILLER_28_27
*1094 FILLER_28_29
*1095 FILLER_28_3
*1096 FILLER_28_41
*1097 FILLER_28_49
*1098 FILLER_28_90
*1099 FILLER_29_111
*1100 FILLER_29_116
*1101 FILLER_29_143
*1102 FILLER_29_15
*1103 FILLER_29_155
*1104 FILLER_29_167
*1105 FILLER_29_169
*1106 FILLER_29_181
*1107 FILLER_29_189
*1108 FILLER_29_198
*1109 FILLER_29_206
*1110 FILLER_29_222
*1111 FILLER_29_230
*1112 FILLER_29_242
*1113 FILLER_29_248
*1114 FILLER_29_254
*1115 FILLER_29_26
*1116 FILLER_29_3
*1117 FILLER_29_41
*1118 FILLER_29_51
*1119 FILLER_29_55
*1120 FILLER_29_57
*1121 FILLER_29_65
*1122 FILLER_29_69
*1123 FILLER_29_92
*1124 FILLER_2_109
*1125 FILLER_2_121
*1126 FILLER_2_133
*1127 FILLER_2_139
*1128 FILLER_2_141
*1129 FILLER_2_15
*1130 FILLER_2_153
*1131 FILLER_2_165
*1132 FILLER_2_177
*1133 FILLER_2_189
*1134 FILLER_2_195
*1135 FILLER_2_197
*1136 FILLER_2_209
*1137 FILLER_2_221
*1138 FILLER_2_233
*1139 FILLER_2_245
*1140 FILLER_2_251
*1141 FILLER_2_253
*1142 FILLER_2_27
*1143 FILLER_2_29
*1144 FILLER_2_3
*1145 FILLER_2_41
*1146 FILLER_2_53
*1147 FILLER_2_65
*1148 FILLER_2_77
*1149 FILLER_2_83
*1150 FILLER_2_85
*1151 FILLER_2_97
*1152 FILLER_30_109
*1153 FILLER_30_121
*1154 FILLER_30_131
*1155 FILLER_30_141
*1156 FILLER_30_150
*1157 FILLER_30_155
*1158 FILLER_30_161
*1159 FILLER_30_197
*1160 FILLER_30_209
*1161 FILLER_30_224
*1162 FILLER_30_236
*1163 FILLER_30_258
*1164 FILLER_30_27
*1165 FILLER_30_29
*1166 FILLER_30_3
*1167 FILLER_30_55
*1168 FILLER_30_67
*1169 FILLER_30_71
*1170 FILLER_30_83
*1171 FILLER_30_96
*1172 FILLER_31_116
*1173 FILLER_31_128
*1174 FILLER_31_136
*1175 FILLER_31_143
*1176 FILLER_31_149
*1177 FILLER_31_164
*1178 FILLER_31_176
*1179 FILLER_31_188
*1180 FILLER_31_193
*1181 FILLER_31_205
*1182 FILLER_31_217
*1183 FILLER_31_223
*1184 FILLER_31_225
*1185 FILLER_31_233
*1186 FILLER_31_24
*1187 FILLER_31_257
*1188 FILLER_31_44
*1189 FILLER_31_63
*1190 FILLER_31_82
*1191 FILLER_31_94
*1192 FILLER_32_103
*1193 FILLER_32_115
*1194 FILLER_32_126
*1195 FILLER_32_148
*1196 FILLER_32_160
*1197 FILLER_32_172
*1198 FILLER_32_18
*1199 FILLER_32_184
*1200 FILLER_32_197
*1201 FILLER_32_209
*1202 FILLER_32_221
*1203 FILLER_32_233
*1204 FILLER_32_243
*1205 FILLER_32_250
*1206 FILLER_32_253
*1207 FILLER_32_26
*1208 FILLER_32_29
*1209 FILLER_32_3
*1210 FILLER_32_47
*1211 FILLER_32_61
*1212 FILLER_32_73
*1213 FILLER_32_77
*1214 FILLER_32_83
*1215 FILLER_33_109
*1216 FILLER_33_113
*1217 FILLER_33_128
*1218 FILLER_33_141
*1219 FILLER_33_15
*1220 FILLER_33_153
*1221 FILLER_33_165
*1222 FILLER_33_169
*1223 FILLER_33_185
*1224 FILLER_33_197
*1225 FILLER_33_205
*1226 FILLER_33_223
*1227 FILLER_33_225
*1228 FILLER_33_233
*1229 FILLER_33_240
*1230 FILLER_33_252
*1231 FILLER_33_258
*1232 FILLER_33_27
*1233 FILLER_33_3
*1234 FILLER_33_35
*1235 FILLER_33_47
*1236 FILLER_33_55
*1237 FILLER_33_57
*1238 FILLER_33_65
*1239 FILLER_33_97
*1240 FILLER_34_102
*1241 FILLER_34_124
*1242 FILLER_34_147
*1243 FILLER_34_151
*1244 FILLER_34_157
*1245 FILLER_34_162
*1246 FILLER_34_166
*1247 FILLER_34_18
*1248 FILLER_34_185
*1249 FILLER_34_189
*1250 FILLER_34_197
*1251 FILLER_34_223
*1252 FILLER_34_235
*1253 FILLER_34_243
*1254 FILLER_34_251
*1255 FILLER_34_253
*1256 FILLER_34_26
*1257 FILLER_34_29
*1258 FILLER_34_44
*1259 FILLER_34_51
*1260 FILLER_34_59
*1261 FILLER_34_6
*1262 FILLER_34_63
*1263 FILLER_34_75
*1264 FILLER_34_83
*1265 FILLER_34_85
*1266 FILLER_34_93
*1267 FILLER_35_111
*1268 FILLER_35_122
*1269 FILLER_35_136
*1270 FILLER_35_144
*1271 FILLER_35_167
*1272 FILLER_35_169
*1273 FILLER_35_191
*1274 FILLER_35_201
*1275 FILLER_35_209
*1276 FILLER_35_217
*1277 FILLER_35_223
*1278 FILLER_35_225
*1279 FILLER_35_24
*1280 FILLER_35_248
*1281 FILLER_35_256
*1282 FILLER_35_32
*1283 FILLER_35_57
*1284 FILLER_35_69
*1285 FILLER_35_7
*1286 FILLER_35_76
*1287 FILLER_35_97
*1288 FILLER_36_101
*1289 FILLER_36_105
*1290 FILLER_36_111
*1291 FILLER_36_119
*1292 FILLER_36_130
*1293 FILLER_36_138
*1294 FILLER_36_14
*1295 FILLER_36_141
*1296 FILLER_36_149
*1297 FILLER_36_158
*1298 FILLER_36_162
*1299 FILLER_36_169
*1300 FILLER_36_177
*1301 FILLER_36_188
*1302 FILLER_36_197
*1303 FILLER_36_20
*1304 FILLER_36_209
*1305 FILLER_36_221
*1306 FILLER_36_233
*1307 FILLER_36_248
*1308 FILLER_36_253
*1309 FILLER_36_38
*1310 FILLER_36_50
*1311 FILLER_36_6
*1312 FILLER_36_62
*1313 FILLER_36_85
*1314 FILLER_36_97
*1315 FILLER_37_110
*1316 FILLER_37_113
*1317 FILLER_37_125
*1318 FILLER_37_141
*1319 FILLER_37_15
*1320 FILLER_37_153
*1321 FILLER_37_159
*1322 FILLER_37_166
*1323 FILLER_37_173
*1324 FILLER_37_185
*1325 FILLER_37_205
*1326 FILLER_37_217
*1327 FILLER_37_223
*1328 FILLER_37_225
*1329 FILLER_37_229
*1330 FILLER_37_235
*1331 FILLER_37_248
*1332 FILLER_37_256
*1333 FILLER_37_27
*1334 FILLER_37_3
*1335 FILLER_37_39
*1336 FILLER_37_47
*1337 FILLER_37_54
*1338 FILLER_37_61
*1339 FILLER_37_69
*1340 FILLER_37_78
*1341 FILLER_37_86
*1342 FILLER_37_98
*1343 FILLER_38_105
*1344 FILLER_38_117
*1345 FILLER_38_129
*1346 FILLER_38_137
*1347 FILLER_38_141
*1348 FILLER_38_15
*1349 FILLER_38_153
*1350 FILLER_38_165
*1351 FILLER_38_171
*1352 FILLER_38_183
*1353 FILLER_38_195
*1354 FILLER_38_197
*1355 FILLER_38_220
*1356 FILLER_38_230
*1357 FILLER_38_234
*1358 FILLER_38_238
*1359 FILLER_38_250
*1360 FILLER_38_253
*1361 FILLER_38_27
*1362 FILLER_38_29
*1363 FILLER_38_3
*1364 FILLER_38_37
*1365 FILLER_38_45
*1366 FILLER_38_50
*1367 FILLER_38_62
*1368 FILLER_38_74
*1369 FILLER_38_82
*1370 FILLER_38_85
*1371 FILLER_38_97
*1372 FILLER_39_102
*1373 FILLER_39_111
*1374 FILLER_39_113
*1375 FILLER_39_125
*1376 FILLER_39_134
*1377 FILLER_39_15
*1378 FILLER_39_162
*1379 FILLER_39_177
*1380 FILLER_39_194
*1381 FILLER_39_206
*1382 FILLER_39_212
*1383 FILLER_39_223
*1384 FILLER_39_225
*1385 FILLER_39_232
*1386 FILLER_39_244
*1387 FILLER_39_256
*1388 FILLER_39_27
*1389 FILLER_39_3
*1390 FILLER_39_39
*1391 FILLER_39_51
*1392 FILLER_39_55
*1393 FILLER_39_57
*1394 FILLER_39_69
*1395 FILLER_39_77
*1396 FILLER_39_90
*1397 FILLER_3_105
*1398 FILLER_3_111
*1399 FILLER_3_113
*1400 FILLER_3_125
*1401 FILLER_3_137
*1402 FILLER_3_149
*1403 FILLER_3_15
*1404 FILLER_3_161
*1405 FILLER_3_167
*1406 FILLER_3_169
*1407 FILLER_3_181
*1408 FILLER_3_193
*1409 FILLER_3_205
*1410 FILLER_3_217
*1411 FILLER_3_223
*1412 FILLER_3_225
*1413 FILLER_3_237
*1414 FILLER_3_249
*1415 FILLER_3_257
*1416 FILLER_3_27
*1417 FILLER_3_3
*1418 FILLER_3_39
*1419 FILLER_3_51
*1420 FILLER_3_55
*1421 FILLER_3_57
*1422 FILLER_3_69
*1423 FILLER_3_81
*1424 FILLER_3_93
*1425 FILLER_40_102
*1426 FILLER_40_107
*1427 FILLER_40_119
*1428 FILLER_40_141
*1429 FILLER_40_15
*1430 FILLER_40_179
*1431 FILLER_40_191
*1432 FILLER_40_195
*1433 FILLER_40_217
*1434 FILLER_40_229
*1435 FILLER_40_241
*1436 FILLER_40_27
*1437 FILLER_40_29
*1438 FILLER_40_3
*1439 FILLER_40_41
*1440 FILLER_40_53
*1441 FILLER_40_65
*1442 FILLER_40_77
*1443 FILLER_40_83
*1444 FILLER_40_88
*1445 FILLER_40_94
*1446 FILLER_41_119
*1447 FILLER_41_141
*1448 FILLER_41_15
*1449 FILLER_41_153
*1450 FILLER_41_184
*1451 FILLER_41_205
*1452 FILLER_41_240
*1453 FILLER_41_257
*1454 FILLER_41_27
*1455 FILLER_41_3
*1456 FILLER_41_39
*1457 FILLER_41_51
*1458 FILLER_41_55
*1459 FILLER_41_57
*1460 FILLER_41_69
*1461 FILLER_41_75
*1462 FILLER_42_109
*1463 FILLER_42_117
*1464 FILLER_42_131
*1465 FILLER_42_138
*1466 FILLER_42_141
*1467 FILLER_42_15
*1468 FILLER_42_153
*1469 FILLER_42_157
*1470 FILLER_42_178
*1471 FILLER_42_182
*1472 FILLER_42_216
*1473 FILLER_42_228
*1474 FILLER_42_240
*1475 FILLER_42_245
*1476 FILLER_42_256
*1477 FILLER_42_27
*1478 FILLER_42_29
*1479 FILLER_42_3
*1480 FILLER_42_41
*1481 FILLER_42_53
*1482 FILLER_42_65
*1483 FILLER_42_77
*1484 FILLER_42_83
*1485 FILLER_42_85
*1486 FILLER_42_97
*1487 FILLER_43_109
*1488 FILLER_43_134
*1489 FILLER_43_141
*1490 FILLER_43_147
*1491 FILLER_43_15
*1492 FILLER_43_153
*1493 FILLER_43_161
*1494 FILLER_43_167
*1495 FILLER_43_175
*1496 FILLER_43_197
*1497 FILLER_43_213
*1498 FILLER_43_221
*1499 FILLER_43_225
*1500 FILLER_43_237
*1501 FILLER_43_249
*1502 FILLER_43_253
*1503 FILLER_43_27
*1504 FILLER_43_29
*1505 FILLER_43_3
*1506 FILLER_43_41
*1507 FILLER_43_53
*1508 FILLER_43_57
*1509 FILLER_43_69
*1510 FILLER_43_81
*1511 FILLER_43_85
*1512 FILLER_43_97
*1513 FILLER_4_109
*1514 FILLER_4_121
*1515 FILLER_4_133
*1516 FILLER_4_139
*1517 FILLER_4_141
*1518 FILLER_4_15
*1519 FILLER_4_153
*1520 FILLER_4_165
*1521 FILLER_4_177
*1522 FILLER_4_189
*1523 FILLER_4_195
*1524 FILLER_4_197
*1525 FILLER_4_209
*1526 FILLER_4_221
*1527 FILLER_4_233
*1528 FILLER_4_245
*1529 FILLER_4_251
*1530 FILLER_4_253
*1531 FILLER_4_27
*1532 FILLER_4_29
*1533 FILLER_4_3
*1534 FILLER_4_41
*1535 FILLER_4_53
*1536 FILLER_4_65
*1537 FILLER_4_77
*1538 FILLER_4_83
*1539 FILLER_4_85
*1540 FILLER_4_97
*1541 FILLER_5_105
*1542 FILLER_5_111
*1543 FILLER_5_113
*1544 FILLER_5_125
*1545 FILLER_5_137
*1546 FILLER_5_149
*1547 FILLER_5_15
*1548 FILLER_5_161
*1549 FILLER_5_167
*1550 FILLER_5_169
*1551 FILLER_5_181
*1552 FILLER_5_193
*1553 FILLER_5_205
*1554 FILLER_5_217
*1555 FILLER_5_223
*1556 FILLER_5_225
*1557 FILLER_5_237
*1558 FILLER_5_249
*1559 FILLER_5_257
*1560 FILLER_5_27
*1561 FILLER_5_3
*1562 FILLER_5_39
*1563 FILLER_5_51
*1564 FILLER_5_55
*1565 FILLER_5_57
*1566 FILLER_5_69
*1567 FILLER_5_81
*1568 FILLER_5_93
*1569 FILLER_6_109
*1570 FILLER_6_121
*1571 FILLER_6_133
*1572 FILLER_6_139
*1573 FILLER_6_141
*1574 FILLER_6_15
*1575 FILLER_6_153
*1576 FILLER_6_165
*1577 FILLER_6_177
*1578 FILLER_6_189
*1579 FILLER_6_195
*1580 FILLER_6_197
*1581 FILLER_6_209
*1582 FILLER_6_221
*1583 FILLER_6_233
*1584 FILLER_6_245
*1585 FILLER_6_251
*1586 FILLER_6_253
*1587 FILLER_6_27
*1588 FILLER_6_29
*1589 FILLER_6_3
*1590 FILLER_6_41
*1591 FILLER_6_53
*1592 FILLER_6_65
*1593 FILLER_6_77
*1594 FILLER_6_83
*1595 FILLER_6_85
*1596 FILLER_6_97
*1597 FILLER_7_105
*1598 FILLER_7_111
*1599 FILLER_7_113
*1600 FILLER_7_125
*1601 FILLER_7_137
*1602 FILLER_7_149
*1603 FILLER_7_15
*1604 FILLER_7_161
*1605 FILLER_7_167
*1606 FILLER_7_169
*1607 FILLER_7_181
*1608 FILLER_7_193
*1609 FILLER_7_205
*1610 FILLER_7_217
*1611 FILLER_7_223
*1612 FILLER_7_225
*1613 FILLER_7_237
*1614 FILLER_7_249
*1615 FILLER_7_257
*1616 FILLER_7_27
*1617 FILLER_7_3
*1618 FILLER_7_39
*1619 FILLER_7_51
*1620 FILLER_7_55
*1621 FILLER_7_57
*1622 FILLER_7_69
*1623 FILLER_7_81
*1624 FILLER_7_93
*1625 FILLER_8_109
*1626 FILLER_8_121
*1627 FILLER_8_133
*1628 FILLER_8_139
*1629 FILLER_8_141
*1630 FILLER_8_15
*1631 FILLER_8_153
*1632 FILLER_8_165
*1633 FILLER_8_177
*1634 FILLER_8_189
*1635 FILLER_8_195
*1636 FILLER_8_197
*1637 FILLER_8_209
*1638 FILLER_8_221
*1639 FILLER_8_233
*1640 FILLER_8_245
*1641 FILLER_8_251
*1642 FILLER_8_253
*1643 FILLER_8_27
*1644 FILLER_8_29
*1645 FILLER_8_3
*1646 FILLER_8_41
*1647 FILLER_8_53
*1648 FILLER_8_65
*1649 FILLER_8_77
*1650 FILLER_8_83
*1651 FILLER_8_85
*1652 FILLER_8_97
*1653 FILLER_9_105
*1654 FILLER_9_111
*1655 FILLER_9_113
*1656 FILLER_9_125
*1657 FILLER_9_137
*1658 FILLER_9_149
*1659 FILLER_9_15
*1660 FILLER_9_161
*1661 FILLER_9_167
*1662 FILLER_9_169
*1663 FILLER_9_181
*1664 FILLER_9_193
*1665 FILLER_9_205
*1666 FILLER_9_217
*1667 FILLER_9_223
*1668 FILLER_9_225
*1669 FILLER_9_237
*1670 FILLER_9_249
*1671 FILLER_9_257
*1672 FILLER_9_27
*1673 FILLER_9_3
*1674 FILLER_9_39
*1675 FILLER_9_51
*1676 FILLER_9_55
*1677 FILLER_9_57
*1678 FILLER_9_69
*1679 FILLER_9_81
*1680 FILLER_9_93
*1681 PHY_EDGE_ROW_0_Left_44
*1682 PHY_EDGE_ROW_0_Right_0
*1683 PHY_EDGE_ROW_10_Left_54
*1684 PHY_EDGE_ROW_10_Right_10
*1685 PHY_EDGE_ROW_11_Left_55
*1686 PHY_EDGE_ROW_11_Right_11
*1687 PHY_EDGE_ROW_12_Left_56
*1688 PHY_EDGE_ROW_12_Right_12
*1689 PHY_EDGE_ROW_13_Left_57
*1690 PHY_EDGE_ROW_13_Right_13
*1691 PHY_EDGE_ROW_14_Left_58
*1692 PHY_EDGE_ROW_14_Right_14
*1693 PHY_EDGE_ROW_15_Left_59
*1694 PHY_EDGE_ROW_15_Right_15
*1695 PHY_EDGE_ROW_16_Left_60
*1696 PHY_EDGE_ROW_16_Right_16
*1697 PHY_EDGE_ROW_17_Left_61
*1698 PHY_EDGE_ROW_17_Right_17
*1699 PHY_EDGE_ROW_18_Left_62
*1700 PHY_EDGE_ROW_18_Right_18
*1701 PHY_EDGE_ROW_19_Left_63
*1702 PHY_EDGE_ROW_19_Right_19
*1703 PHY_EDGE_ROW_1_Left_45
*1704 PHY_EDGE_ROW_1_Right_1
*1705 PHY_EDGE_ROW_20_Left_64
*1706 PHY_EDGE_ROW_20_Right_20
*1707 PHY_EDGE_ROW_21_Left_65
*1708 PHY_EDGE_ROW_21_Right_21
*1709 PHY_EDGE_ROW_22_Left_66
*1710 PHY_EDGE_ROW_22_Right_22
*1711 PHY_EDGE_ROW_23_Left_67
*1712 PHY_EDGE_ROW_23_Right_23
*1713 PHY_EDGE_ROW_24_Left_68
*1714 PHY_EDGE_ROW_24_Right_24
*1715 PHY_EDGE_ROW_25_Left_69
*1716 PHY_EDGE_ROW_25_Right_25
*1717 PHY_EDGE_ROW_26_Left_70
*1718 PHY_EDGE_ROW_26_Right_26
*1719 PHY_EDGE_ROW_27_Left_71
*1720 PHY_EDGE_ROW_27_Right_27
*1721 PHY_EDGE_ROW_28_Left_72
*1722 PHY_EDGE_ROW_28_Right_28
*1723 PHY_EDGE_ROW_29_Left_73
*1724 PHY_EDGE_ROW_29_Right_29
*1725 PHY_EDGE_ROW_2_Left_46
*1726 PHY_EDGE_ROW_2_Right_2
*1727 PHY_EDGE_ROW_30_Left_74
*1728 PHY_EDGE_ROW_30_Right_30
*1729 PHY_EDGE_ROW_31_Left_75
*1730 PHY_EDGE_ROW_31_Right_31
*1731 PHY_EDGE_ROW_32_Left_76
*1732 PHY_EDGE_ROW_32_Right_32
*1733 PHY_EDGE_ROW_33_Left_77
*1734 PHY_EDGE_ROW_33_Right_33
*1735 PHY_EDGE_ROW_34_Left_78
*1736 PHY_EDGE_ROW_34_Right_34
*1737 PHY_EDGE_ROW_35_Left_79
*1738 PHY_EDGE_ROW_35_Right_35
*1739 PHY_EDGE_ROW_36_Left_80
*1740 PHY_EDGE_ROW_36_Right_36
*1741 PHY_EDGE_ROW_37_Left_81
*1742 PHY_EDGE_ROW_37_Right_37
*1743 PHY_EDGE_ROW_38_Left_82
*1744 PHY_EDGE_ROW_38_Right_38
*1745 PHY_EDGE_ROW_39_Left_83
*1746 PHY_EDGE_ROW_39_Right_39
*1747 PHY_EDGE_ROW_3_Left_47
*1748 PHY_EDGE_ROW_3_Right_3
*1749 PHY_EDGE_ROW_40_Left_84
*1750 PHY_EDGE_ROW_40_Right_40
*1751 PHY_EDGE_ROW_41_Left_85
*1752 PHY_EDGE_ROW_41_Right_41
*1753 PHY_EDGE_ROW_42_Left_86
*1754 PHY_EDGE_ROW_42_Right_42
*1755 PHY_EDGE_ROW_43_Left_87
*1756 PHY_EDGE_ROW_43_Right_43
*1757 PHY_EDGE_ROW_4_Left_48
*1758 PHY_EDGE_ROW_4_Right_4
*1759 PHY_EDGE_ROW_5_Left_49
*1760 PHY_EDGE_ROW_5_Right_5
*1761 PHY_EDGE_ROW_6_Left_50
*1762 PHY_EDGE_ROW_6_Right_6
*1763 PHY_EDGE_ROW_7_Left_51
*1764 PHY_EDGE_ROW_7_Right_7
*1765 PHY_EDGE_ROW_8_Left_52
*1766 PHY_EDGE_ROW_8_Right_8
*1767 PHY_EDGE_ROW_9_Left_53
*1768 PHY_EDGE_ROW_9_Right_9
*1769 TAP_TAPCELL_ROW_0_88
*1770 TAP_TAPCELL_ROW_0_89
*1771 TAP_TAPCELL_ROW_0_90
*1772 TAP_TAPCELL_ROW_0_91
*1773 TAP_TAPCELL_ROW_0_92
*1774 TAP_TAPCELL_ROW_0_93
*1775 TAP_TAPCELL_ROW_0_94
*1776 TAP_TAPCELL_ROW_0_95
*1777 TAP_TAPCELL_ROW_0_96
*1778 TAP_TAPCELL_ROW_10_137
*1779 TAP_TAPCELL_ROW_10_138
*1780 TAP_TAPCELL_ROW_10_139
*1781 TAP_TAPCELL_ROW_10_140
*1782 TAP_TAPCELL_ROW_10_141
*1783 TAP_TAPCELL_ROW_11_142
*1784 TAP_TAPCELL_ROW_11_143
*1785 TAP_TAPCELL_ROW_11_144
*1786 TAP_TAPCELL_ROW_11_145
*1787 TAP_TAPCELL_ROW_12_146
*1788 TAP_TAPCELL_ROW_12_147
*1789 TAP_TAPCELL_ROW_12_148
*1790 TAP_TAPCELL_ROW_12_149
*1791 TAP_TAPCELL_ROW_12_150
*1792 TAP_TAPCELL_ROW_13_151
*1793 TAP_TAPCELL_ROW_13_152
*1794 TAP_TAPCELL_ROW_13_153
*1795 TAP_TAPCELL_ROW_13_154
*1796 TAP_TAPCELL_ROW_14_155
*1797 TAP_TAPCELL_ROW_14_156
*1798 TAP_TAPCELL_ROW_14_157
*1799 TAP_TAPCELL_ROW_14_158
*1800 TAP_TAPCELL_ROW_14_159
*1801 TAP_TAPCELL_ROW_15_160
*1802 TAP_TAPCELL_ROW_15_161
*1803 TAP_TAPCELL_ROW_15_162
*1804 TAP_TAPCELL_ROW_15_163
*1805 TAP_TAPCELL_ROW_16_164
*1806 TAP_TAPCELL_ROW_16_165
*1807 TAP_TAPCELL_ROW_16_166
*1808 TAP_TAPCELL_ROW_16_167
*1809 TAP_TAPCELL_ROW_16_168
*1810 TAP_TAPCELL_ROW_17_169
*1811 TAP_TAPCELL_ROW_17_170
*1812 TAP_TAPCELL_ROW_17_171
*1813 TAP_TAPCELL_ROW_17_172
*1814 TAP_TAPCELL_ROW_18_173
*1815 TAP_TAPCELL_ROW_18_174
*1816 TAP_TAPCELL_ROW_18_175
*1817 TAP_TAPCELL_ROW_18_176
*1818 TAP_TAPCELL_ROW_18_177
*1819 TAP_TAPCELL_ROW_19_178
*1820 TAP_TAPCELL_ROW_19_179
*1821 TAP_TAPCELL_ROW_19_180
*1822 TAP_TAPCELL_ROW_19_181
*1823 TAP_TAPCELL_ROW_1_100
*1824 TAP_TAPCELL_ROW_1_97
*1825 TAP_TAPCELL_ROW_1_98
*1826 TAP_TAPCELL_ROW_1_99
*1827 TAP_TAPCELL_ROW_20_182
*1828 TAP_TAPCELL_ROW_20_183
*1829 TAP_TAPCELL_ROW_20_184
*1830 TAP_TAPCELL_ROW_20_185
*1831 TAP_TAPCELL_ROW_20_186
*1832 TAP_TAPCELL_ROW_21_187
*1833 TAP_TAPCELL_ROW_21_188
*1834 TAP_TAPCELL_ROW_21_189
*1835 TAP_TAPCELL_ROW_21_190
*1836 TAP_TAPCELL_ROW_22_191
*1837 TAP_TAPCELL_ROW_22_192
*1838 TAP_TAPCELL_ROW_22_193
*1839 TAP_TAPCELL_ROW_22_194
*1840 TAP_TAPCELL_ROW_22_195
*1841 TAP_TAPCELL_ROW_23_196
*1842 TAP_TAPCELL_ROW_23_197
*1843 TAP_TAPCELL_ROW_23_198
*1844 TAP_TAPCELL_ROW_23_199
*1845 TAP_TAPCELL_ROW_24_200
*1846 TAP_TAPCELL_ROW_24_201
*1847 TAP_TAPCELL_ROW_24_202
*1848 TAP_TAPCELL_ROW_24_203
*1849 TAP_TAPCELL_ROW_24_204
*1850 TAP_TAPCELL_ROW_25_205
*1851 TAP_TAPCELL_ROW_25_206
*1852 TAP_TAPCELL_ROW_25_207
*1853 TAP_TAPCELL_ROW_25_208
*1854 TAP_TAPCELL_ROW_26_209
*1855 TAP_TAPCELL_ROW_26_210
*1856 TAP_TAPCELL_ROW_26_211
*1857 TAP_TAPCELL_ROW_26_212
*1858 TAP_TAPCELL_ROW_26_213
*1859 TAP_TAPCELL_ROW_27_214
*1860 TAP_TAPCELL_ROW_27_215
*1861 TAP_TAPCELL_ROW_27_216
*1862 TAP_TAPCELL_ROW_27_217
*1863 TAP_TAPCELL_ROW_28_218
*1864 TAP_TAPCELL_ROW_28_219
*1865 TAP_TAPCELL_ROW_28_220
*1866 TAP_TAPCELL_ROW_28_221
*1867 TAP_TAPCELL_ROW_28_222
*1868 TAP_TAPCELL_ROW_29_223
*1869 TAP_TAPCELL_ROW_29_224
*1870 TAP_TAPCELL_ROW_29_225
*1871 TAP_TAPCELL_ROW_29_226
*1872 TAP_TAPCELL_ROW_2_101
*1873 TAP_TAPCELL_ROW_2_102
*1874 TAP_TAPCELL_ROW_2_103
*1875 TAP_TAPCELL_ROW_2_104
*1876 TAP_TAPCELL_ROW_2_105
*1877 TAP_TAPCELL_ROW_30_227
*1878 TAP_TAPCELL_ROW_30_228
*1879 TAP_TAPCELL_ROW_30_229
*1880 TAP_TAPCELL_ROW_30_230
*1881 TAP_TAPCELL_ROW_30_231
*1882 TAP_TAPCELL_ROW_31_232
*1883 TAP_TAPCELL_ROW_31_233
*1884 TAP_TAPCELL_ROW_31_234
*1885 TAP_TAPCELL_ROW_31_235
*1886 TAP_TAPCELL_ROW_32_236
*1887 TAP_TAPCELL_ROW_32_237
*1888 TAP_TAPCELL_ROW_32_238
*1889 TAP_TAPCELL_ROW_32_239
*1890 TAP_TAPCELL_ROW_32_240
*1891 TAP_TAPCELL_ROW_33_241
*1892 TAP_TAPCELL_ROW_33_242
*1893 TAP_TAPCELL_ROW_33_243
*1894 TAP_TAPCELL_ROW_33_244
*1895 TAP_TAPCELL_ROW_34_245
*1896 TAP_TAPCELL_ROW_34_246
*1897 TAP_TAPCELL_ROW_34_247
*1898 TAP_TAPCELL_ROW_34_248
*1899 TAP_TAPCELL_ROW_34_249
*1900 TAP_TAPCELL_ROW_35_250
*1901 TAP_TAPCELL_ROW_35_251
*1902 TAP_TAPCELL_ROW_35_252
*1903 TAP_TAPCELL_ROW_35_253
*1904 TAP_TAPCELL_ROW_36_254
*1905 TAP_TAPCELL_ROW_36_255
*1906 TAP_TAPCELL_ROW_36_256
*1907 TAP_TAPCELL_ROW_36_257
*1908 TAP_TAPCELL_ROW_36_258
*1909 TAP_TAPCELL_ROW_37_259
*1910 TAP_TAPCELL_ROW_37_260
*1911 TAP_TAPCELL_ROW_37_261
*1912 TAP_TAPCELL_ROW_37_262
*1913 TAP_TAPCELL_ROW_38_263
*1914 TAP_TAPCELL_ROW_38_264
*1915 TAP_TAPCELL_ROW_38_265
*1916 TAP_TAPCELL_ROW_38_266
*1917 TAP_TAPCELL_ROW_38_267
*1918 TAP_TAPCELL_ROW_39_268
*1919 TAP_TAPCELL_ROW_39_269
*1920 TAP_TAPCELL_ROW_39_270
*1921 TAP_TAPCELL_ROW_39_271
*1922 TAP_TAPCELL_ROW_3_106
*1923 TAP_TAPCELL_ROW_3_107
*1924 TAP_TAPCELL_ROW_3_108
*1925 TAP_TAPCELL_ROW_3_109
*1926 TAP_TAPCELL_ROW_40_272
*1927 TAP_TAPCELL_ROW_40_273
*1928 TAP_TAPCELL_ROW_40_274
*1929 TAP_TAPCELL_ROW_40_275
*1930 TAP_TAPCELL_ROW_40_276
*1931 TAP_TAPCELL_ROW_41_277
*1932 TAP_TAPCELL_ROW_41_278
*1933 TAP_TAPCELL_ROW_41_279
*1934 TAP_TAPCELL_ROW_41_280
*1935 TAP_TAPCELL_ROW_42_281
*1936 TAP_TAPCELL_ROW_42_282
*1937 TAP_TAPCELL_ROW_42_283
*1938 TAP_TAPCELL_ROW_42_284
*1939 TAP_TAPCELL_ROW_42_285
*1940 TAP_TAPCELL_ROW_43_286
*1941 TAP_TAPCELL_ROW_43_287
*1942 TAP_TAPCELL_ROW_43_288
*1943 TAP_TAPCELL_ROW_43_289
*1944 TAP_TAPCELL_ROW_43_290
*1945 TAP_TAPCELL_ROW_43_291
*1946 TAP_TAPCELL_ROW_43_292
*1947 TAP_TAPCELL_ROW_43_293
*1948 TAP_TAPCELL_ROW_43_294
*1949 TAP_TAPCELL_ROW_4_110
*1950 TAP_TAPCELL_ROW_4_111
*1951 TAP_TAPCELL_ROW_4_112
*1952 TAP_TAPCELL_ROW_4_113
*1953 TAP_TAPCELL_ROW_4_114
*1954 TAP_TAPCELL_ROW_5_115
*1955 TAP_TAPCELL_ROW_5_116
*1956 TAP_TAPCELL_ROW_5_117
*1957 TAP_TAPCELL_ROW_5_118
*1958 TAP_TAPCELL_ROW_6_119
*1959 TAP_TAPCELL_ROW_6_120
*1960 TAP_TAPCELL_ROW_6_121
*1961 TAP_TAPCELL_ROW_6_122
*1962 TAP_TAPCELL_ROW_6_123
*1963 TAP_TAPCELL_ROW_7_124
*1964 TAP_TAPCELL_ROW_7_125
*1965 TAP_TAPCELL_ROW_7_126
*1966 TAP_TAPCELL_ROW_7_127
*1967 TAP_TAPCELL_ROW_8_128
*1968 TAP_TAPCELL_ROW_8_129
*1969 TAP_TAPCELL_ROW_8_130
*1970 TAP_TAPCELL_ROW_8_131
*1971 TAP_TAPCELL_ROW_8_132
*1972 TAP_TAPCELL_ROW_9_133
*1973 TAP_TAPCELL_ROW_9_134
*1974 TAP_TAPCELL_ROW_9_135
*1975 TAP_TAPCELL_ROW_9_136
*1976 _458_
*1977 _459_
*1978 _460_
*1979 _461_
*1980 _462_
*1981 _463_
*1982 _464_
*1983 _465_
*1984 _466_
*1985 _467_
*1986 _468_
*1987 _469_
*1988 _470_
*1989 _471_
*1990 _472_
*1991 _473_
*1992 _474_
*1993 _475_
*1994 _476_
*1995 _477_
*1996 _478_
*1997 _479_
*1998 _480_
*1999 _481_
*2000 _482_
*2001 _483_
*2002 _484_
*2003 _485_
*2004 _486_
*2005 _487_
*2006 _488_
*2007 _489_
*2008 _490_
*2009 _491_
*2010 _492_
*2011 _493_
*2012 _494_
*2013 _495_
*2014 _496_
*2015 _497_
*2016 _498_
*2017 _499_
*2018 _500_
*2019 _501_
*2020 _502_
*2021 _503_
*2022 _504_
*2023 _505_
*2024 _506_
*2025 _507_
*2026 _508_
*2027 _509_
*2028 _510_
*2029 _511_
*2030 _512_
*2031 _513_
*2032 _514_
*2033 _515_
*2034 _516_
*2035 _517_
*2036 _518_
*2037 _519_
*2038 _520_
*2039 _521_
*2040 _522_
*2041 _523_
*2042 _524_
*2043 _525_
*2044 _526_
*2045 _527_
*2046 _528_
*2047 _529_
*2048 _530_
*2049 _531_
*2050 _532_
*2051 _533_
*2052 _534_
*2053 _535_
*2054 _536_
*2055 _537_
*2056 _538_
*2057 _539_
*2058 _540_
*2059 _541_
*2060 _542_
*2061 _543_
*2062 _544_
*2063 _545_
*2064 _546_
*2065 _547_
*2066 _548_
*2067 _549_
*2068 _550_
*2069 _551_
*2070 _552_
*2071 _553_
*2072 _554_
*2073 _555_
*2074 _556_
*2075 _557_
*2076 _558_
*2077 _559_
*2078 _560_
*2079 _561_
*2080 _562_
*2081 _563_
*2082 _564_
*2083 _565_
*2084 _566_
*2085 _567_
*2086 _568_
*2087 _569_
*2088 _570_
*2089 _571_
*2090 _572_
*2091 _573_
*2092 _574_
*2093 _575_
*2094 _576_
*2095 _577_
*2096 _578_
*2097 _579_
*2098 _580_
*2099 _581_
*2100 _582_
*2101 _583_
*2102 _584_
*2103 _585_
*2104 _586_
*2105 _587_
*2106 _588_
*2107 _589_
*2108 _590_
*2109 _591_
*2110 _592_
*2111 _593_
*2112 _594_
*2113 _595_
*2114 _596_
*2115 _597_
*2116 _598_
*2117 _599_
*2118 _600_
*2119 _601_
*2120 _602_
*2121 _603_
*2122 _604_
*2123 _605_
*2124 _606_
*2125 _607_
*2126 _608_
*2127 _609_
*2128 _610_
*2129 _611_
*2130 _612_
*2131 _613_
*2132 _614_
*2133 _615_
*2134 _616_
*2135 _617_
*2136 _618_
*2137 _619_
*2138 _620_
*2139 _621_
*2140 _622_
*2141 _623_
*2142 _624_
*2143 _625_
*2144 _626_
*2145 _627_
*2146 _628_
*2147 _629_
*2148 _630_
*2149 _631_
*2150 _632_
*2151 _633_
*2152 _634_
*2153 _635_
*2154 _636_
*2155 _637_
*2156 _638_
*2157 _639_
*2158 _640_
*2159 _641_
*2160 _642_
*2161 _643_
*2162 _644_
*2163 _645_
*2164 _646_
*2165 _647_
*2166 _648_
*2167 _649_
*2168 _650_
*2169 _651_
*2170 _652_
*2171 _653_
*2172 _654_
*2173 _655_
*2174 _656_
*2175 _657_
*2176 _658_
*2177 _659_
*2178 _660_
*2179 _661_
*2180 _662_
*2181 _663_
*2182 _664_
*2183 _665_
*2184 _666_
*2185 _667_
*2186 _668_
*2187 _669_
*2188 _670_
*2189 _671_
*2190 _672_
*2191 _673_
*2192 _674_
*2193 _675_
*2194 _676_
*2195 _677_
*2196 _678_
*2197 _679_
*2198 _680_
*2199 _681_
*2200 _682_
*2201 _683_
*2202 _684_
*2203 _685_
*2204 _686_
*2205 _687_
*2206 _688_
*2207 _689_
*2208 _690_
*2209 _691_
*2210 _692_
*2211 _693_
*2212 _694_
*2213 _695_
*2214 _696_
*2215 _697_
*2216 _698_
*2217 _699_
*2218 _700_
*2219 _701_
*2220 _702_
*2221 _703_
*2222 _704_
*2223 _705_
*2224 _706_
*2225 _707_
*2226 _708_
*2227 _709_
*2228 _710_
*2229 _711_
*2230 _712_
*2231 _713_
*2232 _714_
*2233 _715_
*2234 _716_
*2235 _717_
*2236 _718_
*2237 _719_
*2238 _720_
*2239 _721_
*2240 _722_
*2241 _723_
*2242 _724_
*2243 _725_
*2244 _726_
*2245 _727_
*2246 _728_
*2247 _729_
*2248 _730_
*2249 _731_
*2250 _732_
*2251 _733_
*2252 _734_
*2253 _735_
*2254 _736_
*2255 _737_
*2256 _738_
*2257 _739_
*2258 _740_
*2259 _741_
*2260 _742_
*2261 _743_
*2262 _744_
*2263 _745_
*2264 _746_
*2265 _747_
*2266 _748_
*2267 _749_
*2268 _750_
*2269 _751_
*2270 _752_
*2271 _753_
*2272 _754_
*2273 _755_
*2274 _756_
*2275 _757_
*2276 _758_
*2277 _759_
*2278 _760_
*2279 _761_
*2280 _762_
*2281 _763_
*2282 _764_
*2283 _765_
*2284 _766_
*2285 _767_
*2286 _768_
*2287 _769_
*2288 _770_
*2289 _771_
*2290 _772_
*2291 _773_
*2292 _774_
*2293 _775_
*2294 _776_
*2295 _777_
*2296 _778_
*2297 _779_
*2298 _780_
*2299 _781_
*2300 _782_
*2301 _783_
*2302 _784_
*2303 _785_
*2304 _786_
*2305 _787_
*2306 _788_
*2307 _789_
*2308 _790_
*2309 _791_
*2310 _792_
*2311 _793_
*2312 _794_
*2313 _795_
*2314 _796_
*2315 _797_
*2316 _798_
*2317 _799_
*2318 _800_
*2319 _801_
*2320 _802_
*2321 _803_
*2322 _804_
*2323 _805_
*2324 _806_
*2325 _807_
*2326 _808_
*2327 _809_
*2328 _810_
*2329 _811_
*2330 _812_
*2331 _813_
*2332 _814_
*2333 _815_
*2334 _816_
*2335 _817_
*2336 _818_
*2337 _819_
*2338 _820_
*2339 _821_
*2340 _822_
*2341 _823_
*2342 _824_
*2343 _825_
*2344 _826_
*2345 _827_
*2346 _828_
*2347 _829_
*2348 _830_
*2349 _831_
*2350 _832_
*2351 _833_
*2352 _834_
*2353 _835_
*2354 _836_
*2355 _837_
*2356 _838_
*2357 _839_
*2358 _840_
*2359 _841_
*2360 _842_
*2361 _843_
*2362 _844_
*2363 _845_
*2364 _846_
*2365 _847_
*2366 _848_
*2367 _849_
*2368 _850_
*2369 _851_
*2370 _852_
*2371 _853_
*2372 _854_
*2373 _855_
*2374 _856_
*2375 _857_
*2376 _858_
*2377 _859_
*2378 _860_
*2379 _861_
*2380 _862_
*2381 _863_
*2382 _864_
*2383 _865_
*2384 _866_
*2385 _867_
*2386 _868_
*2387 _869_
*2388 _870_
*2389 _871_
*2390 _872_
*2391 _873_
*2392 _874_
*2393 _875_
*2394 _876_
*2395 _877_
*2396 _878_
*2397 _879_
*2398 _880_
*2399 _881_
*2400 _882_
*2401 _883_
*2402 _884_
*2403 _885_
*2404 _886_
*2405 _887_
*2406 _888_
*2407 _889_
*2408 _890_
*2409 _891_
*2410 _892_
*2411 _893_
*2412 _894_
*2413 _895_
*2414 _896_
*2415 _897_
*2416 _898_
*2417 _899_
*2418 _900_
*2419 _901_
*2420 _902_
*2421 _903_
*2422 _904_
*2423 _905_
*2424 _906_
*2425 _907_
*2426 _908_
*2427 _909_
*2428 _910_
*2429 _911_
*2430 _912_
*2431 _913_
*2432 _914_
*2433 _915_
*2434 _916_
*2435 _917_
*2436 _918_
*2437 _919_
*2438 _920_
*2439 _921_
*2440 _922_
*2441 _923_
*2442 clone21
*2443 clone23
*2444 clone24
*2445 clone27
*2446 fanout29
*2447 fanout34
*2448 fanout35
*2449 fanout36
*2450 fanout37
*2451 fanout38
*2452 fanout39
*2453 fanout40
*2454 fanout41
*2455 fanout42
*2456 fanout43
*2457 fanout44
*2458 fanout45
*2459 fanout46
*2460 fanout47
*2461 fanout48
*2462 fanout49
*2463 fanout50
*2464 fanout51
*2465 fanout52
*2466 fanout53
*2467 fanout54
*2468 fanout55
*2469 fanout56
*2470 fanout57
*2471 fanout58
*2472 fanout59
*2473 fanout60
*2474 fanout61
*2475 fanout62
*2476 fanout63
*2477 fanout64
*2478 fanout65
*2479 fanout66
*2480 fanout67
*2481 fanout68
*2482 fanout69
*2483 input1
*2484 input10
*2485 input11
*2486 input12
*2487 input13
*2488 input14
*2489 input15
*2490 input16
*2491 input17
*2492 input18
*2493 input19
*2494 input2
*2495 input20
*2496 input3
*2497 input4
*2498 input5
*2499 input6
*2500 input7
*2501 input8
*2502 input9
*2503 max_cap30
*2504 max_cap31
*2505 max_cap32
*2506 output21
*2507 output22
*2508 output23
*2509 output24
*2510 output25
*2511 output26
*2512 output27
*2513 output28
*2514 rebuffer1
*2515 rebuffer10
*2516 rebuffer11
*2517 rebuffer12
*2518 rebuffer13
*2519 rebuffer14
*2520 rebuffer15
*2521 rebuffer16
*2522 rebuffer17
*2523 rebuffer18
*2524 rebuffer19
*2525 rebuffer2
*2526 rebuffer20
*2527 rebuffer22
*2528 rebuffer25
*2529 rebuffer26
*2530 rebuffer28
*2531 rebuffer3
*2532 rebuffer4
*2533 rebuffer5
*2534 rebuffer6
*2535 rebuffer7
*2536 rebuffer8
*2537 rebuffer9
*2538 wire33

*PORTS
inst[0] I
inst[1] I
inst[2] I
inst[3] I
op_a[0] I
op_a[1] I
op_a[2] I
op_a[3] I
op_a[4] I
op_a[5] I
op_a[6] I
op_a[7] I
op_b[0] I
op_b[1] I
op_b[2] I
op_b[3] I
op_b[4] I
op_b[5] I
op_b[6] I
op_b[7] I
op_out[0] O
op_out[1] O
op_out[2] O
op_out[3] O
op_out[4] O
op_out[5] O
op_out[6] O
op_out[7] O

*D_NET *3 0.000933576
*CONN
*P inst[0] I
*I *2483:A I *D sky130_fd_sc_hd__dlymetal6s2s_1
*CAP
1 inst[0] 0.000466788
2 *2483:A 0.000466788
3 *2483:A *2496:A 0
*RES
1 inst[0] *2483:A 23.05 
*END

*D_NET *4 0.00188938
*CONN
*P inst[1] I
*I *2494:A I *D sky130_fd_sc_hd__buf_1
*CAP
1 inst[1] 0.000521833
2 *2494:A 0.000521833
3 *2494:A op_out[0] 0
4 *2494:A *2205:B 0
5 *2494:A *2215:B_N 0.00010096
6 *2494:A *2215:D 5.03829e-05
7 *2494:A *2497:A 0.000398918
8 *2494:A *489:12 0.0001526
9 *2494:A *489:35 0.00014285
*RES
1 inst[1] *2494:A 27.9607 
*END

*D_NET *5 0.00117172
*CONN
*P inst[2] I
*I *2496:A I *D sky130_fd_sc_hd__clkbuf_2
*CAP
1 inst[2] 0.000574489
2 *2496:A 0.000574489
3 *2496:A *511:10 2.27416e-05
4 *2483:A *2496:A 0
*RES
1 inst[2] *2496:A 24.925 
*END

*D_NET *6 0.00136609
*CONN
*P inst[3] I
*I *2497:A I *D sky130_fd_sc_hd__clkbuf_1
*CAP
1 inst[3] 0.000455971
2 *2497:A 0.000455971
3 *2497:A op_out[0] 0
4 *2497:A *489:12 5.52302e-05
5 *2494:A *2497:A 0.000398918
*RES
1 inst[3] *2497:A 25.2286 
*END

*D_NET *7 0.000483156
*CONN
*P op_a[0] I
*I *2498:A I *D sky130_fd_sc_hd__clkbuf_1
*CAP
1 op_a[0] 0.000148258
2 *2498:A 0.000148258
3 *2498:A *2499:A 7.65171e-05
4 *2498:A *2500:A 8.31618e-05
5 *2498:A *544:16 2.69614e-05
*RES
1 op_a[0] *2498:A 18.4264 
*END

*D_NET *8 0.000506622
*CONN
*P op_a[1] I
*I *2499:A I *D sky130_fd_sc_hd__buf_1
*CAP
1 op_a[1] 0.000167245
2 *2499:A 0.000167245
3 *2499:A *2487:A 8.57347e-05
4 *2499:A *493:48 9.87983e-06
5 *2498:A *2499:A 7.65171e-05
*RES
1 op_a[1] *2499:A 18.73 
*END

*D_NET *9 0.000661299
*CONN
*P op_a[2] I
*I *2500:A I *D sky130_fd_sc_hd__dlymetal6s2s_1
*CAP
1 op_a[2] 0.000200725
2 *2500:A 0.000200725
3 *2500:A *2488:A 8.57347e-05
4 *2500:A *544:16 9.09514e-05
5 *2498:A *2500:A 8.31618e-05
*RES
1 op_a[2] *2500:A 19.9443 
*END

*D_NET *10 0.00064212
*CONN
*P op_a[3] I
*I *2501:A I *D sky130_fd_sc_hd__buf_1
*CAP
1 op_a[3] 0.000205091
2 *2501:A 0.000205091
3 *2501:A *2484:A 8.57347e-05
4 *2501:A *2487:A 8.31618e-05
5 *2501:A *490:14 6.30405e-05
*RES
1 op_a[3] *2501:A 19.9443 
*END

*D_NET *11 0.000542129
*CONN
*P op_a[4] I
*I *2502:A I *D sky130_fd_sc_hd__clkbuf_1
*CAP
1 op_a[4] 0.000232806
2 *2502:A 0.000232806
3 *2502:A *2484:A 7.65171e-05
*RES
1 op_a[4] *2502:A 19.0336 
*END

*D_NET *12 0.000500104
*CONN
*P op_a[5] I
*I *2484:A I *D sky130_fd_sc_hd__clkbuf_2
*CAP
1 op_a[5] 0.000168926
2 *2484:A 0.000168926
3 *2484:A *2487:A 0
4 *2501:A *2484:A 8.57347e-05
5 *2502:A *2484:A 7.65171e-05
*RES
1 op_a[5] *2484:A 18.1949 
*END

*D_NET *13 0.000930923
*CONN
*P op_a[6] I
*I *2485:A I *D sky130_fd_sc_hd__buf_1
*CAP
1 op_a[6] 0.000465462
2 *2485:A 0.000465462
3 *2485:A op_out[4] 0
4 *2485:A op_out[5] 0
5 *2485:A *2511:A 0
*RES
1 op_a[6] *2485:A 23.05 
*END

*D_NET *14 0.00131601
*CONN
*P op_a[7] I
*I *2486:A I *D sky130_fd_sc_hd__clkbuf_4
*CAP
1 op_a[7] 0.000582315
2 *2486:A 0.000582315
3 *2486:A op_out[5] 0
4 *2486:A *1985:B 5.52238e-05
5 *2486:A *2506:A 9.61554e-05
*RES
1 op_a[7] *2486:A 25.3357 
*END

*D_NET *15 0.000679144
*CONN
*P op_b[0] I
*I *2487:A I *D sky130_fd_sc_hd__clkbuf_2
*CAP
1 op_b[0] 0.000215664
2 *2487:A 0.000215664
3 *2487:A *490:14 7.68486e-05
4 *2487:A *493:26 2.07074e-06
5 *2484:A *2487:A 0
6 *2499:A *2487:A 8.57347e-05
7 *2501:A *2487:A 8.31618e-05
*RES
1 op_b[0] *2487:A 19.7128 
*END

*D_NET *16 0.000567847
*CONN
*P op_b[1] I
*I *2488:A I *D sky130_fd_sc_hd__clkbuf_1
*CAP
1 op_b[1] 0.000241056
2 *2488:A 0.000241056
3 *2500:A *2488:A 8.57347e-05
*RES
1 op_b[1] *2488:A 19.3371 
*END

*D_NET *17 0.00058051
*CONN
*P op_b[2] I
*I *2489:A I *D sky130_fd_sc_hd__clkbuf_1
*CAP
1 op_b[2] 0.000276666
2 *2489:A 0.000276666
3 *2489:A *2490:A 2.71788e-05
*RES
1 op_b[2] *2489:A 20.4803 
*END

*D_NET *18 0.000584053
*CONN
*P op_b[3] I
*I *2490:A I *D sky130_fd_sc_hd__clkbuf_1
*CAP
1 op_b[3] 0.000278437
2 *2490:A 0.000278437
3 *2489:A *2490:A 2.71788e-05
*RES
1 op_b[3] *2490:A 20.4803 
*END

*D_NET *19 0.000704644
*CONN
*P op_b[4] I
*I *2491:A I *D sky130_fd_sc_hd__buf_8
*CAP
1 op_b[4] 0.000341025
2 *2491:A 0.000341025
3 *2491:A *2495:A 2.25951e-05
4 *2491:A *534:14 0
*RES
1 op_b[4] *2491:A 21.6946 
*END

*D_NET *20 0.000717566
*CONN
*P op_b[5] I
*I *2492:A I *D sky130_fd_sc_hd__clkbuf_2
*CAP
1 op_b[5] 0.000333896
2 *2492:A 0.000333896
3 *2492:A *2493:A 2.71788e-05
4 *2492:A *2495:A 2.25951e-05
*RES
1 op_b[5] *2492:A 21.8017 
*END

*D_NET *21 0.000584088
*CONN
*P op_b[6] I
*I *2493:A I *D sky130_fd_sc_hd__buf_1
*CAP
1 op_b[6] 0.000278455
2 *2493:A 0.000278455
3 *2492:A *2493:A 2.71788e-05
*RES
1 op_b[6] *2493:A 20.4803 
*END

*D_NET *22 0.000628259
*CONN
*P op_b[7] I
*I *2495:A I *D sky130_fd_sc_hd__clkbuf_1
*CAP
1 op_b[7] 0.000291534
2 *2495:A 0.000291534
3 *2495:A *499:10 0
4 *2491:A *2495:A 2.25951e-05
5 *2492:A *2495:A 2.25951e-05
*RES
1 op_b[7] *2495:A 19.9443 
*END

*D_NET *23 0.00121734
*CONN
*P op_out[0] O
*I *2506:X O *D sky130_fd_sc_hd__buf_8
*CAP
1 op_out[0] 0.000608669
2 *2506:X 0.000608669
3 *2494:A op_out[0] 0
4 *2497:A op_out[0] 0
*RES
1 *2506:X op_out[0] 25.5321 
*END

*D_NET *24 0.00120727
*CONN
*P op_out[1] O
*I *2507:X O *D sky130_fd_sc_hd__buf_8
*CAP
1 op_out[1] 0.000594829
2 *2507:X 0.000594829
3 op_out[1] op_out[2] 0
4 op_out[1] *2507:A 1.76135e-05
5 op_out[1] *2508:A 0
*RES
1 *2507:X op_out[1] 25.1214 
*END

*D_NET *25 0.000901216
*CONN
*P op_out[2] O
*I *2508:X O *D sky130_fd_sc_hd__buf_6
*CAP
1 op_out[2] 0.000450608
2 *2508:X 0.000450608
3 op_out[1] op_out[2] 0
*RES
1 *2508:X op_out[2] 22.7464 
*END

*D_NET *26 0.0010214
*CONN
*P op_out[3] O
*I *2509:X O *D sky130_fd_sc_hd__buf_2
*CAP
1 op_out[3] 0.000499332
2 *2509:X 0.000499332
3 op_out[3] op_out[4] 0
4 op_out[3] *2510:A 2.27416e-05
*RES
1 *2509:X op_out[3] 23.3893 
*END

*D_NET *27 0.000956441
*CONN
*P op_out[4] O
*I *2510:X O *D sky130_fd_sc_hd__buf_2
*CAP
1 op_out[4] 0.000478221
2 *2510:X 0.000478221
3 op_out[3] op_out[4] 0
4 *2485:A op_out[4] 0
*RES
1 *2510:X op_out[4] 23.2643 
*END

*D_NET *28 0.000951893
*CONN
*P op_out[5] O
*I *2511:X O *D sky130_fd_sc_hd__buf_2
*CAP
1 op_out[5] 0.000475946
2 *2511:X 0.000475946
3 *2485:A op_out[5] 0
4 *2486:A op_out[5] 0
*RES
1 *2511:X op_out[5] 23.2643 
*END

*D_NET *29 0.000883914
*CONN
*P op_out[6] O
*I *2512:X O *D sky130_fd_sc_hd__buf_2
*CAP
1 op_out[6] 0.000322612
2 *2512:X 0.000322612
3 op_out[6] op_out[7] 8.57347e-05
4 op_out[6] *2441:A2 0.000120065
5 op_out[6] *2512:A 3.28897e-05
*RES
1 *2512:X op_out[6] 21.0871 
*END

*D_NET *30 0.000498334
*CONN
*P op_out[7] O
*I *2513:X O *D sky130_fd_sc_hd__buf_2
*CAP
1 op_out[7] 0.000206299
2 *2513:X 0.000206299
3 op_out[7] *431:10 0
4 op_out[6] op_out[7] 8.57347e-05
*RES
1 *2513:X op_out[7] 18.1949 
*END

*D_NET *31 0.00349873
*CONN
*I *2050:B1 I *D sky130_fd_sc_hd__o211a_1
*I *2049:B1 I *D sky130_fd_sc_hd__o21ai_1
*I *2047:X O *D sky130_fd_sc_hd__a211o_1
*CAP
1 *2050:B1 0.00021836
2 *2049:B1 0.000118526
3 *2047:X 0.000687261
4 *31:10 0.00102415
5 *2049:B1 *2049:A1 5.52238e-05
6 *2049:B1 *2097:B1 1.33343e-05
7 *2049:B1 *542:115 7.67221e-05
8 *2050:B1 *2038:A 1.02504e-05
9 *2050:B1 *2050:A2 0.000125724
10 *2050:B1 *2051:A2 0.000216297
11 *2050:B1 *2051:B1 7.79781e-06
12 *2050:B1 *2051:C1 0
13 *2050:B1 *518:108 8.97396e-05
14 *31:10 *2000:A 0.000221634
15 *31:10 *2031:B1_N 7.03393e-05
16 *31:10 *2049:A1 8.17274e-05
17 *31:10 *516:99 6.7032e-05
18 *31:10 *542:115 0.00041461
*RES
1 *2047:X *31:10 20.2464 
2 *31:10 *2049:B1 11.8 
3 *31:10 *2050:B1 23.5857 
*END

*D_NET *32 0.00316876
*CONN
*I *2051:B1 I *D sky130_fd_sc_hd__o211ai_2
*I *2048:X O *D sky130_fd_sc_hd__a211o_1
*CAP
1 *2051:B1 0.000948805
2 *2048:X 0.000948805
3 *2051:B1 *2004:B 0.000142894
4 *2051:B1 *2034:A 0.000227532
5 *2051:B1 *2034:B 3.97677e-05
6 *2051:B1 *2035:A1 0.000226507
7 *2051:B1 *2038:A 0.000121334
8 *2051:B1 *2042:A0 7.8327e-05
9 *2051:B1 *2050:A2 0.000122051
10 *2051:B1 *2051:A2 2.68461e-05
11 *2051:B1 *2051:C1 4.01768e-05
12 *2051:B1 *2514:A 0.000139886
13 *2051:B1 *35:8 5.7661e-06
14 *2051:B1 *560:14 9.22622e-05
15 *2050:B1 *2051:B1 7.79781e-06
*RES
1 *2048:X *2051:B1 47.1893 
*END

*D_NET *33 0.0035946
*CONN
*I *2097:B1 I *D sky130_fd_sc_hd__a21o_1
*I *2049:Y O *D sky130_fd_sc_hd__o21ai_1
*CAP
1 *2097:B1 0.000763924
2 *2049:Y 0.000763924
3 *2097:B1 *2061:C1 9.41642e-05
4 *2097:B1 *2079:A1 1.74352e-05
5 *2097:B1 *2079:A2 0.00021007
6 *2097:B1 *2079:B1 0.000454953
7 *2097:B1 *2080:B1 9.36808e-06
8 *2097:B1 *44:14 0.000261791
9 *2097:B1 *49:20 0.000677753
10 *2097:B1 *477:16 3.61629e-06
11 *2097:B1 *478:6 0.000183726
12 *2097:B1 *513:27 2.78608e-05
13 *2097:B1 *542:115 0.000112678
14 *2049:B1 *2097:B1 1.33343e-05
*RES
1 *2049:Y *2097:B1 45.3321 
*END

*D_NET *34 0.00382979
*CONN
*I *2057:C1 I *D sky130_fd_sc_hd__a221o_1
*I *2052:A_N I *D sky130_fd_sc_hd__and2b_1
*I *2056:B1 I *D sky130_fd_sc_hd__a21oi_1
*I *2050:X O *D sky130_fd_sc_hd__o211a_1
*CAP
1 *2057:C1 0.000117319
2 *2052:A_N 0.00029522
3 *2056:B1 0
4 *2050:X 0.00103799
5 *34:12 0.000543247
6 *34:6 0.00140333
7 *2052:A_N *2052:B 6.58698e-05
8 *2052:A_N *2088:A 3.47797e-05
9 *2057:C1 *2056:A2 0
10 *2057:C1 *2057:A2 0
11 *2057:C1 *2089:B1 0
12 *34:6 *294:18 0.000156901
13 *34:12 *2052:B 4.58976e-05
14 *34:12 *2088:A 2.70354e-05
15 *34:12 *294:18 0.000102207
*RES
1 *2050:X *34:6 22.1571 
2 *34:6 *34:12 5.28571 
3 *34:12 *2056:B1 9.3 
4 *34:12 *2052:A_N 14.4071 
5 *34:6 *2057:C1 19.9429 
*END

*D_NET *35 0.00451568
*CONN
*I *2057:B1 I *D sky130_fd_sc_hd__a221o_1
*I *2056:A1 I *D sky130_fd_sc_hd__a21oi_1
*I *2052:B I *D sky130_fd_sc_hd__and2b_1
*I *2051:Y O *D sky130_fd_sc_hd__o211ai_2
*CAP
1 *2057:B1 1.99857e-05
2 *2056:A1 0
3 *2052:B 0.000547553
4 *2051:Y 0.000745856
5 *35:14 0.000902025
6 *35:8 0.00112031
7 *2052:B *2056:A2 6.0038e-05
8 *2052:B *2057:A2 2.1892e-05
9 *2052:B *2087:A 2.8266e-06
10 *2052:B *2088:A 0.00014183
11 *2052:B *2088:B 0
12 *2052:B *2090:C 0
13 *2057:B1 *2057:A2 1.04232e-05
14 *2057:B1 *2062:A3 0
15 *35:8 *2051:C1 1.72894e-05
16 *35:8 *2057:A2 5.30892e-05
17 *35:8 *2062:A2 1.74352e-05
18 *35:8 *2062:A3 0.000274294
19 *35:8 *2062:B1 3.18676e-05
20 *35:8 *41:8 1.55885e-05
21 *35:14 *2056:A2 7.83587e-05
22 *35:14 *2057:A2 0.000295784
23 *35:14 *2090:C 0
24 *35:14 *2096:B 1.58163e-05
25 *35:14 *39:16 2.58821e-05
26 *2051:B1 *35:8 5.7661e-06
27 *2052:A_N *2052:B 6.58698e-05
28 *34:12 *2052:B 4.58976e-05
*RES
1 *2051:Y *35:8 19.3 
2 *35:8 *35:14 9.76786 
3 *35:14 *2052:B 21.7464 
4 *35:14 *2056:A1 13.8 
5 *35:8 *2057:B1 9.72857 
*END

*D_NET *36 0.000366817
*CONN
*I *2096:A I *D sky130_fd_sc_hd__xnor2_1
*I *2052:X O *D sky130_fd_sc_hd__and2b_1
*CAP
1 *2096:A 0.000119332
2 *2052:X 0.000119332
3 *2096:A *2043:A 0.000128154
4 *2096:A *2090:C 0
*RES
1 *2052:X *2096:A 29.7786 
*END

*D_NET *37 0.000407054
*CONN
*I *2067:A I *D sky130_fd_sc_hd__or4_1
*I *2053:Y O *D sky130_fd_sc_hd__nor2_1
*CAP
1 *2067:A 0.000103746
2 *2053:Y 0.000103746
3 *2067:A *43:8 8.71847e-05
4 *2067:A *51:12 5.71472e-05
5 *2067:A *550:97 5.52302e-05
*RES
1 *2053:Y *2067:A 21.2071 
*END

*D_NET *38 0.00943243
*CONN
*I *2272:B1 I *D sky130_fd_sc_hd__a21oi_1
*I *2271:C I *D sky130_fd_sc_hd__and3_1
*I *2298:C I *D sky130_fd_sc_hd__and3_1
*I *2067:B I *D sky130_fd_sc_hd__or4_1
*I *2054:Y O *D sky130_fd_sc_hd__nor2_1
*CAP
1 *2272:B1 0.000176706
2 *2271:C 0
3 *2298:C 0.000209557
4 *2067:B 0.000238674
5 *2054:Y 0
6 *38:54 0.000274316
7 *38:37 0.00174425
8 *38:4 0.00167576
9 *2067:B *2055:A 5.01117e-05
10 *2067:B *43:8 0.000271345
11 *2067:B *517:58 3.0285e-05
12 *2272:B1 *2272:A2 0.00016641
13 *2272:B1 *548:94 6.97263e-05
14 *2298:C *2300:B 0.000308599
15 *2298:C *497:93 2.0954e-05
16 *2298:C *549:12 0
17 *38:37 *1991:A_N 0.000181565
18 *38:37 *1991:B 0.00018372
19 *38:37 *1994:B 5.23057e-05
20 *38:37 *1995:A2 8.12055e-05
21 *38:37 *1995:B1_N 5.71472e-05
22 *38:37 *2008:A 9.22103e-06
23 *38:37 *2014:B2 0.000453446
24 *38:37 *2028:A2 0
25 *38:37 *2029:A2 0.000151071
26 *38:37 *2054:B 9.76491e-05
27 *38:37 *2370:A2 0.000184882
28 *38:37 *2416:A1 0.000403241
29 *38:37 *2516:A 0.00018077
30 *38:37 *2519:A 0.000230726
31 *38:37 *443:10 0.000575649
32 *38:37 *471:6 0.00030669
33 *38:37 *471:16 0.000647992
34 *38:37 *550:79 0.000140933
35 *38:37 *569:16 9.91086e-05
36 *38:54 *2300:B 0.000148903
37 *38:54 *548:94 9.50968e-06
38 *38:54 *549:12 0
*RES
1 *2054:Y *38:4 9.3 
2 *38:4 *2067:B 22.2286 
3 *38:4 *38:37 49.4643 
4 *38:37 *2298:C 18.0679 
5 *38:37 *38:54 6.64286 
6 *38:54 *2271:C 9.3 
7 *38:54 *2272:B1 12.3714 
*END

*D_NET *39 0.0033733
*CONN
*I *2057:B2 I *D sky130_fd_sc_hd__a221o_1
*I *2056:A2 I *D sky130_fd_sc_hd__a21oi_1
*I *2096:B I *D sky130_fd_sc_hd__xnor2_1
*I *2055:Y O *D sky130_fd_sc_hd__nand2_1
*CAP
1 *2057:B2 2.1507e-05
2 *2056:A2 8.65521e-05
3 *2096:B 0.000350827
4 *2055:Y 0.000544611
5 *39:16 0.00057289
6 *39:14 0.000701628
7 *2056:A2 *2057:A2 8.06331e-05
8 *2056:A2 *2089:B1 0
9 *2056:A2 *2090:C 0
10 *2057:B2 *2057:A2 2.42338e-05
11 *2057:B2 *41:8 0
12 *2096:B *2098:C 0.00014183
13 *39:14 *2055:A 4.0342e-06
14 *39:14 *2057:A2 7.38777e-05
15 *39:14 *2089:A1 9.25014e-06
16 *39:14 *2089:A2 2.13481e-06
17 *39:14 *2089:B1 0.000366765
18 *39:14 *45:8 0
19 *39:14 *46:14 3.06878e-06
20 *39:14 *479:12 9.46929e-05
21 *39:16 *2057:A2 0.000114665
22 *2052:B *2056:A2 6.0038e-05
23 *2057:C1 *2056:A2 0
24 *35:14 *2056:A2 7.83587e-05
25 *35:14 *2096:B 1.58163e-05
26 *35:14 *39:16 2.58821e-05
*RES
1 *2055:Y *39:14 27.1393 
2 *39:14 *39:16 3 
3 *39:16 *2096:B 15.5857 
4 *39:16 *2056:A2 20.8536 
5 *39:14 *2057:B2 9.85804 
*END

*D_NET *40 0.000336548
*CONN
*I *2088:A I *D sky130_fd_sc_hd__xnor2_1
*I *2056:Y O *D sky130_fd_sc_hd__a21oi_1
*CAP
1 *2088:A 6.64512e-05
2 *2056:Y 6.64512e-05
3 *2052:A_N *2088:A 3.47797e-05
4 *2052:B *2088:A 0.00014183
5 *34:12 *2088:A 2.70354e-05
*RES
1 *2056:Y *2088:A 20.6893 
*END

*D_NET *41 0.00105704
*CONN
*I *2061:A3 I *D sky130_fd_sc_hd__a311oi_2
*I *2062:A2 I *D sky130_fd_sc_hd__a311o_1
*I *2058:B I *D sky130_fd_sc_hd__nand2_1
*I *2057:X O *D sky130_fd_sc_hd__a221o_1
*CAP
1 *2061:A3 5.32655e-05
2 *2062:A2 7.69842e-05
3 *2058:B 1.90102e-05
4 *2057:X 0
5 *41:8 0.00017819
6 *41:4 0.000135461
7 *2058:B *2062:A3 4.1896e-06
8 *2061:A3 *2061:A2 0.000149911
9 *2061:A3 *2078:B 0.000149911
10 *2062:A2 *2062:A3 0.000108151
11 *2062:A2 *46:14 5.62995e-05
12 *41:8 *2062:A3 5.33433e-05
13 *41:8 *2078:B 3.18676e-05
14 *41:8 *46:14 7.43578e-06
15 *2057:B2 *41:8 0
16 *35:8 *2062:A2 1.74352e-05
17 *35:8 *41:8 1.55885e-05
*RES
1 *2057:X *41:4 9.3 
2 *41:4 *41:8 2.08929 
3 *41:8 *2058:B 9.72857 
4 *41:8 *2062:A2 11.9071 
5 *41:4 *2061:A3 20.2464 
*END

*D_NET *42 0.00104593
*CONN
*I *2078:B I *D sky130_fd_sc_hd__xnor2_1
*I *2058:Y O *D sky130_fd_sc_hd__nand2_1
*CAP
1 *2078:B 0.00020209
2 *2058:Y 0.00020209
3 *2078:B *2061:A1 5.44167e-05
4 *2078:B *2089:A1 0
5 *2078:B *46:14 0.000133432
6 *2078:B *479:12 0.000272127
7 *2061:A3 *2078:B 0.000149911
8 *41:8 *2078:B 3.18676e-05
*RES
1 *2058:Y *2078:B 33.4571 
*END

*D_NET *43 0.00382447
*CONN
*I *2060:A2 I *D sky130_fd_sc_hd__a21oi_1
*I *2063:C I *D sky130_fd_sc_hd__and3_1
*I *2083:B1 I *D sky130_fd_sc_hd__a21o_1
*I *2059:X O *D sky130_fd_sc_hd__or2_4
*CAP
1 *2060:A2 3.13993e-05
2 *2063:C 0.000140356
3 *2083:B1 0
4 *2059:X 0.000506481
5 *43:18 0.000588599
6 *43:8 0.000986123
7 *2060:A2 *2067:C 1.8193e-05
8 *2060:A2 *2080:A1 3.99614e-06
9 *2063:C *2065:D 9.50968e-06
10 *2063:C *2083:A1 9.25014e-06
11 *2063:C *2083:A2 5.52238e-05
12 *2063:C *48:12 0
13 *2063:C *471:24 0
14 *43:8 *2053:B 7.77652e-05
15 *43:8 *2067:C 0.000568168
16 *43:8 *2080:A1 2.67728e-05
17 *43:8 *44:14 5.33005e-05
18 *43:8 *550:97 9.22103e-06
19 *43:18 *2080:A1 9.22103e-06
20 *43:18 *2080:A2 0.000102207
21 *43:18 *2083:A2 3.12069e-05
22 *43:18 *64:22 0.000183726
23 *43:18 *513:10 5.52238e-05
24 *2067:A *43:8 8.71847e-05
25 *2067:B *43:8 0.000271345
*RES
1 *2059:X *43:8 20.5321 
2 *43:8 *43:18 7.17857 
3 *43:18 *2083:B1 9.3 
4 *43:18 *2063:C 20.675 
5 *43:8 *2060:A2 10.0321 
*END

*D_NET *44 0.00386246
*CONN
*I *2062:B1 I *D sky130_fd_sc_hd__a311o_1
*I *2061:B1 I *D sky130_fd_sc_hd__a311oi_2
*I *2060:Y O *D sky130_fd_sc_hd__a21oi_1
*CAP
1 *2062:B1 0.000165175
2 *2061:B1 0.00018393
3 *2060:Y 0.000341308
4 *44:14 0.000690413
5 *2061:B1 *2061:A1 5.52302e-05
6 *2061:B1 *2061:C1 0.000167703
7 *2061:B1 *2062:A1 0.000259247
8 *2061:B1 *283:18 0.000606096
9 *2062:B1 *2062:A1 0.000186562
10 *2062:B1 *2062:C1 0.000114848
11 *2062:B1 *2079:B1 2.21972e-05
12 *44:14 *2068:B1 0.000382573
13 *44:14 *2079:B1 3.33613e-05
14 *44:14 *2080:A2 0
15 *44:14 *2417:D_N 0.000125724
16 *44:14 *45:42 4.00121e-05
17 *44:14 *46:14 0
18 *44:14 *49:20 3.78516e-05
19 *44:14 *471:16 0.000103267
20 *2097:B1 *44:14 0.000261791
21 *35:8 *2062:B1 3.18676e-05
22 *43:8 *44:14 5.33005e-05
*RES
1 *2060:Y *44:14 23.7732 
2 *44:14 *2061:B1 20.6839 
3 *44:14 *2062:B1 18.2911 
*END

*D_NET *45 0.00597744
*CONN
*I *2067:C I *D sky130_fd_sc_hd__or4_1
*I *2066:A I *D sky130_fd_sc_hd__nor2_1
*I *2098:A I *D sky130_fd_sc_hd__or3_4
*I *2090:A I *D sky130_fd_sc_hd__or3_4
*I *2061:Y O *D sky130_fd_sc_hd__a311oi_2
*CAP
1 *2067:C 0.000166785
2 *2066:A 0
3 *2098:A 0
4 *2090:A 0.000200524
5 *2061:Y 0.000153135
6 *45:42 0.0010449
7 *45:14 0.000461969
8 *45:8 0.00129269
9 *2067:C *2067:D 0.000344611
10 *2067:C *2080:A1 0.000116876
11 *2067:C *49:36 5.52302e-05
12 *2090:A *82:10 0.000157399
13 *45:8 *2089:A1 2.10446e-05
14 *45:14 *82:10 0.00010096
15 *45:42 *2068:A1 0.000440718
16 *45:42 *2089:A1 8.49614e-05
17 *45:42 *2417:D_N 0.000209968
18 *45:42 *49:20 0.000265385
19 *45:42 *64:22 8.86413e-05
20 *45:42 *73:12 7.8327e-05
21 *45:42 *471:16 1.82657e-05
22 *45:42 *513:12 3.84291e-05
23 *45:42 *539:71 1.02504e-05
24 *2060:A2 *2067:C 1.8193e-05
25 *39:14 *45:8 0
26 *43:8 *2067:C 0.000568168
27 *44:14 *45:42 4.00121e-05
*RES
1 *2061:Y *45:8 16.05 
2 *45:8 *45:14 9.26786 
3 *45:14 *2090:A 13.1571 
4 *45:14 *2098:A 9.3 
5 *45:8 *45:42 29.2679 
6 *45:42 *2066:A 9.3 
7 *45:42 *2067:C 16.8714 
*END

*D_NET *46 0.00300567
*CONN
*I *2534:A I *D sky130_fd_sc_hd__dlygate4sd1_1
*I *2097:A2 I *D sky130_fd_sc_hd__a21o_1
*I *2089:A2 I *D sky130_fd_sc_hd__a21o_1
*I *2062:X O *D sky130_fd_sc_hd__a311o_1
*CAP
1 *2534:A 0.000133145
2 *2097:A2 1.1624e-05
3 *2089:A2 0.000140149
4 *2062:X 0.000497402
5 *46:29 0.000265433
6 *46:14 0.000758216
7 *2089:A2 *2089:B1 9.71197e-05
8 *2089:A2 *479:12 3.69047e-06
9 *2097:A2 *2079:A1 5.52238e-05
10 *2097:A2 *2079:A2 5.52238e-05
11 *2534:A *2068:A1 0.000181803
12 *2534:A *2068:A2 0.000181803
13 *2534:A *2079:A1 5.01117e-05
14 *2534:A *2080:A2 0
15 *2534:A *2080:B1 6.09476e-05
16 *2534:A *64:22 9.25014e-06
17 *2534:A *513:12 1.50181e-05
18 *2534:A *561:10 1.08359e-05
19 *46:14 *2062:A1 0
20 *46:14 *2068:B1 0
21 *46:14 *2080:A2 3.34295e-05
22 *46:14 *2089:A1 0
23 *46:14 *479:12 0.000193795
24 *46:29 *2089:A1 4.62539e-05
25 *46:29 *513:12 2.8266e-06
26 *2062:A2 *46:14 5.62995e-05
27 *2078:B *46:14 0.000133432
28 *39:14 *2089:A2 2.13481e-06
29 *39:14 *46:14 3.06878e-06
30 *41:8 *46:14 7.43578e-06
31 *44:14 *46:14 0
*RES
1 *2062:X *46:14 26.4071 
2 *46:14 *2089:A2 11.8179 
3 *46:14 *46:29 6.44643 
4 *46:29 *2097:A2 14.3357 
5 *46:29 *2534:A 17.8179 
*END

*D_NET *47 0.0013255
*CONN
*I *2065:D I *D sky130_fd_sc_hd__or4_4
*I *2064:D I *D sky130_fd_sc_hd__nor4_1
*I *2063:X O *D sky130_fd_sc_hd__and3_1
*CAP
1 *2065:D 0.000115895
2 *2064:D 2.26968e-05
3 *2063:X 3.99336e-05
4 *47:6 0.000178525
5 *2064:D *536:51 5.52238e-05
6 *2065:D *2063:A 5.52238e-05
7 *2065:D *536:51 0.000532305
8 *2065:D *539:71 0.000316184
9 *2063:C *2065:D 9.50968e-06
*RES
1 *2063:X *47:6 10.0321 
2 *47:6 *2064:D 9.83571 
3 *47:6 *2065:D 14.3536 
*END

*D_NET *48 0.00103313
*CONN
*I *2083:A2 I *D sky130_fd_sc_hd__a21o_1
*I *2504:A I *D sky130_fd_sc_hd__buf_1
*I *2064:Y O *D sky130_fd_sc_hd__nor4_1
*CAP
1 *2083:A2 0.000237909
2 *2504:A 0
3 *2064:Y 0.000189082
4 *48:12 0.000426991
5 *2083:A2 *2080:A1 0
6 *2083:A2 *64:22 3.69047e-06
7 *2083:A2 *513:10 5.23057e-05
8 *48:12 *283:10 0
9 *48:12 *536:51 3.67257e-05
10 *2063:C *2083:A2 5.52238e-05
11 *2063:C *48:12 0
12 *43:18 *2083:A2 3.12069e-05
*RES
1 *2064:Y *48:12 20.8893 
2 *48:12 *2504:A 9.3 
3 *48:12 *2083:A2 13.5679 
*END

*D_NET *49 0.00532441
*CONN
*I *2067:D I *D sky130_fd_sc_hd__or4_1
*I *2066:B I *D sky130_fd_sc_hd__nor2_1
*I *2098:B I *D sky130_fd_sc_hd__or3_4
*I *2090:B I *D sky130_fd_sc_hd__or3_4
*I *2065:X O *D sky130_fd_sc_hd__or4_4
*CAP
1 *2067:D 0.000139821
2 *2066:B 0
3 *2098:B 0
4 *2090:B 6.20371e-05
5 *2065:X 8.0894e-05
6 *49:36 0.000153856
7 *49:20 0.00141194
8 *49:8 0.00144483
9 *2067:D *50:33 7.43578e-06
10 *2090:B *82:10 0.000144773
11 *49:8 *50:33 2.04825e-05
12 *49:8 *539:71 5.74562e-05
13 *49:8 *542:92 0
14 *49:20 *2079:B1 9.36353e-05
15 *49:20 *2091:B 2.8266e-06
16 *49:20 *73:12 0.00018118
17 *49:20 *73:16 3.69047e-06
18 *49:20 *81:10 8.27184e-06
19 *49:20 *82:10 0
20 *49:20 *283:18 0.000101545
21 *49:20 *542:92 0
22 *49:36 *2080:A1 6.05161e-06
23 *49:36 *50:33 2.28598e-05
24 *2067:C *2067:D 0.000344611
25 *2067:C *49:36 5.52302e-05
26 *2097:B1 *49:20 0.000677753
27 *44:14 *49:20 3.78516e-05
28 *45:42 *49:20 0.000265385
*RES
1 *2065:X *49:8 15.4429 
2 *49:8 *49:20 34.4107 
3 *49:20 *2090:B 10.6571 
4 *49:20 *2098:B 9.3 
5 *49:8 *49:36 5.03571 
6 *49:36 *2066:B 9.3 
7 *49:36 *2067:D 12.7107 
*END

*D_NET *50 0.0106176
*CONN
*I *2287:A2 I *D sky130_fd_sc_hd__a211o_1
*I *2080:A1 I *D sky130_fd_sc_hd__a21oi_2
*I *2066:Y O *D sky130_fd_sc_hd__nor2_1
*CAP
1 *2287:A2 0.0010441
2 *2080:A1 0.000260054
3 *2066:Y 0
4 *50:33 0.0029831
5 *50:4 0.00219905
6 *2080:A1 *2080:A2 5.62995e-05
7 *2287:A2 *2263:A 5.52302e-05
8 *2287:A2 *2263:B 0
9 *2287:A2 *2287:C1 0
10 *2287:A2 *2315:C1 0
11 *2287:A2 *2316:B1 0.000527085
12 *2287:A2 *2351:A 0.000125724
13 *2287:A2 *2353:B 0.00013529
14 *2287:A2 *2354:C 0.000169676
15 *2287:A2 *2510:A 0
16 *2287:A2 *197:12 0
17 *2287:A2 *326:22 3.47641e-06
18 *2287:A2 *326:26 5.52302e-05
19 *2287:A2 *326:61 0
20 *2287:A2 *341:12 2.4958e-05
21 *2287:A2 *342:10 3.92757e-05
22 *2287:A2 *499:38 2.01359e-05
23 *2287:A2 *526:67 2.26424e-05
24 *2287:A2 *534:77 4.53834e-05
25 *2287:A2 *538:14 0.000253963
26 *2287:A2 *540:36 0
27 *2287:A2 *542:138 0.00105195
28 *50:33 *1987:C 0.000200491
29 *50:33 *2028:A2 0
30 *50:33 *2032:A1 0
31 *50:33 *2317:B 0.000655319
32 *50:33 *2359:A3 0
33 *50:33 *474:10 0.000244883
34 *50:33 *520:72 0
35 *50:33 *524:43 0
36 *50:33 *534:77 8.40351e-06
37 *50:33 *540:36 0
38 *50:33 *547:59 0.000222167
39 *2060:A2 *2080:A1 3.99614e-06
40 *2067:C *2080:A1 0.000116876
41 *2067:D *50:33 7.43578e-06
42 *2083:A2 *2080:A1 0
43 *43:8 *2080:A1 2.67728e-05
44 *43:18 *2080:A1 9.22103e-06
45 *49:8 *50:33 2.04825e-05
46 *49:36 *2080:A1 6.05161e-06
47 *49:36 *50:33 2.28598e-05
*RES
1 *2066:Y *50:4 9.3 
2 *50:4 *2080:A1 13.6929 
3 *50:4 *50:33 25.1381 
4 *50:33 *2287:A2 44.0589 
*END

*D_NET *51 0.00115179
*CONN
*I *2073:B I *D sky130_fd_sc_hd__and3_1
*I *2069:A I *D sky130_fd_sc_hd__nand2_1
*I *2072:A1 I *D sky130_fd_sc_hd__a21o_1
*I *2067:X O *D sky130_fd_sc_hd__or4_1
*CAP
1 *2073:B 0.000106334
2 *2069:A 0.000104227
3 *2072:A1 0
4 *2067:X 0.000128246
5 *51:19 0.000223693
6 *51:12 0.000141378
7 *2069:A *2077:B1 3.18676e-05
8 *2069:A *53:12 0.000122091
9 *2073:B *53:12 9.16074e-05
10 *2073:B *57:12 3.18676e-05
11 *51:12 *2051:C1 4.87171e-05
12 *51:12 *2072:A2 5.31122e-05
13 *51:12 *2072:B1 9.60337e-06
14 *51:12 *517:58 0
15 *51:12 *550:97 1.89507e-06
16 *2067:A *51:12 5.71472e-05
*RES
1 *2067:X *51:12 20.4786 
2 *51:12 *2072:A1 9.3 
3 *51:12 *51:19 0.428571 
4 *51:19 *2069:A 11.9071 
5 *51:19 *2073:B 11.8 
*END

*D_NET *52 0.0027825
*CONN
*I *2069:B I *D sky130_fd_sc_hd__nand2_1
*I *2073:C I *D sky130_fd_sc_hd__and3_1
*I *2072:A2 I *D sky130_fd_sc_hd__a21o_1
*I *2068:X O *D sky130_fd_sc_hd__a21o_1
*CAP
1 *2069:B 2.70095e-05
2 *2073:C 7.60327e-05
3 *2072:A2 3.87422e-05
4 *2068:X 0.000416455
5 *52:14 0.00036599
6 *52:10 0.000694679
7 *2069:B *2051:C1 0
8 *2069:B *2072:B1 0
9 *2069:B *542:92 4.97876e-05
10 *2072:A2 *53:12 2.83284e-06
11 *2072:A2 *517:58 0
12 *2073:C *53:12 0.000130474
13 *52:10 *2051:C1 0
14 *52:10 *471:16 0.000353079
15 *52:10 *542:92 0.000262099
16 *52:14 *53:12 0.000312209
17 *51:12 *2072:A2 5.31122e-05
*RES
1 *2068:X *52:10 20.675 
2 *52:10 *52:14 7.91071 
3 *52:14 *2072:A2 19.0321 
4 *52:14 *2073:C 10.5411 
5 *52:10 *2069:B 14.5321 
*END

*D_NET *53 0.00302132
*CONN
*I *2070:A I *D sky130_fd_sc_hd__inv_2
*I *2071:B I *D sky130_fd_sc_hd__and2_1
*I *2069:Y O *D sky130_fd_sc_hd__nand2_1
*CAP
1 *2070:A 0.000179226
2 *2071:B 0.000258331
3 *2069:Y 0.000293812
4 *53:12 0.000731369
5 *2070:A *2074:B 1.27784e-05
6 *2070:A *2113:A0 1.02504e-05
7 *2070:A *2448:A 9.37479e-05
8 *2070:A *57:12 6.49408e-05
9 *2070:A *517:12 9.86094e-06
10 *2071:B *2074:A 6.46918e-05
11 *2071:B *2077:A2 0.000271339
12 *2071:B *61:18 0.000108311
13 *2071:B *517:6 9.60875e-05
14 *2071:B *542:92 5.52238e-05
15 *53:12 *2077:B1 1.32552e-05
16 *53:12 *57:12 9.23883e-05
17 *53:12 *517:12 6.4974e-06
18 *2069:A *53:12 0.000122091
19 *2072:A2 *53:12 2.83284e-06
20 *2073:B *53:12 9.16074e-05
21 *2073:C *53:12 0.000130474
22 *52:14 *53:12 0.000312209
*RES
1 *2069:Y *53:12 20.7107 
2 *53:12 *2071:B 20.1214 
3 *53:12 *2070:A 17.3179 
*END

*D_NET *54 0.000731748
*CONN
*I *2113:A0 I *D sky130_fd_sc_hd__mux2_1
*I *2070:Y O *D sky130_fd_sc_hd__inv_2
*CAP
1 *2113:A0 0.00017781
2 *2070:Y 0.00017781
3 *2113:A0 *1987:B 2.60984e-05
4 *2113:A0 *2074:B 5.80706e-06
5 *2113:A0 *2112:B 0.000173804
6 *2113:A0 *2113:A1 5.71472e-05
7 *2113:A0 *2113:S 2.44318e-05
8 *2113:A0 *517:12 7.85886e-05
9 *2070:A *2113:A0 1.02504e-05
*RES
1 *2070:Y *2113:A0 32.225 
*END

*D_NET *55 0.00175895
*CONN
*I *2074:A I *D sky130_fd_sc_hd__nor2_1
*I *2071:X O *D sky130_fd_sc_hd__and2_1
*CAP
1 *2074:A 0.000521727
2 *2071:X 0.000521727
3 *2074:A *2074:B 0.000135028
4 *2074:A *2075:B 7.43578e-06
5 *2074:A *2077:A1 0.00014285
6 *2074:A *2077:A2 5.91367e-05
7 *2074:A *517:12 0.000123295
8 *2074:A *524:62 7.48268e-05
9 *2074:A *543:81 0.000108229
10 *2071:B *2074:A 6.46918e-05
*RES
1 *2071:X *2074:A 35.5286 
*END

*D_NET *56 0.000545713
*CONN
*I *2077:B1 I *D sky130_fd_sc_hd__o21ai_2
*I *2072:X O *D sky130_fd_sc_hd__a21o_1
*CAP
1 *2077:B1 0.000225163
2 *2072:X 0.000225163
3 *2077:B1 *542:92 5.02646e-05
4 *2069:A *2077:B1 3.18676e-05
5 *53:12 *2077:B1 1.32552e-05
*RES
1 *2072:X *2077:B1 30.4929 
*END

*D_NET *57 0.00153727
*CONN
*I *2074:B I *D sky130_fd_sc_hd__nor2_1
*I *2077:A1 I *D sky130_fd_sc_hd__o21ai_2
*I *2073:X O *D sky130_fd_sc_hd__and3_1
*CAP
1 *2074:B 0.000103174
2 *2077:A1 4.7864e-05
3 *2073:X 0.000178401
4 *57:12 0.000329439
5 *2074:B *2077:A2 6.71755e-05
6 *2074:B *2448:A 9.8045e-05
7 *2074:B *517:12 0.000144696
8 *2077:A1 *2077:A2 8.28137e-05
9 *2070:A *2074:B 1.27784e-05
10 *2070:A *57:12 6.49408e-05
11 *2073:B *57:12 3.18676e-05
12 *2074:A *2074:B 0.000135028
13 *2074:A *2077:A1 0.00014285
14 *2113:A0 *2074:B 5.80706e-06
15 *53:12 *57:12 9.23883e-05
*RES
1 *2073:X *57:12 21.0857 
2 *57:12 *2077:A1 11.0857 
3 *57:12 *2074:B 21.6036 
*END

*D_NET *58 0.000527919
*CONN
*I *2112:A I *D sky130_fd_sc_hd__xnor2_1
*I *2074:Y O *D sky130_fd_sc_hd__nor2_1
*CAP
1 *2112:A 0.00019852
2 *2074:Y 0.00019852
3 *2112:A *2112:B 3.67142e-05
4 *2112:A *2448:A 9.41642e-05
*RES
1 *2074:Y *2112:A 22.0286 
*END

*D_NET *59 0.000940525
*CONN
*I *2077:A2 I *D sky130_fd_sc_hd__o21ai_2
*I *2075:Y O *D sky130_fd_sc_hd__nor2_1
*CAP
1 *2077:A2 0.000133512
2 *2075:Y 0.000133512
3 *2077:A2 *2075:B 5.52238e-05
4 *2077:A2 *517:6 8.25897e-05
5 *2077:A2 *517:84 5.52238e-05
6 *2071:B *2077:A2 0.000271339
7 *2074:A *2077:A2 5.91367e-05
8 *2074:B *2077:A2 6.71755e-05
9 *2077:A1 *2077:A2 8.28137e-05
*RES
1 *2075:Y *2077:A2 23.6714 
*END

*D_NET *60 0.00118891
*CONN
*I *2118:A I *D sky130_fd_sc_hd__nand2_1
*I *2112:B I *D sky130_fd_sc_hd__xnor2_1
*I *2076:X O *D sky130_fd_sc_hd__or2_1
*CAP
1 *2118:A 0.000206287
2 *2112:B 0.000282908
3 *2076:X 0
4 *60:6 0.000489195
5 *2112:B *2113:A1 0
6 *2112:B *97:10 0
7 *2112:B *512:25 0
8 *2112:B *517:12 0
9 *2118:A *97:10 0
10 *2118:A *517:12 0
11 *2118:A *517:23 0
12 *2112:A *2112:B 3.67142e-05
13 *2113:A0 *2112:B 0.000173804
*RES
1 *2076:X *60:6 13.8 
2 *60:6 *2112:B 18.9429 
3 *60:6 *2118:A 17.2643 
*END

*D_NET *61 0.00632887
*CONN
*I *2131:A1 I *D sky130_fd_sc_hd__a21o_1
*I *2109:A1 I *D sky130_fd_sc_hd__a31o_1
*I *2136:A I *D sky130_fd_sc_hd__xnor2_1
*I *2104:D_N I *D sky130_fd_sc_hd__or4b_4
*I *2077:Y O *D sky130_fd_sc_hd__o21ai_2
*CAP
1 *2131:A1 9.81713e-06
2 *2109:A1 0
3 *2136:A 0.000160013
4 *2104:D_N 0.000262163
5 *2077:Y 0.00121679
6 *61:26 0.000422176
7 *61:24 0.00012503
8 *61:18 0.00135164
9 *2104:D_N *2106:C_N 5.04841e-06
10 *2104:D_N *2109:A2 1.21258e-05
11 *2104:D_N *2131:A2 0.00010828
12 *2104:D_N *86:10 0
13 *2104:D_N *86:14 4.37296e-05
14 *2104:D_N *89:10 5.05056e-05
15 *2131:A1 *2131:A2 1.00733e-05
16 *2136:A *2110:B 7.6612e-06
17 *2136:A *2132:B 5.42961e-05
18 *2136:A *2133:A0 8.62488e-05
19 *2136:A *2136:B 0
20 *2136:A *89:10 3.19935e-05
21 *61:18 *2108:C1 0.000686131
22 *61:18 *2131:A2 2.44318e-05
23 *61:18 *471:42 1.19191e-05
24 *61:18 *471:97 1.76821e-05
25 *61:18 *531:47 8.46829e-05
26 *61:18 *534:45 7.5779e-05
27 *61:18 *534:56 5.52238e-05
28 *61:18 *536:44 5.28368e-06
29 *61:18 *536:51 0.000142856
30 *61:18 *539:58 0.000313241
31 *61:18 *542:92 0.000450591
32 *61:24 *2106:C_N 3.61487e-05
33 *61:24 *2108:C1 7.3237e-05
34 *61:24 *2131:A2 0.000152322
35 *61:24 *2131:B1 9.60939e-05
36 *61:24 *2132:B 3.73468e-05
37 *2071:B *61:18 0.000108311
*RES
1 *2077:Y *61:18 40.5679 
2 *61:18 *61:24 3.55357 
3 *61:24 *61:26 4.5 
4 *61:26 *2104:D_N 17.4429 
5 *61:26 *2136:A 16.6571 
6 *61:24 *2109:A1 9.3 
7 *61:18 *2131:A1 9.72857 
*END

*D_NET *62 0.00122605
*CONN
*I *2080:A2 I *D sky130_fd_sc_hd__a21oi_2
*I *2078:Y O *D sky130_fd_sc_hd__xnor2_1
*CAP
1 *2080:A2 0.000439962
2 *2078:Y 0.000439962
3 *2080:A2 *2068:B1 0
4 *2080:A2 *2080:B1 0.000154188
5 *2080:A2 *2089:A1 0
6 *2080:A2 *471:16 0
7 *2080:A1 *2080:A2 5.62995e-05
8 *2534:A *2080:A2 0
9 *43:18 *2080:A2 0.000102207
10 *44:14 *2080:A2 0
11 *46:14 *2080:A2 3.34295e-05
*RES
1 *2078:Y *2080:A2 36.1714 
*END

*D_NET *63 0.000805068
*CONN
*I *2080:B1 I *D sky130_fd_sc_hd__a21oi_2
*I *2079:Y O *D sky130_fd_sc_hd__a21oi_1
*CAP
1 *2080:B1 0.000236091
2 *2079:Y 0.000236091
3 *2080:B1 *2079:A1 5.71472e-05
4 *2080:B1 *2083:A1 0
5 *2080:B1 *64:22 5.12344e-05
6 *2080:A2 *2080:B1 0.000154188
7 *2097:B1 *2080:B1 9.36808e-06
8 *2534:A *2080:B1 6.09476e-05
*RES
1 *2079:Y *2080:B1 32.5866 
*END

*D_NET *64 0.008161
*CONN
*I *2081:B I *D sky130_fd_sc_hd__or2_1
*I *2111:A0 I *D sky130_fd_sc_hd__mux2_2
*I *2082:B I *D sky130_fd_sc_hd__xnor2_1
*I *2080:Y O *D sky130_fd_sc_hd__a21oi_2
*CAP
1 *2081:B 2.23854e-05
2 *2111:A0 0.000255856
3 *2082:B 0.0003213
4 *2080:Y 0.00153534
5 *64:28 0.000884517
6 *64:22 0.00186508
7 *2082:B *2106:C_N 0.000137983
8 *2082:B *66:6 4.4787e-05
9 *2082:B *66:10 4.27338e-05
10 *2111:A0 *2107:A1 0.000266092
11 *2111:A0 *2111:A1 0.00015234
12 *2111:A0 *2129:B1 7.79334e-05
13 *2111:A0 *70:22 6.73939e-05
14 *2111:A0 *95:10 3.17163e-05
15 *2111:A0 *536:8 5.08577e-05
16 *2111:A0 *536:16 0.000150491
17 *64:22 *2068:A1 5.52302e-05
18 *64:22 *2068:A2 9.41642e-05
19 *64:22 *2083:A1 0.000100831
20 *64:22 *2095:A 0.000190112
21 *64:22 *2095:B 0.000229354
22 *64:22 *2099:A 0.0001863
23 *64:22 *2105:A2 7.03295e-05
24 *64:22 *2105:B1 4.27935e-05
25 *64:22 *2133:A0 1.02936e-05
26 *64:22 *76:16 8.51331e-05
27 *64:22 *561:10 7.90803e-05
28 *64:28 *2081:A 3.18676e-05
29 *64:28 *2084:C 2.65382e-05
30 *64:28 *2085:A1 0.000175512
31 *64:28 *2107:A1 0.00029513
32 *64:28 *67:22 6.87434e-05
33 *64:28 *70:22 0.000176234
34 *2080:B1 *64:22 5.12344e-05
35 *2083:A2 *64:22 3.69047e-06
36 *2534:A *64:22 9.25014e-06
37 *43:18 *64:22 0.000183726
38 *45:42 *64:22 8.86413e-05
*RES
1 *2080:Y *64:22 44.9071 
2 *64:22 *64:28 11.9643 
3 *64:28 *2082:B 19.175 
4 *64:28 *2111:A0 21.8179 
5 *64:22 *2081:B 9.72857 
*END

*D_NET *65 0.00187353
*CONN
*I *2107:A1 I *D sky130_fd_sc_hd__a21o_1
*I *2081:X O *D sky130_fd_sc_hd__or2_1
*CAP
1 *2107:A1 0.000466291
2 *2081:X 0.000466291
3 *2107:A1 *2081:A 0.000102883
4 *2107:A1 *2082:A 7.84126e-05
5 *2107:A1 *2108:A2 0.000154762
6 *2107:A1 *2129:B1 0
7 *2107:A1 *539:33 4.36655e-05
8 *2111:A0 *2107:A1 0.000266092
9 *64:28 *2107:A1 0.00029513
*RES
1 *2081:X *2107:A1 38.5286 
*END

*D_NET *66 0.00284221
*CONN
*I *2110:A I *D sky130_fd_sc_hd__xor2_1
*I *2104:A I *D sky130_fd_sc_hd__or4b_4
*I *2106:A I *D sky130_fd_sc_hd__or3b_1
*I *2082:Y O *D sky130_fd_sc_hd__xnor2_1
*CAP
1 *2110:A 0.000153426
2 *2104:A 0.000117948
3 *2106:A 0
4 *2082:Y 0.000141564
5 *66:10 0.000254653
6 *66:6 0.000431696
7 *2104:A *2104:C 0.000509303
8 *2104:A *2106:C_N 0.000550167
9 *2104:A *70:22 5.33005e-05
10 *2110:A *2107:B1 0.000150625
11 *2110:A *2108:A3 7.83659e-05
12 *2110:A *536:16 4.97121e-06
13 *2110:A *539:14 0.000117388
14 *66:10 *2106:B 0
15 *66:10 *2106:C_N 0.000137983
16 *66:10 *70:22 5.33005e-05
17 *2082:B *66:6 4.4787e-05
18 *2082:B *66:10 4.27338e-05
*RES
1 *2082:Y *66:6 11.0679 
2 *66:6 *66:10 2.91071 
3 *66:10 *2106:A 9.3 
4 *66:10 *2104:A 14.7643 
5 *66:6 *2110:A 22.3714 
*END

*D_NET *67 0.0127183
*CONN
*I *2152:A I *D sky130_fd_sc_hd__or3_1
*I *2129:A1 I *D sky130_fd_sc_hd__o21ai_1
*I *2085:A2 I *D sky130_fd_sc_hd__a21o_1
*I *2084:C I *D sky130_fd_sc_hd__and3_1
*I *2083:X O *D sky130_fd_sc_hd__a21o_1
*CAP
1 *2152:A 0.000773033
2 *2129:A1 6.57361e-05
3 *2085:A2 0
4 *2084:C 0.000322797
5 *2083:X 0.00169575
6 *67:48 0.00168283
7 *67:22 0.000707799
8 *67:12 0.00292481
9 *2084:C *2084:B 0.0001119
10 *2084:C *2085:A1 0.000151333
11 *2084:C *2086:B 1.28809e-05
12 *2084:C *2107:B1 0.000171283
13 *2084:C *68:6 5.52238e-05
14 *2084:C *70:22 0.000129833
15 *2084:C *536:16 0.000246064
16 *2129:A1 *2145:B1 8.40933e-05
17 *2129:A1 *581:43 9.0145e-05
18 *2152:A *2141:A1 0.000141734
19 *2152:A *2141:B1 0.00018408
20 *2152:A *2145:A2 0.000131321
21 *2152:A *2145:B1 0.000353311
22 *2152:A *2146:A1 0.000103267
23 *2152:A *2152:C 3.69047e-06
24 *2152:A *2162:A 0.000319557
25 *2152:A *100:19 4.84947e-05
26 *2152:A *117:49 4.3825e-05
27 *2152:A *121:22 1.98839e-05
28 *2152:A *121:37 7.26841e-05
29 *2152:A *130:8 9.41918e-05
30 *2152:A *130:27 0.000109659
31 *2152:A *471:97 0
32 *2152:A *498:31 7.51077e-05
33 *2152:A *542:18 0.000243371
34 *2152:A *581:43 5.83887e-05
35 *67:12 *2092:C 7.81454e-05
36 *67:12 *471:42 0
37 *67:12 *513:10 3.91668e-05
38 *67:22 *2081:A 1.31511e-05
39 *67:48 *2081:A 0
40 *67:48 *2103:B 0
41 *67:48 *2108:B1 0
42 *67:48 *2129:B1 0
43 *67:48 *2149:C_N 0.000200406
44 *67:48 *2150:A2 0.000243627
45 *67:48 *79:10 0
46 *67:48 *92:10 0.000766321
47 *67:48 *121:14 0
48 *67:48 *471:42 5.4115e-05
49 *67:48 *534:24 0
50 *64:28 *2084:C 2.65382e-05
51 *64:28 *67:22 6.87434e-05
*RES
1 *2083:X *67:12 21.7749 
2 *67:12 *67:22 9.72167 
3 *67:22 *2084:C 26.9071 
4 *67:22 *2085:A2 9.3 
5 *67:12 *67:48 27.0082 
6 *67:48 *2129:A1 11.0679 
7 *67:48 *2152:A 47.3357 
*END

*D_NET *68 0.00131876
*CONN
*I *2107:B1 I *D sky130_fd_sc_hd__a21o_1
*I *2086:A_N I *D sky130_fd_sc_hd__nand2b_1
*I *2084:X O *D sky130_fd_sc_hd__and3_1
*CAP
1 *2107:B1 0.000262868
2 *2086:A_N 3.07534e-05
3 *2084:X 3.92359e-05
4 *68:6 0.000332858
5 *2086:A_N *2084:A 0
6 *2086:A_N *2107:A2 4.56437e-05
7 *2086:A_N *69:10 1.02504e-05
8 *2107:B1 *2107:A2 0.000120246
9 *2107:B1 *2108:A3 9.97744e-05
10 *2084:C *2107:B1 0.000171283
11 *2084:C *68:6 5.52238e-05
12 *2110:A *2107:B1 0.000150625
*RES
1 *2084:X *68:6 9.83571 
2 *68:6 *2086:A_N 19.0321 
3 *68:6 *2107:B1 24.4429 
*END

*D_NET *69 0.00127379
*CONN
*I *2107:A2 I *D sky130_fd_sc_hd__a21o_1
*I *2086:B I *D sky130_fd_sc_hd__nand2b_1
*I *2085:X O *D sky130_fd_sc_hd__a21o_1
*CAP
1 *2107:A2 0.000210612
2 *2086:B 4.94028e-06
3 *2085:X 0.000224459
4 *69:10 0.000440011
5 *2086:B *2084:B 6.26774e-06
6 *2107:A2 *2082:A 6.58195e-05
7 *69:10 *2084:A 7.50473e-05
8 *69:10 *70:22 5.7616e-05
9 *69:10 *536:16 0
10 *2084:C *2086:B 1.28809e-05
11 *2086:A_N *2107:A2 4.56437e-05
12 *2086:A_N *69:10 1.02504e-05
13 *2107:B1 *2107:A2 0.000120246
*RES
1 *2085:X *69:10 17.5143 
2 *69:10 *2086:B 13.9295 
3 *69:10 *2107:A2 18.7821 
*END

*D_NET *70 0.00272796
*CONN
*I *2104:C I *D sky130_fd_sc_hd__or4b_4
*I *2106:B I *D sky130_fd_sc_hd__or3b_1
*I *2086:Y O *D sky130_fd_sc_hd__nand2b_1
*CAP
1 *2104:C 0.000287152
2 *2106:B 2.23854e-05
3 *2086:Y 0.000381633
4 *70:22 0.000691171
5 *2104:C *2104:B 5.65955e-05
6 *2104:C *2106:C_N 4.73286e-05
7 *70:22 *2084:B 9.31011e-05
8 *70:22 *471:44 6.05161e-06
9 *70:22 *536:16 9.55563e-05
10 *2084:C *70:22 0.000129833
11 *2104:A *2104:C 0.000509303
12 *2104:A *70:22 5.33005e-05
13 *2111:A0 *70:22 6.73939e-05
14 *64:28 *70:22 0.000176234
15 *66:10 *2106:B 0
16 *66:10 *70:22 5.33005e-05
17 *69:10 *70:22 5.7616e-05
*RES
1 *2086:Y *70:22 35.2643 
2 *70:22 *2106:B 9.72857 
3 *70:22 *2104:C 15.175 
*END

*D_NET *71 0.000552639
*CONN
*I *2088:B I *D sky130_fd_sc_hd__xnor2_1
*I *2087:Y O *D sky130_fd_sc_hd__xnor2_1
*CAP
1 *2088:B 0.000247792
2 *2087:Y 0.000247792
3 *2088:B *2043:A 5.70551e-05
4 *2052:B *2088:B 0
*RES
1 *2087:Y *2088:B 31.0107 
*END

*D_NET *72 0.000940895
*CONN
*I *2090:C I *D sky130_fd_sc_hd__or3_4
*I *2088:Y O *D sky130_fd_sc_hd__xnor2_1
*CAP
1 *2090:C 0.000297982
2 *2088:Y 0.000297982
3 *2090:C *2043:A 0
4 *2090:C *2098:C 0.000344932
5 *2052:B *2090:C 0
6 *2056:A2 *2090:C 0
7 *2096:A *2090:C 0
8 *35:14 *2090:C 0
*RES
1 *2088:Y *2090:C 34.1 
*END

*D_NET *73 0.00200504
*CONN
*I *2520:A I *D sky130_fd_sc_hd__buf_1
*I *2092:C I *D sky130_fd_sc_hd__and3_1
*I *2091:A I *D sky130_fd_sc_hd__nand2_1
*I *2089:X O *D sky130_fd_sc_hd__a21o_1
*CAP
1 *2520:A 0
2 *2092:C 0.000209991
3 *2091:A 7.87273e-05
4 *2089:X 0.000196295
5 *73:16 0.000310828
6 *73:12 0.000218405
7 *2091:A *2091:B 8.37373e-05
8 *2091:A *81:10 0.000127446
9 *2091:A *283:10 6.6477e-06
10 *2091:A *283:18 1.19191e-05
11 *2092:C *2043:A 9.87983e-06
12 *2092:C *82:10 1.90936e-05
13 *2092:C *283:50 2.0954e-05
14 *2092:C *571:10 1.95435e-05
15 *73:12 *81:10 0.00023978
16 *73:12 *283:18 0
17 *73:12 *283:46 5.52238e-05
18 *73:16 *283:46 5.52302e-05
19 *45:42 *73:12 7.8327e-05
20 *49:20 *73:12 0.00018118
21 *49:20 *73:16 3.69047e-06
22 *67:12 *2092:C 7.81454e-05
*RES
1 *2089:X *73:12 24.8893 
2 *73:12 *73:16 5.03571 
3 *73:16 *2091:A 16.05 
4 *73:16 *2092:C 21.5726 
5 *73:12 *2520:A 9.3 
*END

*D_NET *74 0.00199049
*CONN
*I *2091:B I *D sky130_fd_sc_hd__nand2_1
*I *2092:B I *D sky130_fd_sc_hd__and3_1
*I *2094:A2 I *D sky130_fd_sc_hd__a21o_1
*I *2093:A2 I *D sky130_fd_sc_hd__a21oi_1
*I *2090:X O *D sky130_fd_sc_hd__or3_4
*CAP
1 *2091:B 0.000266945
2 *2092:B 0
3 *2094:A2 0
4 *2093:A2 1.21804e-05
5 *2090:X 4.26326e-05
6 *74:18 0.000326742
7 *74:10 0.000624139
8 *2091:B *82:10 8.10077e-05
9 *2091:B *82:19 4.1331e-06
10 *2091:B *283:18 0
11 *2091:B *283:46 2.32517e-05
12 *2091:B *283:50 3.14163e-05
13 *2093:A2 *2093:A1 5.49489e-05
14 *2093:A2 *2093:B1 5.49489e-05
15 *74:10 *2043:A 6.74815e-05
16 *74:10 *82:10 0.000128146
17 *74:18 *2093:B1 4.0022e-05
18 *74:18 *76:14 0.000116361
19 *74:18 *283:50 2.95726e-05
20 *2091:A *2091:B 8.37373e-05
21 *49:20 *2091:B 2.8266e-06
*RES
1 *2090:X *74:10 19.9429 
2 *74:10 *74:18 13.4464 
3 *74:18 *2093:A2 9.83571 
4 *74:18 *2094:A2 9.3 
5 *74:10 *2092:B 9.3 
6 *74:10 *2091:B 23.2286 
*END

*D_NET *75 0.00283982
*CONN
*I *2133:A0 I *D sky130_fd_sc_hd__mux2_2
*I *2091:Y O *D sky130_fd_sc_hd__nand2_1
*CAP
1 *2133:A0 0.000755809
2 *2091:Y 0.000755809
3 *2133:A0 *2043:A 0
4 *2133:A0 *2099:A 0.000273269
5 *2133:A0 *2105:A2 0.000186662
6 *2133:A0 *2108:C1 6.00455e-05
7 *2133:A0 *2131:B1 0.000171206
8 *2133:A0 *2133:A1 0.000188704
9 *2133:A0 *89:10 0.000351768
10 *2133:A0 *121:14 0
11 *2133:A0 *543:14 0
12 *2136:A *2133:A0 8.62488e-05
13 *64:22 *2133:A0 1.02936e-05
*RES
1 *2091:Y *2133:A0 44.2071 
*END

*D_NET *76 0.00200022
*CONN
*I *2105:B1 I *D sky130_fd_sc_hd__a21o_1
*I *2103:D I *D sky130_fd_sc_hd__or4_4
*I *2095:A I *D sky130_fd_sc_hd__nor2_1
*I *2092:X O *D sky130_fd_sc_hd__and3_1
*CAP
1 *2105:B1 9.62835e-06
2 *2103:D 0
3 *2095:A 0.000163498
4 *2092:X 0.000224448
5 *76:16 0.000180496
6 *76:14 0.000251074
7 *2095:A *2095:B 0.000156302
8 *2095:A *2103:A 9.83442e-05
9 *2095:A *2103:C 2.3906e-05
10 *2095:A *2105:A2 1.32056e-05
11 *2095:A *79:10 7.86973e-05
12 *2105:B1 *2105:A2 5.52302e-05
13 *76:14 *2043:A 0
14 *76:14 *2093:B1 5.52302e-05
15 *76:14 *2105:A1 2.79092e-05
16 *76:14 *283:50 0.000129515
17 *76:16 *2105:A2 9.83388e-05
18 *64:22 *2095:A 0.000190112
19 *64:22 *2105:B1 4.27935e-05
20 *64:22 *76:16 8.51331e-05
21 *74:18 *76:14 0.000116361
*RES
1 *2092:X *76:14 23.05 
2 *76:14 *76:16 0.946429 
3 *76:16 *2095:A 14.925 
4 *76:16 *2103:D 9.3 
5 *76:14 *2105:B1 9.83571 
*END

*D_NET *77 0.00115328
*CONN
*I *2103:B I *D sky130_fd_sc_hd__or4_4
*I *2095:B I *D sky130_fd_sc_hd__nor2_1
*I *2093:Y O *D sky130_fd_sc_hd__a21oi_1
*CAP
1 *2103:B 0.000131752
2 *2095:B 5.83882e-05
3 *2093:Y 0.000151324
4 *77:10 0.000341464
5 *2103:B *2043:A 0
6 *2103:B *2103:A 5.26138e-05
7 *2103:B *2104:B 1.02504e-05
8 *77:10 *2093:B1 2.18272e-05
9 *2095:A *2095:B 0.000156302
10 *64:22 *2095:B 0.000229354
11 *67:48 *2103:B 0
*RES
1 *2093:Y *77:10 15.7018 
2 *77:10 *2095:B 16.4071 
3 *77:10 *2103:B 15.675 
*END

*D_NET *78 0.000171094
*CONN
*I *2105:A1 I *D sky130_fd_sc_hd__a21o_1
*I *2094:X O *D sky130_fd_sc_hd__a21o_1
*CAP
1 *2105:A1 3.15519e-05
2 *2094:X 3.15519e-05
3 *2105:A1 *2043:A 8.00806e-05
4 *76:14 *2105:A1 2.79092e-05
*RES
1 *2094:X *2105:A1 28.6357 
*END

*D_NET *79 0.001968
*CONN
*I *2132:A I *D sky130_fd_sc_hd__xnor2_1
*I *2109:A2 I *D sky130_fd_sc_hd__a31o_1
*I *2095:Y O *D sky130_fd_sc_hd__nor2_1
*CAP
1 *2132:A 0.000164814
2 *2109:A2 6.4437e-05
3 *2095:Y 0.000307487
4 *79:10 0.000536738
5 *2109:A2 *2106:C_N 0.000223461
6 *2109:A2 *2131:A2 2.36643e-05
7 *2109:A2 *86:14 9.83442e-05
8 *2132:A *2104:B 5.41794e-05
9 *2132:A *2110:B 1.85854e-05
10 *2132:A *2136:B 4.56594e-05
11 *2132:A *92:10 0
12 *79:10 *2104:B 0.000339803
13 *79:10 *471:42 0
14 *2095:A *79:10 7.86973e-05
15 *2104:D_N *2109:A2 1.21258e-05
16 *67:48 *79:10 0
*RES
1 *2095:Y *79:10 19.5321 
2 *79:10 *2109:A2 15.9786 
3 *79:10 *2132:A 16.8893 
*END

*D_NET *80 0.00099919
*CONN
*I *2098:C I *D sky130_fd_sc_hd__or3_4
*I *2096:Y O *D sky130_fd_sc_hd__xnor2_1
*CAP
1 *2098:C 0.000194739
2 *2096:Y 0.000194739
3 *2098:C *283:18 0.000122951
4 *2090:C *2098:C 0.000344932
5 *2096:B *2098:C 0.00014183
*RES
1 *2096:Y *2098:C 33.3321 
*END

*D_NET *81 0.00363256
*CONN
*I *2101:C I *D sky130_fd_sc_hd__and3_1
*I *2530:A I *D sky130_fd_sc_hd__buf_1
*I *2099:A I *D sky130_fd_sc_hd__and2_1
*I *2097:X O *D sky130_fd_sc_hd__a21o_1
*CAP
1 *2101:C 0.000346076
2 *2530:A 0
3 *2099:A 9.73197e-05
4 *2097:X 0.000454761
5 *81:23 0.000450815
6 *81:10 0.000656819
7 *2101:C *2100:A1 0.000229456
8 *2101:C *2100:B1 5.52238e-05
9 *2101:C *2101:A 3.47984e-05
10 *2101:C *2101:B 3.0166e-05
11 *2101:C *84:12 2.94966e-05
12 *2101:C *84:14 9.50968e-06
13 *81:10 *82:19 0
14 *81:10 *283:10 0.000147835
15 *81:10 *283:46 5.52238e-05
16 *81:23 *2137:A0 0
17 *81:23 *82:19 0
18 *81:23 *283:10 0.000199997
19 *2091:A *81:10 0.000127446
20 *2133:A0 *2099:A 0.000273269
21 *49:20 *81:10 8.27184e-06
22 *64:22 *2099:A 0.0001863
23 *73:12 *81:10 0.00023978
*RES
1 *2097:X *81:10 21.2107 
2 *81:10 *2099:A 17.2107 
3 *81:10 *81:23 7.05357 
4 *81:23 *2530:A 9.3 
5 *81:23 *2101:C 15.4071 
*END

*D_NET *82 0.00234512
*CONN
*I *2100:A2 I *D sky130_fd_sc_hd__a21oi_1
*I *2101:B I *D sky130_fd_sc_hd__and3_1
*I *2099:B I *D sky130_fd_sc_hd__and2_1
*I *2098:X O *D sky130_fd_sc_hd__or3_4
*CAP
1 *2100:A2 2.4864e-05
2 *2101:B 0.000196752
3 *2099:B 0
4 *2098:X 0.000366328
5 *82:19 0.000316428
6 *82:10 0.000461139
7 *2100:A2 *2043:A 2.6949e-05
8 *2100:A2 *2137:A0 4.58192e-05
9 *2101:B *2108:C1 5.71472e-05
10 *2101:B *84:12 3.2951e-05
11 *82:10 *2043:A 7.10006e-05
12 *82:10 *283:18 0
13 *82:19 *2043:A 4.07852e-05
14 *82:19 *2137:A0 3.92757e-05
15 *2090:A *82:10 0.000157399
16 *2090:B *82:10 0.000144773
17 *2091:B *82:10 8.10077e-05
18 *2091:B *82:19 4.1331e-06
19 *2092:C *82:10 1.90936e-05
20 *2101:C *2101:B 3.0166e-05
21 *45:14 *82:10 0.00010096
22 *49:20 *82:10 0
23 *74:10 *82:10 0.000128146
24 *81:10 *82:19 0
25 *81:23 *82:19 0
*RES
1 *2098:X *82:10 22.7107 
2 *82:10 *2099:B 13.8 
3 *82:10 *82:19 1.94643 
4 *82:19 *2101:B 16.3893 
5 *82:19 *2100:A2 14.8357 
*END

*D_NET *83 0.00126913
*CONN
*I *2137:A0 I *D sky130_fd_sc_hd__mux2_4
*I *2099:X O *D sky130_fd_sc_hd__and2_1
*CAP
1 *2137:A0 0.00050778
2 *2099:X 0.00050778
3 *2137:A0 *2137:A1 0.000123295
4 *2137:A0 *2137:S 1.00375e-05
5 *2137:A0 *2173:B 3.51442e-05
6 *2137:A0 *283:10 0
7 *2137:A0 *495:12 0
8 *2137:A0 *543:14 0
9 *2100:A2 *2137:A0 4.58192e-05
10 *81:23 *2137:A0 0
11 *82:19 *2137:A0 3.92757e-05
*RES
1 *2099:X *2137:A0 36.8321 
*END

*D_NET *84 0.00243748
*CONN
*I *2131:B1 I *D sky130_fd_sc_hd__a21o_1
*I *2102:A I *D sky130_fd_sc_hd__nor2_1
*I *2105:A2 I *D sky130_fd_sc_hd__a21o_1
*I *2103:C I *D sky130_fd_sc_hd__or4_4
*I *2100:Y O *D sky130_fd_sc_hd__a21oi_1
*CAP
1 *2131:B1 8.81197e-05
2 *2102:A 0
3 *2105:A2 0.000124911
4 *2103:C 5.43515e-05
5 *2100:Y 8.10051e-05
6 *84:20 0.000255249
7 *84:14 0.000154485
8 *84:12 0.000247623
9 *2131:B1 *2108:C1 0.000168777
10 *2131:B1 *2131:A2 9.60939e-05
11 *84:12 *2100:B1 3.78142e-05
12 *84:12 *2101:A 3.16956e-05
13 *84:12 *2108:C1 2.2092e-05
14 *84:14 *2108:C1 6.86792e-05
15 *84:20 *2102:B 3.93634e-05
16 *84:20 *2103:A 3.63281e-05
17 *84:20 *89:10 0.000143967
18 *2095:A *2103:C 2.3906e-05
19 *2095:A *2105:A2 1.32056e-05
20 *2101:B *84:12 3.2951e-05
21 *2101:C *84:12 2.94966e-05
22 *2101:C *84:14 9.50968e-06
23 *2105:B1 *2105:A2 5.52302e-05
24 *2133:A0 *2105:A2 0.000186662
25 *2133:A0 *2131:B1 0.000171206
26 *61:24 *2131:B1 9.60939e-05
27 *64:22 *2105:A2 7.03295e-05
28 *76:16 *2105:A2 9.83388e-05
*RES
1 *2100:Y *84:12 11.6393 
2 *84:12 *84:14 1.35714 
3 *84:14 *84:20 10.9464 
4 *84:20 *2103:C 10.0411 
5 *84:20 *2105:A2 13.05 
6 *84:14 *2102:A 9.3 
7 *84:12 *2131:B1 21.4964 
*END

*D_NET *85 0.000927581
*CONN
*I *2102:B I *D sky130_fd_sc_hd__nor2_1
*I *2103:A I *D sky130_fd_sc_hd__or4_4
*I *2101:X O *D sky130_fd_sc_hd__and3_1
*CAP
1 *2102:B 3.13399e-05
2 *2103:A 0.000116912
3 *2101:X 0.000104394
4 *85:8 0.000252645
5 *2102:B *2104:B 2.6949e-05
6 *2103:A *2104:B 2.37761e-05
7 *2103:A *89:10 7.35458e-06
8 *85:8 *2108:C1 0.000137561
9 *2095:A *2103:A 9.83442e-05
10 *2103:B *2103:A 5.26138e-05
11 *84:20 *2102:B 3.93634e-05
12 *84:20 *2103:A 3.63281e-05
*RES
1 *2101:X *85:8 15.1571 
2 *85:8 *2103:A 16.3893 
3 *85:8 *2102:B 14.8357 
*END

*D_NET *86 0.00243454
*CONN
*I *2136:B I *D sky130_fd_sc_hd__xnor2_1
*I *2109:A3 I *D sky130_fd_sc_hd__a31o_1
*I *2131:A2 I *D sky130_fd_sc_hd__a21o_1
*I *2102:Y O *D sky130_fd_sc_hd__nor2_1
*CAP
1 *2136:B 0.000155899
2 *2109:A3 0
3 *2131:A2 0.000253839
4 *2102:Y 0.000189523
5 *86:14 0.000275688
6 *86:10 0.000367272
7 *2131:A2 *2106:C_N 9.76435e-06
8 *2136:B *2104:B 6.76116e-05
9 *2136:B *2110:B 9.76123e-05
10 *2136:B *2132:B 9.41642e-05
11 *2136:B *534:45 1.46231e-05
12 *2136:B *539:58 0.000146895
13 *86:10 *2104:B 0.000124529
14 *86:10 *2108:C1 3.45159e-05
15 *2104:D_N *2131:A2 0.00010828
16 *2104:D_N *86:10 0
17 *2104:D_N *86:14 4.37296e-05
18 *2109:A2 *2131:A2 2.36643e-05
19 *2109:A2 *86:14 9.83442e-05
20 *2131:A1 *2131:A2 1.00733e-05
21 *2131:B1 *2131:A2 9.60939e-05
22 *2132:A *2136:B 4.56594e-05
23 *2136:A *2136:B 0
24 *61:18 *2131:A2 2.44318e-05
25 *61:24 *2131:A2 0.000152322
*RES
1 *2102:Y *86:10 16.8 
2 *86:10 *86:14 5.44643 
3 *86:14 *2131:A2 14.3893 
4 *86:14 *2109:A3 9.3 
5 *86:10 *2136:B 17.8357 
*END

*D_NET *87 0.00148897
*CONN
*I *2104:B I *D sky130_fd_sc_hd__or4b_4
*I *2103:X O *D sky130_fd_sc_hd__or4_4
*CAP
1 *2104:B 0.000331219
2 *2103:X 0.000331219
3 *2104:B *2106:C_N 0.000122837
4 *2104:B *89:10 0
5 *2102:B *2104:B 2.6949e-05
6 *2103:A *2104:B 2.37761e-05
7 *2103:B *2104:B 1.02504e-05
8 *2104:C *2104:B 5.65955e-05
9 *2132:A *2104:B 5.41794e-05
10 *2136:B *2104:B 6.76116e-05
11 *79:10 *2104:B 0.000339803
12 *86:10 *2104:B 0.000124529
*RES
1 *2103:X *2104:B 34.7607 
*END

*D_NET *88 0.00101008
*CONN
*I *2108:A2 I *D sky130_fd_sc_hd__a311oi_4
*I *2104:X O *D sky130_fd_sc_hd__or4b_4
*CAP
1 *2108:A2 0.000202193
2 *2104:X 0.000202193
3 *2108:A2 *2081:A 1.17968e-05
4 *2108:A2 *2106:C_N 0.000309266
5 *2108:A2 *2108:A1 0.000129868
6 *2107:A1 *2108:A2 0.000154762
*RES
1 *2104:X *2108:A2 32.5464 
*END

*D_NET *89 0.00362707
*CONN
*I *2106:C_N I *D sky130_fd_sc_hd__or3b_1
*I *2109:B1 I *D sky130_fd_sc_hd__a31o_1
*I *2105:X O *D sky130_fd_sc_hd__a21o_1
*CAP
1 *2106:C_N 0.00045176
2 *2109:B1 0
3 *2105:X 0.00018108
4 *89:10 0.000632841
5 *2106:C_N *2110:B 5.49544e-05
6 *2106:C_N *2132:B 0.000140856
7 *2082:B *2106:C_N 0.000137983
8 *2103:A *89:10 7.35458e-06
9 *2104:A *2106:C_N 0.000550167
10 *2104:B *2106:C_N 0.000122837
11 *2104:B *89:10 0
12 *2104:C *2106:C_N 4.73286e-05
13 *2104:D_N *2106:C_N 5.04841e-06
14 *2104:D_N *89:10 5.05056e-05
15 *2108:A2 *2106:C_N 0.000309266
16 *2109:A2 *2106:C_N 0.000223461
17 *2131:A2 *2106:C_N 9.76435e-06
18 *2133:A0 *89:10 0.000351768
19 *2136:A *89:10 3.19935e-05
20 *61:24 *2106:C_N 3.61487e-05
21 *66:10 *2106:C_N 0.000137983
22 *84:20 *89:10 0.000143967
*RES
1 *2105:X *89:10 22.9786 
2 *89:10 *2109:B1 9.3 
3 *89:10 *2106:C_N 22.2107 
*END

*D_NET *90 0.000323664
*CONN
*I *2108:A1 I *D sky130_fd_sc_hd__a311oi_4
*I *2106:X O *D sky130_fd_sc_hd__or3b_1
*CAP
1 *2108:A1 3.19637e-05
2 *2106:X 3.19637e-05
3 *2108:A1 *2081:A 0.000129868
4 *2108:A2 *2108:A1 0.000129868
*RES
1 *2106:X *2108:A1 29.2429 
*END

*D_NET *91 0.000756311
*CONN
*I *2108:A3 I *D sky130_fd_sc_hd__a311oi_4
*I *2107:X O *D sky130_fd_sc_hd__a21o_1
*CAP
1 *2108:A3 0.000144873
2 *2107:X 0.000144873
3 *2108:A3 *536:16 0.000288423
4 *2107:B1 *2108:A3 9.97744e-05
5 *2110:A *2108:A3 7.83659e-05
*RES
1 *2107:X *2108:A3 31.6714 
*END

*D_NET *92 0.00552788
*CONN
*I *2503:A I *D sky130_fd_sc_hd__buf_6
*I *2133:S I *D sky130_fd_sc_hd__mux2_2
*I *2129:A2 I *D sky130_fd_sc_hd__o21ai_1
*I *2111:S I *D sky130_fd_sc_hd__mux2_2
*I *2108:Y O *D sky130_fd_sc_hd__a311oi_4
*CAP
1 *2503:A 0.000111859
2 *2133:S 0
3 *2129:A2 0.000195303
4 *2111:S 3.91474e-05
5 *2108:Y 0.000371175
6 *92:36 0.000423718
7 *92:12 0.000341301
8 *92:10 0.000789885
9 *2111:S *496:12 9.71197e-05
10 *2129:A2 *2129:B1 0.000185427
11 *2129:A2 *2147:B 0.000170661
12 *2129:A2 *2150:A2 0
13 *2129:A2 *2151:B1 0.000125724
14 *2129:A2 *534:24 0.000340773
15 *2503:A *2137:S 0.000146533
16 *2503:A *496:12 0.000218246
17 *92:10 *2110:B 0
18 *92:10 *121:14 0
19 *92:10 *471:42 0.000141815
20 *92:12 *496:12 0.000266473
21 *92:36 *117:16 5.01883e-05
22 *92:36 *496:12 0.000746212
23 *2132:A *92:10 0
24 *67:48 *92:10 0.000766321
*RES
1 *2108:Y *92:10 28.1393 
2 *92:10 *92:12 2.58929 
3 *92:12 *2111:S 10.2464 
4 *92:12 *2129:A2 25.1036 
5 *92:10 *92:36 8.07143 
6 *92:36 *2133:S 9.3 
7 *92:36 *2503:A 13.1214 
*END

*D_NET *93 0.00245566
*CONN
*I *2110:B I *D sky130_fd_sc_hd__xor2_1
*I *2109:X O *D sky130_fd_sc_hd__a31o_1
*CAP
1 *2110:B 0.000759325
2 *2109:X 0.000759325
3 *2110:B *2132:B 0.000119738
4 *2110:B *121:14 9.90367e-05
5 *2110:B *495:12 2.77143e-05
6 *2110:B *536:44 0.00051171
7 *2106:C_N *2110:B 5.49544e-05
8 *2132:A *2110:B 1.85854e-05
9 *2136:A *2110:B 7.6612e-06
10 *2136:B *2110:B 9.76123e-05
11 *92:10 *2110:B 0
*RES
1 *2109:X *2110:B 43.1536 
*END

*D_NET *94 0.000707701
*CONN
*I *2111:A1 I *D sky130_fd_sc_hd__mux2_2
*I *2110:X O *D sky130_fd_sc_hd__xor2_1
*CAP
1 *2111:A1 9.20037e-05
2 *2110:X 9.20037e-05
3 *2111:A1 *95:10 5.31867e-05
4 *2111:A1 *496:12 0.000140933
5 *2111:A1 *536:8 0.000177234
6 *2111:A0 *2111:A1 0.00015234
*RES
1 *2110:X *2111:A1 31.2071 
*END

*D_NET *95 0.00198184
*CONN
*I *2147:A I *D sky130_fd_sc_hd__nor2_1
*I *2128:B I *D sky130_fd_sc_hd__xor2_1
*I *2143:B1_N I *D sky130_fd_sc_hd__o21bai_1
*I *2111:X O *D sky130_fd_sc_hd__mux2_2
*CAP
1 *2147:A 3.04135e-05
2 *2128:B 0.000145338
3 *2143:B1_N 0
4 *2111:X 0.000317158
5 *95:19 0.000215913
6 *95:10 0.00035732
7 *2128:B *2129:B1 9.74588e-05
8 *2128:B *2145:B1 9.90367e-05
9 *2128:B *536:8 6.54051e-05
10 *2128:B *581:43 5.33334e-05
11 *2147:A *534:24 5.33005e-05
12 *95:10 *2129:B1 0.000367389
13 *95:10 *496:12 1.65169e-05
14 *95:10 *536:8 0
15 *95:19 *2129:B1 7.83587e-05
16 *95:19 *536:8 0
17 *2111:A0 *95:10 3.17163e-05
18 *2111:A1 *95:10 5.31867e-05
*RES
1 *2111:X *95:10 20.6571 
2 *95:10 *2143:B1_N 13.8 
3 *95:10 *95:19 1.03571 
4 *95:19 *2128:B 17.8357 
5 *95:19 *2147:A 14.3357 
*END

*D_NET *96 0.000569548
*CONN
*I *2113:A1 I *D sky130_fd_sc_hd__mux2_1
*I *2112:Y O *D sky130_fd_sc_hd__xnor2_1
*CAP
1 *2113:A1 0.000155051
2 *2112:Y 0.000155051
3 *2113:A1 *2113:S 0.000186669
4 *2113:A1 *97:10 3.69047e-06
5 *2113:A1 *512:25 1.19402e-05
6 *2113:A1 *516:39 0
7 *2112:B *2113:A1 0
8 *2113:A0 *2113:A1 5.71472e-05
*RES
1 *2112:Y *2113:A1 31.0107 
*END

*D_NET *97 0.00830753
*CONN
*I *2176:A I *D sky130_fd_sc_hd__nor2_1
*I *2114:A I *D sky130_fd_sc_hd__inv_2
*I *2115:B I *D sky130_fd_sc_hd__nor2_1
*I *2116:B I *D sky130_fd_sc_hd__and2_1
*I *2113:X O *D sky130_fd_sc_hd__mux2_1
*CAP
1 *2176:A 2.7776e-05
2 *2114:A 2.30855e-05
3 *2115:B 0
4 *2116:B 0.000309651
5 *2113:X 0.000495079
6 *97:28 0.000727682
7 *97:18 0.000852216
8 *97:10 0.000933955
9 *2114:A *584:25 0
10 *2116:B *2173:A 5.83304e-05
11 *2116:B *2173:B 5.52238e-05
12 *2116:B *2472:A 5.71472e-05
13 *2116:B *99:10 0.000125717
14 *2116:B *100:10 0.00010096
15 *2116:B *110:10 0.000243627
16 *2116:B *543:8 0.000115586
17 *2116:B *543:58 0.000120257
18 *2116:B *546:33 1.82549e-05
19 *2176:A *524:85 4.66511e-05
20 *2176:A *526:109 0
21 *97:10 *2076:B 0.000170519
22 *97:10 *2113:S 1.15172e-05
23 *97:10 *2123:B 0
24 *97:10 *2181:A 0
25 *97:10 *2182:A 6.80593e-05
26 *97:10 *512:25 4.38511e-05
27 *97:10 *517:34 0
28 *97:10 *524:85 0.000555122
29 *97:10 *526:109 0
30 *97:18 *2171:A1 0.000230475
31 *97:18 *2171:C1 0.000315165
32 *97:18 *2177:A1 7.84853e-05
33 *97:18 *2177:A2 0.000139363
34 *97:18 *2177:B1 0.00017372
35 *97:18 *2177:C1 0.000618272
36 *97:28 *2170:B1 7.15687e-05
37 *97:28 *2170:C1 0.00022639
38 *97:28 *2177:A2 2.28598e-05
39 *97:28 *2178:A1 2.89114e-05
40 *97:28 *2444:A 0
41 *97:28 *107:27 0.000121573
42 *97:28 *158:12 8.04418e-05
43 *97:28 *283:79 7.80478e-05
44 *97:28 *471:97 0.000431857
45 *97:28 *542:75 9.65075e-05
46 *97:28 *543:69 0.000429928
47 *2112:B *97:10 0
48 *2113:A1 *97:10 3.69047e-06
49 *2118:A *97:10 0
*RES
1 *2113:X *97:10 25.0857 
2 *97:10 *97:18 16.4643 
3 *97:18 *97:28 21.5893 
4 *97:28 *2116:B 26.5321 
5 *97:28 *2115:B 9.3 
6 *97:18 *2114:A 9.72857 
7 *97:10 *2176:A 14.5321 
*END

*D_NET *98 0.000788045
*CONN
*I *2178:A1 I *D sky130_fd_sc_hd__o211a_1
*I *2114:Y O *D sky130_fd_sc_hd__inv_2
*CAP
1 *2178:A1 0.00027606
2 *2114:Y 0.00027606
3 *2178:A1 *2170:C1 2.77173e-05
4 *2178:A1 *2178:B1 7.83366e-05
5 *2178:A1 *283:102 0
6 *2178:A1 *584:25 0.00010096
7 *97:28 *2178:A1 2.89114e-05
*RES
1 *2114:Y *2178:A1 31.725 
*END

*D_NET *99 0.00115054
*CONN
*I *2126:B1 I *D sky130_fd_sc_hd__a211oi_4
*I *2173:A I *D sky130_fd_sc_hd__or2_1
*I *2115:Y O *D sky130_fd_sc_hd__nor2_1
*CAP
1 *2126:B1 0
2 *2173:A 0.000234731
3 *2115:Y 8.74891e-05
4 *99:10 0.00032222
5 *2173:A *2174:B 6.65398e-05
6 *2173:A *2317:B 7.98681e-05
7 *2173:A *2472:A 1.08359e-05
8 *2173:A *110:10 1.3142e-05
9 *2173:A *495:12 0
10 *2173:A *543:58 9.25014e-06
11 *99:10 *471:97 2.59355e-05
12 *99:10 *543:58 0.000116481
13 *2116:B *2173:A 5.83304e-05
14 *2116:B *99:10 0.000125717
*RES
1 *2115:Y *99:10 15.9786 
2 *99:10 *2173:A 19.0857 
3 *99:10 *2126:B1 4.5 
*END

*D_NET *100 0.00521168
*CONN
*I *2173:B I *D sky130_fd_sc_hd__or2_1
*I *2127:A I *D sky130_fd_sc_hd__nor2_1
*I *2157:A1 I *D sky130_fd_sc_hd__o32a_1
*I *2145:A1 I *D sky130_fd_sc_hd__o31a_1
*I *2148:A1 I *D sky130_fd_sc_hd__o31a_1
*I *2116:X O *D sky130_fd_sc_hd__and2_1
*CAP
1 *2173:B 0.000317735
2 *2127:A 0.000216994
3 *2157:A1 0.000104862
4 *2145:A1 2.40023e-05
5 *2148:A1 0
6 *2116:X 0
7 *100:30 0.000389776
8 *100:19 0.000292412
9 *100:10 0.000625385
10 *100:4 0.00074263
11 *2127:A *2127:B 5.90995e-05
12 *2127:A *2145:A2 8.25512e-05
13 *2127:A *2162:A 0.000184728
14 *2127:A *2446:A 5.19921e-05
15 *2127:A *121:22 1.03483e-05
16 *2127:A *121:37 1.78536e-05
17 *2127:A *531:22 0.000132648
18 *2127:A *584:25 1.24368e-05
19 *2145:A1 *2145:A3 5.33433e-05
20 *2145:A1 *126:23 9.60939e-05
21 *2157:A1 *2145:A2 2.6245e-05
22 *2157:A1 *2148:A3 4.48647e-05
23 *2157:A1 *2446:A 0.00030909
24 *2157:A1 *123:14 5.45307e-05
25 *2173:B *2137:S 0
26 *2173:B *495:12 9.45855e-05
27 *2173:B *496:12 3.69697e-05
28 *2173:B *536:44 0.000229456
29 *2173:B *543:14 0
30 *100:10 *2148:A2 1.02504e-05
31 *100:10 *2148:A3 1.15916e-05
32 *100:10 *471:97 0
33 *100:10 *496:12 0
34 *100:10 *543:8 1.21289e-05
35 *100:10 *543:14 8.50596e-05
36 *100:19 *2145:A2 3.34295e-05
37 *100:19 *2148:A2 0.000377174
38 *100:19 *471:97 0
39 *100:30 *2145:A2 0.000144038
40 *100:30 *2148:A2 4.49293e-05
41 *100:30 *121:22 4.26249e-05
42 *2116:B *2173:B 5.52238e-05
43 *2116:B *100:10 0.00010096
44 *2137:A0 *2173:B 3.51442e-05
45 *2152:A *100:19 4.84947e-05
*RES
1 *2116:X *100:4 9.3 
2 *100:4 *100:10 10.9643 
3 *100:10 *2148:A1 13.8 
4 *100:10 *100:19 4.98214 
5 *100:19 *2145:A1 14.7464 
6 *100:19 *100:30 1.94643 
7 *100:30 *2157:A1 17.2286 
8 *100:30 *2127:A 20.0143 
9 *100:4 *2173:B 25.3893 
*END

*D_NET *101 0.000406542
*CONN
*I *2118:B I *D sky130_fd_sc_hd__nand2_1
*I *2117:Y O *D sky130_fd_sc_hd__nand2_1
*CAP
1 *2118:B 5.76047e-05
2 *2117:Y 5.76047e-05
3 *2118:B *2117:A 5.52302e-05
4 *2118:B *2117:B 0
5 *2118:B *2119:A0 0
6 *2118:B *2119:A1 0
7 *2118:B *499:38 5.04589e-05
8 *2118:B *524:64 0.000185643
*RES
1 *2117:Y *2118:B 20.7964 
*END

*D_NET *102 0.000530237
*CONN
*I *2119:A1 I *D sky130_fd_sc_hd__mux2_4
*I *2118:Y O *D sky130_fd_sc_hd__nand2_1
*CAP
1 *2119:A1 7.20495e-05
2 *2118:Y 7.20495e-05
3 *2119:A1 *499:38 0.000276211
4 *2119:A1 *524:64 8.71847e-05
5 *2119:A1 *524:68 2.27416e-05
6 *2118:B *2119:A1 0
*RES
1 *2118:Y *2119:A1 21.6179 
*END

*D_NET *103 0.00206519
*CONN
*I *2120:A I *D sky130_fd_sc_hd__inv_2
*I *2172:A1 I *D sky130_fd_sc_hd__o211a_1
*I *2121:B I *D sky130_fd_sc_hd__and2_1
*I *2122:A I *D sky130_fd_sc_hd__xnor2_4
*I *2119:X O *D sky130_fd_sc_hd__mux2_4
*CAP
1 *2120:A 6.88385e-05
2 *2172:A1 0.000126709
3 *2121:B 0.000203222
4 *2122:A 4.55471e-05
5 *2119:X 0
6 *103:17 0.00032993
7 *103:6 0.000119629
8 *103:4 0.000142921
9 *2120:A *2172:B1 0
10 *2120:A *2172:C1 2.89016e-05
11 *2120:A *107:10 5.52238e-05
12 *2120:A *549:48 0.000146474
13 *2121:B *106:12 0
14 *2121:B *106:34 0
15 *2121:B *516:39 0
16 *2121:B *543:81 0
17 *2121:B *549:37 0
18 *2121:B *549:48 0
19 *2122:A *499:38 5.52238e-05
20 *2172:A1 *2172:A2 9.25014e-06
21 *2172:A1 *106:34 0
22 *2172:A1 *107:10 5.33005e-05
23 *103:6 *2122:B 0.000276211
24 *103:6 *499:38 0.00040381
*RES
1 *2119:X *103:4 9.3 
2 *103:4 *103:6 3.82143 
3 *103:6 *2122:A 10.2643 
4 *103:6 *103:17 4.5 
5 *103:17 *2121:B 16.9607 
6 *103:17 *2172:A1 16.2821 
7 *103:4 *2120:A 20.7821 
*END

*D_NET *104 0.00106637
*CONN
*I *2171:A1 I *D sky130_fd_sc_hd__o211a_1
*I *2120:Y O *D sky130_fd_sc_hd__inv_2
*CAP
1 *2171:A1 0.000246035
2 *2120:Y 0.000246035
3 *2171:A1 *2172:A2 0
4 *2171:A1 *2172:B1 0
5 *2171:A1 *2177:A2 0.000230475
6 *2171:A1 *549:48 0.000113353
7 *2171:A1 *578:33 0
8 *2171:A1 *578:35 0
9 *97:18 *2171:A1 0.000230475
*RES
1 *2120:Y *2171:A1 33.85 
*END

*D_NET *105 0.0014848
*CONN
*I *2125:B1 I *D sky130_fd_sc_hd__a21o_1
*I *2126:C1 I *D sky130_fd_sc_hd__a211oi_4
*I *2121:X O *D sky130_fd_sc_hd__and2_1
*CAP
1 *2125:B1 2.03441e-05
2 *2126:C1 0.000245567
3 *2121:X 0.000100374
4 *105:6 0.000366285
5 *2125:B1 *2125:A1 5.7661e-06
6 *2126:C1 *2125:A1 2.44318e-05
7 *2126:C1 *2125:A2 6.25963e-05
8 *2126:C1 *2126:A2 4.87953e-05
9 *2126:C1 *2174:A 0.000435839
10 *2126:C1 *546:33 7.45591e-05
11 *105:6 *2125:A1 5.62995e-05
12 *105:6 *2125:A2 1.74352e-05
13 *105:6 *546:33 2.65105e-05
*RES
1 *2121:X *105:6 11.4786 
2 *105:6 *2126:C1 15.6036 
3 *105:6 *2125:B1 9.72857 
*END

*D_NET *106 0.00224836
*CONN
*I *2124:A I *D sky130_fd_sc_hd__nand2_1
*I *2167:A I *D sky130_fd_sc_hd__or2_1
*I *2125:A1 I *D sky130_fd_sc_hd__a21o_1
*I *2126:A2 I *D sky130_fd_sc_hd__a211oi_4
*I *2122:Y O *D sky130_fd_sc_hd__xnor2_4
*CAP
1 *2124:A 0
2 *2167:A 9.53242e-05
3 *2125:A1 3.42056e-05
4 *2126:A2 3.23816e-05
5 *2122:Y 6.98663e-05
6 *106:34 0.000292742
7 *106:12 0.000159882
8 *106:8 0.000360579
9 *2125:A1 *2125:A2 0.000178593
10 *2126:A2 *2125:A2 9.41642e-05
11 *2167:A *2168:A 9.35228e-06
12 *2167:A *2168:B 2.14658e-05
13 *2167:A *2169:B1 5.33433e-05
14 *2167:A *2169:B2 2.42516e-05
15 *2167:A *107:14 0.000282746
16 *2167:A *108:6 1.56e-05
17 *106:8 *499:38 8.25843e-06
18 *106:8 *543:69 1.58163e-05
19 *106:12 *543:81 0.000146474
20 *106:34 *543:81 7.22594e-05
21 *106:34 *543:110 0.00014576
22 *2121:B *106:12 0
23 *2121:B *106:34 0
24 *2125:B1 *2125:A1 5.7661e-06
25 *2126:C1 *2125:A1 2.44318e-05
26 *2126:C1 *2126:A2 4.87953e-05
27 *2172:A1 *106:34 0
28 *105:6 *2125:A1 5.62995e-05
*RES
1 *2122:Y *106:8 14.7464 
2 *106:8 *106:12 6.44643 
3 *106:12 *2126:A2 10.2464 
4 *106:12 *2125:A1 11.0857 
5 *106:8 *106:34 7.89286 
6 *106:34 *2167:A 12.3179 
7 *106:34 *2124:A 9.3 
*END

*D_NET *107 0.00530191
*CONN
*I *2182:A I *D sky130_fd_sc_hd__nand2_1
*I *2124:B I *D sky130_fd_sc_hd__nand2_1
*I *2125:A2 I *D sky130_fd_sc_hd__a21o_1
*I *2126:A1 I *D sky130_fd_sc_hd__a211oi_4
*I *2167:B I *D sky130_fd_sc_hd__or2_1
*I *2123:X O *D sky130_fd_sc_hd__or2_2
*CAP
1 *2182:A 0.000229916
2 *2124:B 0
3 *2125:A2 0.000129394
4 *2126:A1 1.09567e-05
5 *2167:B 7.1541e-05
6 *2123:X 0
7 *107:27 0.000266259
8 *107:14 0.00051643
9 *107:10 0.000877737
10 *107:4 0.000788673
11 *2125:A2 *546:33 0.000437756
12 *2126:A1 *471:97 5.83233e-05
13 *2126:A1 *542:75 6.0038e-05
14 *2167:B *2169:B1 1.58163e-05
15 *2182:A *2123:B 5.80217e-05
16 *2182:A *2181:A 5.66372e-05
17 *2182:A *2181:B 5.71472e-05
18 *2182:A *2182:B 5.33005e-05
19 *2182:A *526:109 7.79781e-06
20 *107:10 *2168:A 9.0644e-06
21 *107:10 *2172:C1 0.000180852
22 *107:10 *2179:C 5.62995e-05
23 *107:14 *2169:B1 1.21258e-05
24 *107:14 *108:6 1.32552e-05
25 *107:27 *283:79 0
26 *107:27 *471:97 0.000125724
27 *107:27 *542:75 0.000275155
28 *2120:A *107:10 5.52238e-05
29 *2125:A1 *2125:A2 0.000178593
30 *2126:A2 *2125:A2 9.41642e-05
31 *2126:C1 *2125:A2 6.25963e-05
32 *2167:A *107:14 0.000282746
33 *2172:A1 *107:10 5.33005e-05
34 *97:10 *2182:A 6.80593e-05
35 *97:28 *107:27 0.000121573
36 *105:6 *2125:A2 1.74352e-05
*RES
1 *2123:X *107:4 9.3 
2 *107:4 *107:10 10.7321 
3 *107:10 *107:14 4.55357 
4 *107:14 *2167:B 10.2643 
5 *107:14 *107:27 8.26786 
6 *107:27 *2126:A1 14.5321 
7 *107:27 *2125:A2 18.7643 
8 *107:10 *2124:B 9.3 
9 *107:4 *2182:A 23.5679 
*END

*D_NET *108 0.00158179
*CONN
*I *2168:A I *D sky130_fd_sc_hd__nand2_1
*I *2169:B2 I *D sky130_fd_sc_hd__a221o_1
*I *2124:Y O *D sky130_fd_sc_hd__nand2_1
*CAP
1 *2168:A 2.68782e-05
2 *2169:B2 0.000296634
3 *2124:Y 4.74927e-05
4 *108:6 0.000371005
5 *2168:A *2168:B 1.97695e-05
6 *2169:B2 *2168:B 5.52238e-05
7 *2169:B2 *2169:B1 0.000436829
8 *2169:B2 *2170:B1 9.60875e-05
9 *2169:B2 *2175:A2 5.83304e-05
10 *2169:B2 *126:23 2.84269e-05
11 *2169:B2 *129:38 1.38323e-05
12 *2169:B2 *531:28 5.97527e-05
13 *2167:A *2168:A 9.35228e-06
14 *2167:A *2169:B2 2.42516e-05
15 *2167:A *108:6 1.56e-05
16 *107:10 *2168:A 9.0644e-06
17 *107:14 *108:6 1.32552e-05
*RES
1 *2124:Y *108:6 10.2464 
2 *108:6 *2169:B2 25.0679 
3 *108:6 *2168:A 10.0321 
*END

*D_NET *109 0.00131972
*CONN
*I *2174:A I *D sky130_fd_sc_hd__xnor2_1
*I *2125:X O *D sky130_fd_sc_hd__a21o_1
*CAP
1 *2174:A 0.000364175
2 *2125:X 0.000364175
3 *2174:A *158:12 2.56601e-05
4 *2174:A *531:28 0.000129868
5 *2174:A *542:75 0
6 *2126:C1 *2174:A 0.000435839
*RES
1 *2125:X *2174:A 33.475 
*END

*D_NET *110 0.00571887
*CONN
*I *2536:A I *D sky130_fd_sc_hd__dlygate4sd1_1
*I *2127:B I *D sky130_fd_sc_hd__nor2_1
*I *2537:A I *D sky130_fd_sc_hd__buf_1
*I *2145:A3 I *D sky130_fd_sc_hd__o31a_1
*I *2126:Y O *D sky130_fd_sc_hd__a211oi_4
*CAP
1 *2536:A 0.000197351
2 *2127:B 0.000138486
3 *2537:A 2.23854e-05
4 *2145:A3 0.000157195
5 *2126:Y 0.000275513
6 *110:32 0.000410394
7 *110:14 0.00027569
8 *110:10 0.000446179
9 *2127:B *2177:A2 0
10 *2127:B *2444:A 1.24368e-05
11 *2127:B *531:22 0.000194143
12 *2127:B *581:8 5.33005e-05
13 *2127:B *584:25 7.28784e-05
14 *2145:A3 *126:23 6.94273e-05
15 *2145:A3 *129:23 0.000137983
16 *2536:A *2138:A 0.000481568
17 *2536:A *2175:A2 1.59689e-05
18 *2536:A *2178:B1 1.37292e-05
19 *2536:A *2444:A 4.53834e-05
20 *2536:A *130:27 0.000481568
21 *2536:A *498:31 0.000103527
22 *2536:A *581:63 0.000231948
23 *110:10 *2317:B 0.000383274
24 *110:10 *496:12 0
25 *110:10 *542:18 6.5185e-05
26 *110:10 *546:33 1.26754e-06
27 *110:10 *581:18 0.000236799
28 *110:14 *126:23 0.000183422
29 *110:14 *129:23 0.00033559
30 *110:14 *531:22 9.90367e-05
31 *110:32 *2146:B1 0
32 *110:32 *2175:A2 2.28428e-05
33 *110:32 *531:22 2.26424e-05
34 *110:32 *581:18 0.000153288
35 *110:32 *581:63 9.25014e-06
36 *2116:B *110:10 0.000243627
37 *2127:A *2127:B 5.90995e-05
38 *2145:A1 *2145:A3 5.33433e-05
39 *2173:A *110:10 1.3142e-05
*RES
1 *2126:Y *110:10 21.9875 
2 *110:10 *110:14 8.73214 
3 *110:14 *2145:A3 12.7286 
4 *110:14 *2537:A 9.72857 
5 *110:10 *110:32 1.94643 
6 *110:32 *2127:B 17.6571 
7 *110:32 *2536:A 21.6036 
*END

*D_NET *111 0.0026991
*CONN
*I *2162:A I *D sky130_fd_sc_hd__xnor2_1
*I *2127:Y O *D sky130_fd_sc_hd__nor2_1
*CAP
1 *2162:A 0.000616085
2 *2127:Y 0.000616085
3 *2162:A *2138:A 2.82057e-05
4 *2162:A *2139:A 9.99853e-05
5 *2162:A *2145:A2 9.25014e-06
6 *2162:A *2152:B 1.40849e-05
7 *2162:A *2152:C 0.000123288
8 *2162:A *2163:A0 0.000188804
9 *2162:A *121:37 0
10 *2162:A *136:14 0.000168939
11 *2162:A *471:97 0
12 *2162:A *510:25 3.34295e-05
13 *2162:A *510:37 5.59013e-05
14 *2162:A *539:144 0.000240758
15 *2127:A *2162:A 0.000184728
16 *2152:A *2162:A 0.000319557
*RES
1 *2127:Y *2162:A 41.225 
*END

*D_NET *112 0.00434869
*CONN
*I *2150:B1_N I *D sky130_fd_sc_hd__o21bai_1
*I *2142:C_N I *D sky130_fd_sc_hd__or4bb_4
*I *2149:C_N I *D sky130_fd_sc_hd__or3b_1
*I *2140:A I *D sky130_fd_sc_hd__nand4_1
*I *2128:X O *D sky130_fd_sc_hd__xor2_1
*CAP
1 *2150:B1_N 0.000211227
2 *2142:C_N 1.90849e-05
3 *2149:C_N 0.000171934
4 *2140:A 0.000174376
5 *2128:X 0
6 *112:36 0.000298141
7 *112:21 0.000518868
8 *112:4 0.00045348
9 *2140:A *2145:B1 5.71472e-05
10 *2140:A *2147:B 3.2534e-05
11 *2140:A *2150:A2 0
12 *2140:A *2151:B1 0
13 *2140:A *2465:A 0.000177234
14 *2140:A *497:12 7.83462e-05
15 *2140:A *536:8 4.48113e-05
16 *2140:A *539:10 0
17 *2142:C_N *2142:D_N 2.36643e-05
18 *2142:C_N *2151:A3 5.49544e-05
19 *2142:C_N *510:59 9.83442e-05
20 *2149:C_N *2134:A 0.000206864
21 *2149:C_N *2149:A 1.93525e-05
22 *2149:C_N *2150:A2 3.57844e-05
23 *2149:C_N *117:16 1.17091e-05
24 *2149:C_N *117:24 0
25 *2149:C_N *121:14 0
26 *2149:C_N *499:22 0.000187041
27 *2149:C_N *539:103 6.81083e-05
28 *2150:B1_N *2150:A2 2.99773e-05
29 *2150:B1_N *2151:A3 0.000306156
30 *2150:B1_N *135:14 0.000261227
31 *2150:B1_N *498:31 9.41642e-05
32 *112:21 *2145:B1 0.000380615
33 *112:36 *2150:A2 5.64954e-05
34 *112:36 *539:103 7.6644e-05
35 *67:48 *2149:C_N 0.000200406
*RES
1 *2128:X *112:4 9.3 
2 *112:4 *2140:A 22.9071 
3 *112:4 *112:21 8.32143 
4 *112:21 *2149:C_N 19.4607 
5 *112:21 *112:36 1.64286 
6 *112:36 *2142:C_N 14.7464 
7 *112:36 *2150:B1_N 19.1214 
*END

*D_NET *113 0.00288099
*CONN
*I *2143:A2 I *D sky130_fd_sc_hd__o21bai_1
*I *2144:A2_N I *D sky130_fd_sc_hd__o2bb2a_1
*I *2130:B I *D sky130_fd_sc_hd__xnor2_1
*I *2129:Y O *D sky130_fd_sc_hd__o21ai_1
*CAP
1 *2143:A2 0.000107254
2 *2144:A2_N 0
3 *2130:B 0.000224763
4 *2129:Y 0.000215863
5 *113:8 0.000428185
6 *113:6 0.000526539
7 *2130:B *499:10 1.08359e-05
8 *2130:B *499:22 0.00023875
9 *2130:B *534:10 9.90367e-05
10 *2130:B *534:14 0.000149821
11 *2130:B *534:24 2.10446e-05
12 *2143:A2 *2143:A1 5.52238e-05
13 *2143:A2 *2144:B1 0.000213602
14 *2143:A2 *499:22 0
15 *2143:A2 *534:24 4.27437e-05
16 *2143:A2 *539:14 9.91086e-05
17 *113:6 *2144:B2 9.41642e-05
18 *113:6 *581:43 0.000213179
19 *113:8 *2144:B2 9.60875e-05
20 *113:8 *2145:B1 4.4787e-05
*RES
1 *2129:Y *113:6 12.3 
2 *113:6 *113:8 2.58929 
3 *113:8 *2130:B 25.1393 
4 *113:8 *2144:A2_N 9.3 
5 *113:6 *2143:A2 21.425 
*END

*D_NET *114 0.00204013
*CONN
*I *2140:B I *D sky130_fd_sc_hd__nand4_1
*I *2142:D_N I *D sky130_fd_sc_hd__or4bb_4
*I *2130:Y O *D sky130_fd_sc_hd__xnor2_1
*CAP
1 *2140:B 0
2 *2142:D_N 0.00032851
3 *2130:Y 0.000416348
4 *114:12 0.000744858
5 *2142:D_N *2147:B 4.50408e-05
6 *2142:D_N *2150:A2 0
7 *2142:D_N *2151:A2 8.2129e-06
8 *2142:D_N *2151:A3 0.000137983
9 *2142:D_N *2151:B1 6.26774e-06
10 *2142:D_N *2465:A 0.000104974
11 *2142:D_N *135:14 5.52238e-05
12 *2142:D_N *510:59 3.86431e-05
13 *2142:D_N *539:103 1.15172e-05
14 *114:12 *2158:B 4.70048e-05
15 *114:12 *534:10 7.18788e-05
16 *2142:C_N *2142:D_N 2.36643e-05
*RES
1 *2130:Y *114:12 15.3357 
2 *114:12 *2142:D_N 24.7107 
3 *114:12 *2140:B 9.3 
*END

*D_NET *115 0.00116253
*CONN
*I *2132:B I *D sky130_fd_sc_hd__xnor2_1
*I *2131:X O *D sky130_fd_sc_hd__a21o_1
*CAP
1 *2132:B 0.000288939
2 *2131:X 0.000288939
3 *2132:B *534:45 9.3927e-05
4 *2132:B *539:58 4.43256e-05
5 *2106:C_N *2132:B 0.000140856
6 *2110:B *2132:B 0.000119738
7 *2136:A *2132:B 5.42961e-05
8 *2136:B *2132:B 9.41642e-05
9 *61:24 *2132:B 3.73468e-05
*RES
1 *2131:X *2132:B 33.1893 
*END

*D_NET *116 0.00145246
*CONN
*I *2133:A1 I *D sky130_fd_sc_hd__mux2_2
*I *2132:Y O *D sky130_fd_sc_hd__xnor2_1
*CAP
1 *2133:A1 0.000401119
2 *2132:Y 0.000401119
3 *2133:A1 *534:45 0.000271302
4 *2133:A1 *543:14 0.000190219
5 *2133:A0 *2133:A1 0.000188704
*RES
1 *2132:Y *2133:A1 35.5286 
*END

*D_NET *117 0.00749431
*CONN
*I *2134:B I *D sky130_fd_sc_hd__and2_1
*I *2159:A0 I *D sky130_fd_sc_hd__mux2_1
*I *2135:B I *D sky130_fd_sc_hd__xor2_1
*I *2141:A2 I *D sky130_fd_sc_hd__o22a_1
*I *2133:X O *D sky130_fd_sc_hd__mux2_2
*CAP
1 *2134:B 0
2 *2159:A0 9.91495e-05
3 *2135:B 0.000184558
4 *2141:A2 3.98109e-05
5 *2133:X 0.000358784
6 *117:49 0.00109419
7 *117:24 0.00102659
8 *117:16 0.000535075
9 *2135:B *2135:A 0.000219456
10 *2135:B *2140:C 0.000228558
11 *2135:B *2159:A1 0.000157399
12 *2135:B *119:8 0.000153608
13 *2135:B *498:10 4.70078e-05
14 *2135:B *539:144 0.000601602
15 *2141:A2 *2145:B1 5.49489e-05
16 *2159:A0 *2159:A1 0.000100831
17 *2159:A0 *135:14 0.000116474
18 *2159:A0 *497:29 9.83442e-05
19 *117:16 *2134:A 3.3283e-05
20 *117:16 *2148:B1 1.24368e-05
21 *117:16 *121:14 0.000217124
22 *117:16 *499:22 9.71197e-05
23 *117:24 *2134:A 5.33005e-05
24 *117:24 *2145:B1 3.04082e-05
25 *117:24 *118:19 1.67864e-05
26 *117:24 *121:14 0.000167746
27 *117:24 *499:22 2.2351e-05
28 *117:49 *2139:A 1.07319e-05
29 *117:49 *2140:D 0
30 *117:49 *2142:A 0.000114972
31 *117:49 *2145:B1 4.08637e-05
32 *117:49 *2148:B1 9.11048e-06
33 *117:49 *2150:A1 0.000474232
34 *117:49 *2150:A2 5.68713e-05
35 *117:49 *2157:A2 0.000100639
36 *117:49 *2159:A1 5.66157e-05
37 *117:49 *2162:B 0
38 *117:49 *118:19 7.6644e-05
39 *117:49 *123:14 0.000216793
40 *117:49 *126:23 1.3457e-05
41 *117:49 *135:14 0.00039229
42 *117:49 *498:31 5.12758e-05
43 *117:49 *542:41 7.14981e-06
44 *2149:C_N *117:16 1.17091e-05
45 *2149:C_N *117:24 0
46 *2152:A *117:49 4.3825e-05
47 *92:36 *117:16 5.01883e-05
*RES
1 *2133:X *117:16 26.3179 
2 *117:16 *117:24 12.6964 
3 *117:24 *2141:A2 9.83571 
4 *117:24 *117:49 31.8393 
5 *117:49 *2135:B 22.05 
6 *117:49 *2159:A0 16.3893 
7 *117:16 *2134:B 9.3 
*END

*D_NET *118 0.00314438
*CONN
*I *2150:A1 I *D sky130_fd_sc_hd__o21bai_1
*I *2142:B I *D sky130_fd_sc_hd__or4bb_4
*I *2149:A I *D sky130_fd_sc_hd__or3b_1
*I *2134:X O *D sky130_fd_sc_hd__and2_1
*CAP
1 *2150:A1 0.000211537
2 *2142:B 4.86742e-05
3 *2149:A 0.000164159
4 *2134:X 0
5 *118:19 0.000478583
6 *118:4 0.000382531
7 *2142:B *2142:A 6.05161e-06
8 *2142:B *2145:B1 1.21258e-05
9 *2149:A *2134:A 0.000143375
10 *2150:A1 *2140:D 0.00019384
11 *2150:A1 *2145:B1 7.22594e-05
12 *2150:A1 *123:14 0.000195555
13 *2150:A1 *498:31 0.000119279
14 *2150:A1 *510:59 5.19554e-05
15 *118:19 *2134:A 0.0001254
16 *118:19 *2145:B1 9.91086e-05
17 *118:19 *2148:B1 0.000129638
18 *118:19 *121:14 0.000123295
19 *2149:C_N *2149:A 1.93525e-05
20 *117:24 *118:19 1.67864e-05
21 *117:49 *2150:A1 0.000474232
22 *117:49 *118:19 7.6644e-05
*RES
1 *2134:X *118:4 9.3 
2 *118:4 *2149:A 11.8 
3 *118:4 *118:19 9.32143 
4 *118:19 *2142:B 14.3357 
5 *118:19 *2150:A1 21.8714 
*END

*D_NET *119 0.00178191
*CONN
*I *2140:C I *D sky130_fd_sc_hd__nand4_1
*I *2158:A I *D sky130_fd_sc_hd__xor2_1
*I *2135:X O *D sky130_fd_sc_hd__xor2_1
*CAP
1 *2140:C 0.00040016
2 *2158:A 0
3 *2135:X 5.18916e-05
4 *119:8 0.000452052
5 *2140:C *2158:B 0
6 *2140:C *2159:A1 5.52238e-05
7 *2140:C *2465:A 9.24395e-05
8 *2140:C *497:12 0
9 *2140:C *498:10 0.000274754
10 *2140:C *510:14 0
11 *119:8 *498:10 7.32272e-05
12 *2135:B *2140:C 0.000228558
13 *2135:B *119:8 0.000153608
*RES
1 *2135:X *119:8 11.0857 
2 *119:8 *2158:A 9.3 
3 *119:8 *2140:C 28.1929 
*END

*D_NET *120 0.000911365
*CONN
*I *2137:A1 I *D sky130_fd_sc_hd__mux2_4
*I *2136:Y O *D sky130_fd_sc_hd__xnor2_1
*CAP
1 *2137:A1 0.000254497
2 *2136:Y 0.000254497
3 *2137:A1 *2137:S 5.80706e-06
4 *2137:A1 *534:45 0.000273269
5 *2137:A1 *543:14 0
6 *2137:A0 *2137:A1 0.000123295
*RES
1 *2136:Y *2137:A1 31.8321 
*END

*D_NET *121 0.00679177
*CONN
*I *2141:B2 I *D sky130_fd_sc_hd__o22a_1
*I *2138:B I *D sky130_fd_sc_hd__xnor2_1
*I *2163:A0 I *D sky130_fd_sc_hd__mux2_1
*I *2139:B I *D sky130_fd_sc_hd__xnor2_1
*I *2157:B1 I *D sky130_fd_sc_hd__o32a_1
*I *2137:X O *D sky130_fd_sc_hd__mux2_4
*CAP
1 *2141:B2 0
2 *2138:B 0
3 *2163:A0 0.000237471
4 *2139:B 0.000226502
5 *2157:B1 0
6 *2137:X 0.000680367
7 *121:43 0.000541743
8 *121:37 0.000325311
9 *121:22 0.000511252
10 *121:14 0.000944078
11 *2139:B *2139:A 4.45419e-05
12 *2139:B *2162:B 4.38349e-05
13 *2139:B *123:14 5.52238e-05
14 *2163:A0 *147:8 0
15 *2163:A0 *510:37 9.41642e-05
16 *2163:A0 *539:144 1.21258e-05
17 *121:14 *2148:B1 1.08359e-05
18 *121:14 *536:44 0.000107427
19 *121:22 *2141:B1 0.000225995
20 *121:22 *2148:A2 0.000289673
21 *121:22 *2148:A3 0.000395436
22 *121:22 *542:18 8.2607e-05
23 *121:22 *581:43 0.000347815
24 *121:37 *2138:A 0.000103803
25 *121:37 *2139:A 0.000290288
26 *121:37 *2145:A2 1.78353e-05
27 *121:37 *2148:A3 2.2443e-05
28 *121:37 *501:14 0.000126395
29 *121:43 *2139:A 3.5848e-05
30 *121:43 *123:14 5.93525e-05
31 *2110:B *121:14 9.90367e-05
32 *2127:A *121:22 1.03483e-05
33 *2127:A *121:37 1.78536e-05
34 *2133:A0 *121:14 0
35 *2149:C_N *121:14 0
36 *2152:A *121:22 1.98839e-05
37 *2152:A *121:37 7.26841e-05
38 *2162:A *2163:A0 0.000188804
39 *2162:A *121:37 0
40 *67:48 *121:14 0
41 *92:10 *121:14 0
42 *100:30 *121:22 4.26249e-05
43 *117:16 *121:14 0.000217124
44 *117:24 *121:14 0.000167746
45 *118:19 *121:14 0.000123295
*RES
1 *2137:X *121:14 31.7821 
2 *121:14 *121:22 13.625 
3 *121:22 *2157:B1 13.8 
4 *121:22 *121:37 11.6786 
5 *121:37 *121:43 10.6429 
6 *121:43 *2139:B 12.7464 
7 *121:43 *2163:A0 14.2821 
8 *121:37 *2138:B 9.3 
9 *121:14 *2141:B2 9.3 
*END

*D_NET *122 0.00273215
*CONN
*I *2162:B I *D sky130_fd_sc_hd__xnor2_1
*I *2140:D I *D sky130_fd_sc_hd__nand4_1
*I *2138:Y O *D sky130_fd_sc_hd__xnor2_1
*CAP
1 *2162:B 0.000199394
2 *2140:D 0.000370473
3 *2138:Y 4.50417e-05
4 *122:8 0.000614909
5 *2140:D *2158:B 0.000564125
6 *2140:D *2446:A 2.1768e-05
7 *2140:D *123:14 5.74562e-05
8 *2140:D *135:14 0
9 *2140:D *510:14 0.000135028
10 *2140:D *510:59 0.000224341
11 *2162:B *2139:A 7.6507e-05
12 *2162:B *123:14 0.000172612
13 *122:8 *501:14 1.28171e-05
14 *2139:B *2162:B 4.38349e-05
15 *2150:A1 *2140:D 0.00019384
16 *117:49 *2140:D 0
17 *117:49 *2162:B 0
*RES
1 *2138:Y *122:8 14.3357 
2 *122:8 *2140:D 23.7643 
3 *122:8 *2162:B 18.3179 
*END

*D_NET *123 0.0032565
*CONN
*I *2148:A3 I *D sky130_fd_sc_hd__o31a_1
*I *2157:A3 I *D sky130_fd_sc_hd__o32a_1
*I *2139:Y O *D sky130_fd_sc_hd__xnor2_1
*CAP
1 *2148:A3 0.000380999
2 *2157:A3 0
3 *2139:Y 0.00030534
4 *123:14 0.00068634
5 *2148:A3 *2139:A 3.19909e-05
6 *2148:A3 *2145:A2 4.82865e-05
7 *2148:A3 *2148:A2 6.61828e-05
8 *2148:A3 *2148:B1 0
9 *2148:A3 *126:23 5.01649e-06
10 *2148:A3 *132:6 5.68722e-05
11 *2148:A3 *499:22 5.52302e-05
12 *2148:A3 *542:41 0.00024936
13 *123:14 *2145:A2 7.1959e-05
14 *123:14 *2446:A 1.30665e-05
15 *2139:B *123:14 5.52238e-05
16 *2140:D *123:14 5.74562e-05
17 *2150:A1 *123:14 0.000195555
18 *2157:A1 *2148:A3 4.48647e-05
19 *2157:A1 *123:14 5.45307e-05
20 *2162:B *123:14 0.000172612
21 *100:10 *2148:A3 1.15916e-05
22 *117:49 *123:14 0.000216793
23 *121:22 *2148:A3 0.000395436
24 *121:37 *2148:A3 2.2443e-05
25 *121:43 *123:14 5.93525e-05
*RES
1 *2139:Y *123:14 26.9964 
2 *123:14 *2157:A3 9.3 
3 *123:14 *2148:A3 27.8 
*END

*D_NET *124 0.00305681
*CONN
*I *2145:A2 I *D sky130_fd_sc_hd__o31a_1
*I *2140:Y O *D sky130_fd_sc_hd__nand4_1
*CAP
1 *2145:A2 0.000921439
2 *2140:Y 0.000921439
3 *2145:A2 *2158:B 0.000646884
4 *2145:A2 *2446:A 2.13481e-06
5 *2127:A *2145:A2 8.25512e-05
6 *2148:A3 *2145:A2 4.82865e-05
7 *2152:A *2145:A2 0.000131321
8 *2157:A1 *2145:A2 2.6245e-05
9 *2162:A *2145:A2 9.25014e-06
10 *100:19 *2145:A2 3.34295e-05
11 *100:30 *2145:A2 0.000144038
12 *121:37 *2145:A2 1.78353e-05
13 *123:14 *2145:A2 7.1959e-05
*RES
1 *2140:Y *2145:A2 41.4571 
*END

*D_NET *125 0.00144656
*CONN
*I *2142:A I *D sky130_fd_sc_hd__or4bb_4
*I *2148:B1 I *D sky130_fd_sc_hd__o31a_1
*I *2141:X O *D sky130_fd_sc_hd__o22a_1
*CAP
1 *2142:A 0.000100218
2 *2148:B1 0.000297288
3 *2141:X 0
4 *125:6 0.000397506
5 *2142:A *2145:B1 9.41642e-05
6 *2142:A *2146:A2 3.84349e-05
7 *2142:A *126:23 2.39441e-05
8 *2148:B1 *2134:A 3.57366e-05
9 *2148:B1 *2146:A2 2.93304e-05
10 *2148:B1 *499:22 0.000141099
11 *2148:B1 *542:41 5.79582e-06
12 *2142:B *2142:A 6.05161e-06
13 *2148:A3 *2148:B1 0
14 *117:16 *2148:B1 1.24368e-05
15 *117:49 *2142:A 0.000114972
16 *117:49 *2148:B1 9.11048e-06
17 *118:19 *2148:B1 0.000129638
18 *121:14 *2148:B1 1.08359e-05
*RES
1 *2141:X *125:6 13.8 
2 *125:6 *2148:B1 19.925 
3 *125:6 *2142:A 16.3893 
*END

*D_NET *126 0.00387095
*CONN
*I *2170:A1 I *D sky130_fd_sc_hd__a211o_1
*I *2169:A2 I *D sky130_fd_sc_hd__a221o_1
*I *2175:A1 I *D sky130_fd_sc_hd__a211o_1
*I *2146:A2 I *D sky130_fd_sc_hd__a21oi_4
*I *2142:X O *D sky130_fd_sc_hd__or4bb_4
*CAP
1 *2170:A1 0.000161643
2 *2169:A2 1.84523e-05
3 *2175:A1 6.36338e-05
4 *2146:A2 6.83256e-05
5 *2142:X 4.38553e-05
6 *126:38 0.00026076
7 *126:23 0.000712752
8 *126:8 0.000680635
9 *2146:A2 *542:41 0.000123352
10 *2169:A2 *2169:A1 1.04232e-05
11 *2169:A2 *2170:A2 1.57155e-05
12 *2170:A1 *2170:A2 0.000139086
13 *2175:A1 *2175:A2 0.000129868
14 *2175:A1 *158:12 6.97972e-05
15 *126:8 *2145:B1 1.83053e-05
16 *126:23 *2145:B1 0.000175892
17 *126:23 *2148:A2 0.00026353
18 *126:23 *129:23 1.21258e-05
19 *126:23 *129:38 7.38093e-06
20 *126:23 *531:22 0.000178847
21 *126:23 *542:41 9.08946e-05
22 *126:23 *581:18 9.60875e-05
23 *126:38 *2170:A2 2.14757e-05
24 *126:38 *129:38 2.05612e-05
25 *2142:A *2146:A2 3.84349e-05
26 *2142:A *126:23 2.39441e-05
27 *2145:A1 *126:23 9.60939e-05
28 *2145:A3 *126:23 6.94273e-05
29 *2148:A3 *126:23 5.01649e-06
30 *2148:B1 *2146:A2 2.93304e-05
31 *2169:B2 *126:23 2.84269e-05
32 *110:14 *126:23 0.000183422
33 *117:49 *126:23 1.3457e-05
*RES
1 *2142:X *126:8 14.3357 
2 *126:8 *2146:A2 15.4429 
3 *126:8 *126:23 16.6429 
4 *126:23 *2175:A1 20.3714 
5 *126:23 *126:38 1.35714 
6 *126:38 *2169:A2 9.87589 
7 *126:38 *2170:A1 12.3179 
*END

*D_NET *127 0.000767531
*CONN
*I *2144:B1 I *D sky130_fd_sc_hd__o2bb2a_1
*I *2143:Y O *D sky130_fd_sc_hd__o21bai_1
*CAP
1 *2144:B1 0.000221632
2 *2143:Y 0.000221632
3 *2144:B1 *2143:A1 2.44318e-05
4 *2144:B1 *499:22 4.48113e-05
5 *2144:B1 *534:24 1.74352e-05
6 *2144:B1 *539:14 2.39876e-05
7 *2143:A2 *2144:B1 0.000213602
*RES
1 *2143:Y *2144:B1 31.4214 
*END

*D_NET *128 0.00352646
*CONN
*I *2145:B1 I *D sky130_fd_sc_hd__o31a_1
*I *2144:X O *D sky130_fd_sc_hd__o2bb2a_1
*CAP
1 *2145:B1 0.000857907
2 *2144:X 0.000857907
3 *2145:B1 *2144:A1_N 3.35852e-05
4 *2145:B1 *2144:B2 6.09773e-05
5 *2145:B1 *510:59 2.93304e-05
6 *2145:B1 *581:43 6.96859e-05
7 *2128:B *2145:B1 9.90367e-05
8 *2129:A1 *2145:B1 8.40933e-05
9 *2140:A *2145:B1 5.71472e-05
10 *2141:A2 *2145:B1 5.49489e-05
11 *2142:A *2145:B1 9.41642e-05
12 *2142:B *2145:B1 1.21258e-05
13 *2150:A1 *2145:B1 7.22594e-05
14 *2152:A *2145:B1 0.000353311
15 *112:21 *2145:B1 0.000380615
16 *113:8 *2145:B1 4.4787e-05
17 *117:24 *2145:B1 3.04082e-05
18 *117:49 *2145:B1 4.08637e-05
19 *118:19 *2145:B1 9.91086e-05
20 *126:8 *2145:B1 1.83053e-05
21 *126:23 *2145:B1 0.000175892
*RES
1 *2144:X *2145:B1 46.1179 
*END

*D_NET *129 0.00381235
*CONN
*I *2170:A2 I *D sky130_fd_sc_hd__a211o_1
*I *2169:A1 I *D sky130_fd_sc_hd__a221o_1
*I *2175:A2 I *D sky130_fd_sc_hd__a211o_1
*I *2146:A1 I *D sky130_fd_sc_hd__a21oi_4
*I *2145:X O *D sky130_fd_sc_hd__o31a_1
*CAP
1 *2170:A2 0.000156507
2 *2169:A1 1.99857e-05
3 *2175:A2 9.81215e-05
4 *2146:A1 0.000101935
5 *2145:X 0
6 *129:38 0.000249108
7 *129:23 0.000546842
8 *129:4 0.000478041
9 *2146:A1 *130:8 0.000103253
10 *2146:A1 *471:97 1.46717e-05
11 *2146:A1 *542:18 0.000184745
12 *2146:A1 *581:43 0.000102207
13 *2170:A2 *2172:B1 0.000113005
14 *2170:A2 *542:75 1.98839e-05
15 *2175:A2 *2444:A 4.46186e-06
16 *2175:A2 *158:12 1.27784e-05
17 *2175:A2 *531:28 5.66157e-05
18 *2175:A2 *581:18 2.16719e-05
19 *129:23 *531:22 3.97677e-05
20 *129:23 *542:6 9.90367e-05
21 *129:23 *542:75 0.000221641
22 *129:38 *542:75 0.000123617
23 *2145:A3 *129:23 0.000137983
24 *2152:A *2146:A1 0.000103267
25 *2169:A2 *2169:A1 1.04232e-05
26 *2169:A2 *2170:A2 1.57155e-05
27 *2169:B2 *2175:A2 5.83304e-05
28 *2169:B2 *129:38 1.38323e-05
29 *2170:A1 *2170:A2 0.000139086
30 *2175:A1 *2175:A2 0.000129868
31 *2536:A *2175:A2 1.59689e-05
32 *110:14 *129:23 0.00033559
33 *110:32 *2175:A2 2.28428e-05
34 *126:23 *129:23 1.21258e-05
35 *126:23 *129:38 7.38093e-06
36 *126:38 *2170:A2 2.14757e-05
37 *126:38 *129:38 2.05612e-05
*RES
1 *2145:X *129:4 9.3 
2 *129:4 *2146:A1 22.0143 
3 *129:4 *129:23 7.25 
4 *129:23 *2175:A2 21.1571 
5 *129:23 *129:38 1.78571 
6 *129:38 *2169:A1 9.72857 
7 *129:38 *2170:A2 13.1393 
*END

*D_NET *130 0.00756382
*CONN
*I *2442:A I *D sky130_fd_sc_hd__buf_6
*I *2176:B I *D sky130_fd_sc_hd__nor2_1
*I *2178:A2 I *D sky130_fd_sc_hd__o211a_1
*I *2446:A I *D sky130_fd_sc_hd__buf_6
*I *2146:Y O *D sky130_fd_sc_hd__a21oi_4
*CAP
1 *2442:A 2.71579e-05
2 *2176:B 0.00097281
3 *2178:A2 1.45281e-05
4 *2446:A 0.000559441
5 *2146:Y 0.000125659
6 *130:36 0.00105556
7 *130:27 0.00037084
8 *130:8 0.00098582
9 *2176:B *2188:A_N 0.000181899
10 *2176:B *2188:B 1.89513e-07
11 *2176:B *155:14 5.52302e-05
12 *2176:B *162:6 0.000486441
13 *2176:B *512:40 0.000147325
14 *2176:B *524:85 0.000149633
15 *2178:A2 *283:102 3.99614e-06
16 *2442:A *162:6 5.62995e-05
17 *2442:A *283:102 0.000144773
18 *2446:A *2158:B 9.99644e-06
19 *2446:A *531:22 5.52238e-05
20 *130:8 *471:97 0.00014661
21 *130:27 *2138:A 4.43355e-05
22 *130:27 *283:102 4.17014e-05
23 *130:27 *471:97 0.000108538
24 *130:27 *498:31 0.000564328
25 *130:36 *283:102 6.87574e-05
26 *2127:A *2446:A 5.19921e-05
27 *2140:D *2446:A 2.1768e-05
28 *2145:A2 *2446:A 2.13481e-06
29 *2146:A1 *130:8 0.000103253
30 *2152:A *130:8 9.41918e-05
31 *2152:A *130:27 0.000109659
32 *2157:A1 *2446:A 0.00030909
33 *2536:A *130:27 0.000481568
34 *123:14 *2446:A 1.30665e-05
*RES
1 *2146:Y *130:8 17.5679 
2 *130:8 *2446:A 21.2286 
3 *130:8 *130:27 14.4821 
4 *130:27 *2178:A2 9.72857 
5 *130:27 *130:36 1.35714 
6 *130:36 *2176:B 32.6036 
7 *130:36 *2442:A 11.0857 
*END

*D_NET *131 0.000892156
*CONN
*I *2151:B1 I *D sky130_fd_sc_hd__a31o_1
*I *2147:Y O *D sky130_fd_sc_hd__nor2_1
*CAP
1 *2151:B1 0.00023863
2 *2147:Y 0.00023863
3 *2151:B1 *2147:B 0.000118896
4 *2151:B1 *2151:A2 0.000151882
5 *2151:B1 *534:24 1.21258e-05
6 *2129:A2 *2151:B1 0.000125724
7 *2140:A *2151:B1 0
8 *2142:D_N *2151:B1 6.26774e-06
*RES
1 *2147:Y *2151:B1 32.7473 
*END

*D_NET *132 0.00428827
*CONN
*I *2149:B I *D sky130_fd_sc_hd__or3b_1
*I *2150:A2 I *D sky130_fd_sc_hd__o21bai_1
*I *2148:X O *D sky130_fd_sc_hd__o31a_1
*CAP
1 *2149:B 0
2 *2150:A2 0.000490108
3 *2148:X 0.000561002
4 *132:6 0.00105111
5 *2150:A2 *2151:A2 0.000306163
6 *2150:A2 *2465:A 0
7 *2150:A2 *135:14 0.000332771
8 *2150:A2 *498:31 7.27266e-05
9 *2150:A2 *499:22 9.60939e-05
10 *2150:A2 *510:14 0.000218019
11 *2150:A2 *534:24 1.87955e-05
12 *132:6 *499:22 0.000656658
13 *132:6 *499:38 5.19842e-06
14 *2129:A2 *2150:A2 0
15 *2140:A *2150:A2 0
16 *2142:D_N *2150:A2 0
17 *2148:A3 *132:6 5.68722e-05
18 *2149:C_N *2150:A2 3.57844e-05
19 *2150:B1_N *2150:A2 2.99773e-05
20 *67:48 *2150:A2 0.000243627
21 *112:36 *2150:A2 5.64954e-05
22 *117:49 *2150:A2 5.68713e-05
*RES
1 *2148:X *132:6 17.2286 
2 *132:6 *2150:A2 31.3536 
3 *132:6 *2149:B 9.3 
*END

*D_NET *133 0.000910482
*CONN
*I *2151:A2 I *D sky130_fd_sc_hd__a31o_1
*I *2149:X O *D sky130_fd_sc_hd__or3b_1
*CAP
1 *2151:A2 0.000206658
2 *2149:X 0.000206658
3 *2151:A2 *499:22 1.40306e-05
4 *2151:A2 *510:59 1.68785e-05
5 *2142:D_N *2151:A2 8.2129e-06
6 *2150:A2 *2151:A2 0.000306163
7 *2151:B1 *2151:A2 0.000151882
*RES
1 *2149:X *2151:A2 32.3768 
*END

*D_NET *134 0.00100212
*CONN
*I *2151:A3 I *D sky130_fd_sc_hd__a31o_1
*I *2150:Y O *D sky130_fd_sc_hd__o21bai_1
*CAP
1 *2151:A3 0.000229349
2 *2150:Y 0.000229349
3 *2151:A3 *510:59 4.43256e-05
4 *2142:C_N *2151:A3 5.49544e-05
5 *2142:D_N *2151:A3 0.000137983
6 *2150:B1_N *2151:A3 0.000306156
*RES
1 *2150:Y *2151:A3 33.0286 
*END

*D_NET *135 0.00384874
*CONN
*I *2191:A I *D sky130_fd_sc_hd__nor2_1
*I *2155:B I *D sky130_fd_sc_hd__xor2_1
*I *2151:X O *D sky130_fd_sc_hd__a31o_1
*CAP
1 *2191:A 0.000131153
2 *2155:B 0
3 *2151:X 0.000828779
4 *135:14 0.000959932
5 *2191:A *2155:A 5.38444e-06
6 *2191:A *2156:C 0.000144075
7 *2191:A *2192:A1 0.000154911
8 *2191:A *534:138 1.64583e-05
9 *135:14 *510:14 0.000300275
10 *135:14 *534:138 0.000149788
11 *2140:D *135:14 0
12 *2142:D_N *135:14 5.52238e-05
13 *2150:A2 *135:14 0.000332771
14 *2150:B1_N *135:14 0.000261227
15 *2159:A0 *135:14 0.000116474
16 *117:49 *135:14 0.00039229
*RES
1 *2151:X *135:14 39.175 
2 *135:14 *2155:B 9.3 
3 *135:14 *2191:A 13.2643 
*END

*D_NET *136 0.00230366
*CONN
*I *2153:A2 I *D sky130_fd_sc_hd__a21oi_1
*I *2154:C I *D sky130_fd_sc_hd__and3_1
*I *2152:X O *D sky130_fd_sc_hd__or3_1
*CAP
1 *2153:A2 8.91478e-05
2 *2154:C 0
3 *2152:X 0.000451088
4 *136:14 0.000540236
5 *2153:A2 *2153:A1 4.18395e-05
6 *2153:A2 *2154:A 0.000271007
7 *2153:A2 *2154:B 5.70363e-05
8 *136:14 *2152:B 5.33005e-05
9 *136:14 *2152:C 2.86192e-05
10 *136:14 *2154:A 1.95435e-05
11 *136:14 *2154:B 5.7993e-06
12 *136:14 *138:8 5.66551e-05
13 *136:14 *471:97 0
14 *136:14 *497:29 0.000333493
15 *136:14 *501:14 9.69903e-05
16 *136:14 *510:25 8.99641e-05
17 *2162:A *136:14 0.000168939
*RES
1 *2152:X *136:14 28.0857 
2 *136:14 *2154:C 9.3 
3 *136:14 *2153:A2 12.2464 
*END

*D_NET *137 0.0018796
*CONN
*I *2156:A I *D sky130_fd_sc_hd__or3_1
*I *2191:B I *D sky130_fd_sc_hd__nor2_1
*I *2153:Y O *D sky130_fd_sc_hd__a21oi_1
*CAP
1 *2156:A 0
2 *2191:B 8.35747e-05
3 *2153:Y 0.00042714
4 *137:16 0.000510715
5 *2191:B *2156:C 0.000177705
6 *2191:B *2192:A1 0.000287772
7 *137:16 *2153:A1 9.90431e-05
8 *137:16 *2154:A 9.00795e-06
9 *137:16 *2156:B 5.7133e-05
10 *137:16 *2192:A2 2.01359e-05
11 *137:16 *2192:B1 0.000112066
12 *137:16 *138:8 6.18777e-05
13 *137:16 *471:97 3.34295e-05
14 *137:16 *584:47 0
*RES
1 *2153:Y *137:16 26.1214 
2 *137:16 *2191:B 12.6393 
3 *137:16 *2156:A 9.3 
*END

*D_NET *138 0.00148761
*CONN
*I *2192:B1 I *D sky130_fd_sc_hd__a21oi_1
*I *2156:B I *D sky130_fd_sc_hd__or3_1
*I *2154:X O *D sky130_fd_sc_hd__and3_1
*CAP
1 *2192:B1 0.000279868
2 *2156:B 5.01133e-05
3 *2154:X 0.00013678
4 *138:8 0.000466761
5 *2192:B1 *2192:A1 0.000200546
6 *2192:B1 *2193:B1 1.33343e-05
7 *2192:B1 *140:12 3.48705e-05
8 *138:8 *471:97 1.76039e-05
9 *136:14 *138:8 5.66551e-05
10 *137:16 *2156:B 5.7133e-05
11 *137:16 *2192:B1 0.000112066
12 *137:16 *138:8 6.18777e-05
*RES
1 *2154:X *138:8 16.8089 
2 *138:8 *2156:B 14.9875 
3 *138:8 *2192:B1 18.9518 
*END

*D_NET *139 0.000692215
*CONN
*I *2156:C I *D sky130_fd_sc_hd__or3_1
*I *2155:X O *D sky130_fd_sc_hd__xor2_1
*CAP
1 *2156:C 0.000170436
2 *2155:X 0.000170436
3 *2156:C *2192:A1 2.95641e-05
4 *2191:A *2156:C 0.000144075
5 *2191:B *2156:C 0.000177705
*RES
1 *2155:X *2156:C 22.975 
*END

*D_NET *140 0.00209364
*CONN
*I *2193:A2 I *D sky130_fd_sc_hd__o21a_1
*I *2196:A I *D sky130_fd_sc_hd__nor4_1
*I *2156:X O *D sky130_fd_sc_hd__or3_1
*CAP
1 *2193:A2 8.3514e-05
2 *2196:A 0.000117422
3 *2156:X 0.000535233
4 *140:12 0.000736169
5 *2193:A2 *2197:A1 0
6 *2193:A2 *2238:A 0.000168698
7 *2196:A *2197:A1 0
8 *2196:A *2235:A1 0
9 *2196:A *2238:A 0.000128154
10 *2196:A *150:8 4.01768e-05
11 *140:12 *2192:A1 4.23062e-05
12 *140:12 *2193:B1 0.000207098
13 *2192:B1 *140:12 3.48705e-05
*RES
1 *2156:X *140:12 23.5143 
2 *140:12 *2196:A 16.3893 
3 *140:12 *2193:A2 16.05 
*END

*D_NET *141 0.00290819
*CONN
*I *2158:B I *D sky130_fd_sc_hd__xor2_1
*I *2157:X O *D sky130_fd_sc_hd__o32a_1
*CAP
1 *2158:B 0.000413562
2 *2157:X 0.000413562
3 *2158:B *2465:A 6.75007e-05
4 *2158:B *497:12 0.000538516
5 *2158:B *498:10 0.000207034
6 *2140:C *2158:B 0
7 *2140:D *2158:B 0.000564125
8 *2145:A2 *2158:B 0.000646884
9 *2446:A *2158:B 9.99644e-06
10 *114:12 *2158:B 4.70048e-05
*RES
1 *2157:X *2158:B 42.3321 
*END

*D_NET *142 0.000947968
*CONN
*I *2159:A1 I *D sky130_fd_sc_hd__mux2_1
*I *2158:X O *D sky130_fd_sc_hd__xor2_1
*CAP
1 *2159:A1 0.000282887
2 *2158:X 0.000282887
3 *2159:A1 *539:144 1.21258e-05
4 *2135:B *2159:A1 0.000157399
5 *2140:C *2159:A1 5.52238e-05
6 *2159:A0 *2159:A1 0.000100831
7 *117:49 *2159:A1 5.66157e-05
*RES
1 *2158:X *2159:A1 33.3679 
*END

*D_NET *143 0.0022871
*CONN
*I *2161:B I *D sky130_fd_sc_hd__nand2_1
*I *2160:B I *D sky130_fd_sc_hd__nor2_1
*I *2159:X O *D sky130_fd_sc_hd__mux2_1
*CAP
1 *2161:B 1.60925e-05
2 *2160:B 0
3 *2159:X 0.000741098
4 *143:10 0.00075719
5 *2161:B *2161:A 5.71472e-05
6 *143:10 *2161:A 5.56697e-05
7 *143:10 *497:29 0.0006599
*RES
1 *2159:X *143:10 22.1929 
2 *143:10 *2160:B 9.3 
3 *143:10 *2161:B 9.83571 
*END

*D_NET *144 0.00121504
*CONN
*I *2190:A1 I *D sky130_fd_sc_hd__o221a_1
*I *2166:A_N I *D sky130_fd_sc_hd__nand4b_1
*I *2160:Y O *D sky130_fd_sc_hd__nor2_1
*CAP
1 *2190:A1 0.000159121
2 *2166:A_N 8.85834e-05
3 *2160:Y 0.000142612
4 *144:6 0.000390316
5 *2166:A_N *2166:B 0
6 *2166:A_N *2166:D 0.000177948
7 *2166:A_N *2190:C1 0
8 *2190:A1 *2190:A2 7.73623e-05
9 *2190:A1 *2190:C1 5.74499e-06
10 *144:6 *2161:A 0.00014183
11 *144:6 *2190:C1 3.1521e-05
*RES
1 *2160:Y *144:6 11.8893 
2 *144:6 *2166:A_N 20.55 
3 *144:6 *2190:A1 12.2107 
*END

*D_NET *145 0.00230626
*CONN
*I *2166:B I *D sky130_fd_sc_hd__nand4b_1
*I *2190:C1 I *D sky130_fd_sc_hd__o221a_1
*I *2161:Y O *D sky130_fd_sc_hd__nand2_1
*CAP
1 *2166:B 0.000346947
2 *2190:C1 0.000617486
3 *2161:Y 0
4 *145:6 0.000964433
5 *2166:B *2193:A1 0
6 *2166:B *584:47 0
7 *2190:C1 *2161:A 1.92905e-05
8 *2190:C1 *2164:B 1.76135e-05
9 *2190:C1 *2166:D 0
10 *2190:C1 *2190:A2 0.000271352
11 *2190:C1 *2190:B1 3.18676e-05
12 *2190:C1 *581:63 0
13 *2190:C1 *584:47 0
14 *2166:A_N *2166:B 0
15 *2166:A_N *2190:C1 0
16 *2190:A1 *2190:C1 5.74499e-06
17 *144:6 *2190:C1 3.1521e-05
*RES
1 *2161:Y *145:6 13.8 
2 *145:6 *2190:C1 22.4607 
3 *145:6 *2166:B 19.05 
*END

*D_NET *146 0.000429139
*CONN
*I *2163:A1 I *D sky130_fd_sc_hd__mux2_1
*I *2162:Y O *D sky130_fd_sc_hd__xnor2_1
*CAP
1 *2163:A1 0.000121748
2 *2162:Y 0.000121748
3 *2163:A1 *539:144 0.000185643
*RES
1 *2162:Y *2163:A1 20.3679 
*END

*D_NET *147 0.00176761
*CONN
*I *2165:B I *D sky130_fd_sc_hd__nand2_1
*I *2164:B I *D sky130_fd_sc_hd__or2_1
*I *2163:X O *D sky130_fd_sc_hd__mux2_1
*CAP
1 *2165:B 2.33114e-05
2 *2164:B 9.45821e-05
3 *2163:X 0.000170614
4 *147:8 0.000288508
5 *2164:B *2164:A 6.42338e-05
6 *2164:B *581:63 0
7 *2165:B *2165:A 4.38128e-05
8 *2165:B *510:37 5.23057e-05
9 *2165:B *539:144 9.90431e-05
10 *147:8 *510:37 0.000252788
11 *147:8 *539:144 0.000660801
12 *2163:A0 *147:8 0
13 *2190:C1 *2164:B 1.76135e-05
*RES
1 *2163:X *147:8 16.3179 
2 *147:8 *2164:B 20.2464 
3 *147:8 *2165:B 10.6571 
*END

*D_NET *148 0.000380746
*CONN
*I *2166:C I *D sky130_fd_sc_hd__nand4b_1
*I *2164:X O *D sky130_fd_sc_hd__or2_1
*CAP
1 *2166:C 3.56108e-05
2 *2164:X 3.56108e-05
3 *2166:C *2166:D 0.000154762
4 *2166:C *2193:A1 0.000154762
*RES
1 *2164:X *2166:C 29.5464 
*END

*D_NET *149 0.0014285
*CONN
*I *2166:D I *D sky130_fd_sc_hd__nand4b_1
*I *2190:A2 I *D sky130_fd_sc_hd__o221a_1
*I *2165:Y O *D sky130_fd_sc_hd__nand2_1
*CAP
1 *2166:D 8.91317e-05
2 *2190:A2 9.13211e-05
3 *2165:Y 0.000100765
4 *149:10 0.000281218
5 *2166:D *2193:A1 2.49484e-05
6 *2166:D *2238:A 0
7 *149:10 *2164:A 0.000102545
8 *149:10 *2165:A 5.71472e-05
9 *2166:A_N *2166:D 0.000177948
10 *2166:C *2166:D 0.000154762
11 *2190:A1 *2190:A2 7.73623e-05
12 *2190:C1 *2166:D 0
13 *2190:C1 *2190:A2 0.000271352
*RES
1 *2165:Y *149:10 15.675 
2 *149:10 *2190:A2 16.8179 
3 *149:10 *2166:D 16.9607 
*END

*D_NET *150 0.000701342
*CONN
*I *2196:B I *D sky130_fd_sc_hd__nor4_1
*I *2190:B1 I *D sky130_fd_sc_hd__o221a_1
*I *2166:Y O *D sky130_fd_sc_hd__nand4b_1
*CAP
1 *2196:B 0
2 *2190:B1 0.000150146
3 *2166:Y 0.000161599
4 *150:8 0.000311745
5 *2190:B1 *2190:B2 5.80706e-06
6 *2190:B1 *2235:A1 0
7 *2190:B1 *2238:A 0
8 *2190:C1 *2190:B1 3.18676e-05
9 *2196:A *150:8 4.01768e-05
*RES
1 *2166:Y *150:8 11.9071 
2 *150:8 *2190:B1 21.0857 
3 *150:8 *2196:B 9.3 
*END

*D_NET *151 0.00119975
*CONN
*I *2168:B I *D sky130_fd_sc_hd__nand2_1
*I *2169:B1 I *D sky130_fd_sc_hd__a221o_1
*I *2167:X O *D sky130_fd_sc_hd__or2_1
*CAP
1 *2168:B 2.83878e-05
2 *2169:B1 0.000161406
3 *2167:X 0
4 *151:4 0.000189794
5 *2169:B1 *158:12 0.000195555
6 *2169:B1 *531:28 1.00375e-05
7 *2167:A *2168:B 2.14658e-05
8 *2167:A *2169:B1 5.33433e-05
9 *2167:B *2169:B1 1.58163e-05
10 *2168:A *2168:B 1.97695e-05
11 *2169:B2 *2168:B 5.52238e-05
12 *2169:B2 *2169:B1 0.000436829
13 *107:14 *2169:B1 1.21258e-05
*RES
1 *2167:X *151:4 9.3 
2 *151:4 *2169:B1 23.4429 
3 *151:4 *2168:B 10.2643 
*END

*D_NET *152 0.000590829
*CONN
*I *2170:B1 I *D sky130_fd_sc_hd__a211o_1
*I *2168:Y O *D sky130_fd_sc_hd__nand2_1
*CAP
1 *2170:B1 0.000132363
2 *2168:Y 0.000132363
3 *2170:B1 *2170:C1 1.02504e-05
4 *2170:B1 *283:79 0.000148196
5 *2169:B2 *2170:B1 9.60875e-05
6 *97:28 *2170:B1 7.15687e-05
*RES
1 *2168:Y *2170:B1 30.4929 
*END

*D_NET *153 0.00154428
*CONN
*I *2172:B1 I *D sky130_fd_sc_hd__o211a_1
*I *2169:X O *D sky130_fd_sc_hd__a221o_1
*CAP
1 *2172:B1 0.000662303
2 *2169:X 0.000662303
3 *2172:B1 *2171:B1 3.06476e-05
4 *2172:B1 *2172:A2 7.6021e-05
5 *2172:B1 *549:48 0
6 *2120:A *2172:B1 0
7 *2170:A2 *2172:B1 0.000113005
8 *2171:A1 *2172:B1 0
*RES
1 *2169:X *2172:B1 36.2429 
*END

*D_NET *154 0.000739424
*CONN
*I *2171:B1 I *D sky130_fd_sc_hd__o211a_1
*I *2170:X O *D sky130_fd_sc_hd__a211o_1
*CAP
1 *2171:B1 0.000291522
2 *2170:X 0.000291522
3 *2171:B1 *2172:A2 7.83659e-05
4 *2171:B1 *2179:C 0
5 *2171:B1 *578:35 4.73656e-05
6 *2172:B1 *2171:B1 3.06476e-05
*RES
1 *2170:X *2171:B1 31.8321 
*END

*D_NET *155 0.000936834
*CONN
*I *2188:B I *D sky130_fd_sc_hd__nand2b_1
*I *2179:A I *D sky130_fd_sc_hd__or3_4
*I *2171:X O *D sky130_fd_sc_hd__o211a_1
*CAP
1 *2188:B 9.2106e-07
2 *2179:A 0.000170961
3 *2171:X 0.000117326
4 *155:14 0.000289208
5 *2179:A *2188:A_N 0.000149489
6 *2179:A *578:6 0
7 *2179:A *578:31 5.52238e-05
8 *155:14 *2188:A_N 4.81734e-05
9 *155:14 *161:14 5.01117e-05
10 *155:14 *578:33 0
11 *2176:B *2188:B 1.89513e-07
12 *2176:B *155:14 5.52302e-05
*RES
1 *2171:X *155:14 20.9071 
2 *155:14 *2179:A 13.1571 
3 *155:14 *2188:B 9.42946 
*END

*D_NET *156 0.00107345
*CONN
*I *2179:C I *D sky130_fd_sc_hd__or3_4
*I *2172:X O *D sky130_fd_sc_hd__o211a_1
*CAP
1 *2179:C 0.000508577
2 *2172:X 0.000508577
3 *2179:C *2172:A2 0
4 *2179:C *2238:A 0
5 *2179:C *543:110 0
6 *2179:C *578:33 0
7 *2171:B1 *2179:C 0
8 *107:10 *2179:C 5.62995e-05
*RES
1 *2172:X *2179:C 35.35 
*END

*D_NET *157 0.000483438
*CONN
*I *2174:B I *D sky130_fd_sc_hd__xnor2_1
*I *2173:X O *D sky130_fd_sc_hd__or2_1
*CAP
1 *2174:B 9.85049e-05
2 *2173:X 9.85049e-05
3 *2174:B *2317:B 0.000125724
4 *2174:B *512:21 9.41642e-05
5 *2173:A *2174:B 6.65398e-05
*RES
1 *2173:X *2174:B 30.1893 
*END

*D_NET *158 0.00424642
*CONN
*I *2175:B1 I *D sky130_fd_sc_hd__a211o_1
*I *2177:A2 I *D sky130_fd_sc_hd__a211o_1
*I *2174:Y O *D sky130_fd_sc_hd__xnor2_1
*CAP
1 *2175:B1 0
2 *2177:A2 0.000460808
3 *2174:Y 0.00053289
4 *158:12 0.000993698
5 *2177:A2 *2170:C1 0.0001399
6 *2177:A2 *2171:C1 0.000315165
7 *2177:A2 *2177:A1 0.000350901
8 *2177:A2 *584:25 2.44073e-05
9 *158:12 *512:21 1.40306e-05
10 *158:12 *531:28 0
11 *158:12 *542:75 0.000637686
12 *2127:B *2177:A2 0
13 *2169:B1 *158:12 0.000195555
14 *2171:A1 *2177:A2 0.000230475
15 *2174:A *158:12 2.56601e-05
16 *2175:A1 *158:12 6.97972e-05
17 *2175:A2 *158:12 1.27784e-05
18 *97:18 *2177:A2 0.000139363
19 *97:28 *2177:A2 2.28598e-05
20 *97:28 *158:12 8.04418e-05
*RES
1 *2174:Y *158:12 30.1929 
2 *158:12 *2177:A2 20.1393 
3 *158:12 *2175:B1 9.3 
*END

*D_NET *159 0.000521351
*CONN
*I *2178:B1 I *D sky130_fd_sc_hd__o211a_1
*I *2175:X O *D sky130_fd_sc_hd__a211o_1
*CAP
1 *2178:B1 0.000146636
2 *2175:X 0.000146636
3 *2178:B1 *498:31 3.69697e-05
4 *2178:B1 *584:25 9.90431e-05
5 *2178:A1 *2178:B1 7.83366e-05
6 *2536:A *2178:B1 1.37292e-05
*RES
1 *2175:X *2178:B1 30.4929 
*END

*D_NET *160 0.000339477
*CONN
*I *2177:B1 I *D sky130_fd_sc_hd__a211o_1
*I *2176:Y O *D sky130_fd_sc_hd__nor2_1
*CAP
1 *2177:B1 6.97589e-05
2 *2176:Y 6.97589e-05
3 *2177:B1 *2177:C1 2.62395e-05
4 *97:18 *2177:B1 0.00017372
*RES
1 *2176:Y *2177:B1 20.3857 
*END

*D_NET *161 0.00140324
*CONN
*I *2180:B I *D sky130_fd_sc_hd__nand2b_1
*I *2189:C1 I *D sky130_fd_sc_hd__o211a_1
*I *2177:X O *D sky130_fd_sc_hd__a211o_1
*CAP
1 *2180:B 1.20616e-05
2 *2189:C1 2.85372e-05
3 *2177:X 0.000382411
4 *161:14 0.00042301
5 *2180:B *2180:A_N 1.03233e-05
6 *2189:C1 *2180:A_N 4.22908e-05
7 *2189:C1 *2189:B1 0.000137173
8 *161:14 *2177:C1 5.71472e-05
9 *161:14 *2189:B1 0.000184756
10 *161:14 *2235:A1 0
11 *161:14 *549:48 7.54156e-05
12 *161:14 *578:33 0
13 *155:14 *161:14 5.01117e-05
*RES
1 *2177:X *161:14 25.867 
2 *161:14 *2189:C1 10.6795 
3 *161:14 *2180:B 9.72857 
*END

*D_NET *162 0.00150295
*CONN
*I *2188:A_N I *D sky130_fd_sc_hd__nand2b_1
*I *2179:B I *D sky130_fd_sc_hd__or3_4
*I *2178:X O *D sky130_fd_sc_hd__o211a_1
*CAP
1 *2188:A_N 0.000108901
2 *2179:B 0
3 *2178:X 0.000109764
4 *162:6 0.000218665
5 *2188:A_N *578:31 3.48705e-05
6 *162:6 *2152:C 1.97865e-05
7 *162:6 *283:102 3.14078e-05
8 *162:6 *578:31 5.7256e-05
9 *2176:B *2188:A_N 0.000181899
10 *2176:B *162:6 0.000486441
11 *2179:A *2188:A_N 0.000149489
12 *2442:A *162:6 5.62995e-05
13 *155:14 *2188:A_N 4.81734e-05
*RES
1 *2178:X *162:6 13.9429 
2 *162:6 *2179:B 9.3 
3 *162:6 *2188:A_N 13.5679 
*END

*D_NET *163 0.00119812
*CONN
*I *2180:A_N I *D sky130_fd_sc_hd__nand2b_1
*I *2189:A2 I *D sky130_fd_sc_hd__o211a_1
*I *2179:X O *D sky130_fd_sc_hd__or3_4
*CAP
1 *2180:A_N 0.000125995
2 *2189:A2 0
3 *2179:X 0.000157674
4 *163:10 0.00028367
5 *2180:A_N *2189:B1 7.31252e-05
6 *2180:A_N *510:37 8.25843e-06
7 *163:10 *2189:A1 0.000150618
8 *163:10 *2235:A1 0.000336915
9 *163:10 *2238:A 0
10 *163:10 *578:31 9.25014e-06
11 *2180:B *2180:A_N 1.03233e-05
12 *2189:C1 *2180:A_N 4.22908e-05
*RES
1 *2179:X *163:10 22.675 
2 *163:10 *2189:A2 9.3 
3 *163:10 *2180:A_N 11.925 
*END

*D_NET *164 0.00154696
*CONN
*I *2196:C I *D sky130_fd_sc_hd__nor4_1
*I *2180:Y O *D sky130_fd_sc_hd__nand2b_1
*CAP
1 *2196:C 0.000542986
2 *2180:Y 0.000542986
3 *2196:C *2196:D 0.000188333
4 *2196:C *2235:A1 0
5 *2196:C *549:48 0.000272658
*RES
1 *2180:Y *2196:C 36.5286 
*END

*D_NET *165 0.000293954
*CONN
*I *2182:B I *D sky130_fd_sc_hd__nand2_1
*I *2181:Y O *D sky130_fd_sc_hd__nand2_1
*CAP
1 *2182:B 8.50234e-05
2 *2181:Y 8.50234e-05
3 *2182:B *1981:A 0
4 *2182:B *2123:B 1.02504e-05
5 *2182:B *2183:A1 4.46186e-06
6 *2182:B *526:109 5.58941e-05
7 *2182:A *2182:B 5.33005e-05
*RES
1 *2181:Y *2182:B 28.8679 
*END

*D_NET *166 0.000808111
*CONN
*I *2183:A1 I *D sky130_fd_sc_hd__mux2_4
*I *2182:Y O *D sky130_fd_sc_hd__nand2_1
*CAP
1 *2183:A1 0.000314381
2 *2182:Y 0.000314381
3 *2183:A1 *273:10 0
4 *2183:A1 *510:37 5.80706e-06
5 *2183:A1 *526:109 0.00016908
6 *2182:B *2183:A1 4.46186e-06
*RES
1 *2182:Y *2183:A1 34.1 
*END

*D_NET *167 0.00188914
*CONN
*I *2185:B I *D sky130_fd_sc_hd__nor2_1
*I *2195:A2 I *D sky130_fd_sc_hd__a2111o_1
*I *2187:A2 I *D sky130_fd_sc_hd__a21o_1
*I *2183:X O *D sky130_fd_sc_hd__mux2_4
*CAP
1 *2185:B 0.000243792
2 *2195:A2 0
3 *2187:A2 2.12584e-05
4 *2183:X 0
5 *167:17 0.000405193
6 *167:4 0.000182659
7 *2185:B *2185:A 5.71472e-05
8 *2185:B *2195:A1 0.00010326
9 *2185:B *2258:A2 0.00013353
10 *2185:B *178:25 0
11 *2185:B *273:29 4.46186e-06
12 *2185:B *326:59 0
13 *2185:B *526:81 1.91414e-05
14 *2187:A2 *2187:B1 0.000142856
15 *2187:A2 *501:48 0.000142856
16 *167:17 *2187:B1 0.000139907
17 *167:17 *326:59 0
18 *167:17 *501:48 5.88855e-05
19 *167:17 *510:37 6.94775e-05
20 *167:17 *526:81 0.000164715
*RES
1 *2183:X *167:4 9.3 
2 *167:4 *2187:A2 10.6571 
3 *167:4 *167:17 8.71429 
4 *167:17 *2195:A2 13.8 
5 *167:17 *2185:B 18.3536 
*END

*D_NET *168 0.000804996
*CONN
*I *2195:B1 I *D sky130_fd_sc_hd__a2111o_1
*I *2184:X O *D sky130_fd_sc_hd__and2_1
*CAP
1 *2195:B1 0.000116816
2 *2184:X 0.000116816
3 *2195:B1 *2194:A 0.000232399
4 *2195:B1 *2195:D1 5.91452e-05
5 *2195:B1 *510:37 0.00022459
6 *2195:B1 *516:14 5.52302e-05
*RES
1 *2184:X *2195:B1 22.4214 
*END

*D_NET *169 0.000283349
*CONN
*I *2195:C1 I *D sky130_fd_sc_hd__a2111o_1
*I *2185:Y O *D sky130_fd_sc_hd__nor2_1
*CAP
1 *2195:C1 4.46813e-05
2 *2185:Y 4.46813e-05
3 *2195:C1 *2185:A 0.000127446
4 *2195:C1 *526:81 6.65398e-05
*RES
1 *2185:Y *2195:C1 29.2429 
*END

*D_NET *170 0.00177343
*CONN
*I *2187:B1 I *D sky130_fd_sc_hd__a21o_1
*I *2186:X O *D sky130_fd_sc_hd__o211a_1
*CAP
1 *2187:B1 0.000193802
2 *2186:X 0.000193802
3 *2187:B1 *2187:A1 5.33005e-05
4 *2187:B1 *326:59 5.52238e-05
5 *2187:B1 *497:29 1.33343e-05
6 *2187:B1 *497:35 8.12739e-05
7 *2187:B1 *501:48 3.53079e-05
8 *2187:B1 *516:14 0.0004293
9 *2187:B1 *516:20 0.000136958
10 *2187:B1 *526:69 0.000186662
11 *2187:B1 *526:73 9.02331e-05
12 *2187:B1 *526:81 2.14658e-05
13 *2187:A2 *2187:B1 0.000142856
14 *167:17 *2187:B1 0.000139907
*RES
1 *2186:X *2187:B1 26.5464 
*END

*D_NET *171 0.00125783
*CONN
*I *2189:A1 I *D sky130_fd_sc_hd__o211a_1
*I *2187:X O *D sky130_fd_sc_hd__a21o_1
*CAP
1 *2189:A1 0.000355162
2 *2187:X 0.000355162
3 *2189:A1 *2238:A 0
4 *2189:A1 *497:29 0.000396892
5 *163:10 *2189:A1 0.000150618
*RES
1 *2187:X *2189:A1 33.3679 
*END

*D_NET *172 0.00142191
*CONN
*I *2189:B1 I *D sky130_fd_sc_hd__o211a_1
*I *2188:Y O *D sky130_fd_sc_hd__nand2b_1
*CAP
1 *2189:B1 0.00022806
2 *2188:Y 0.00022806
3 *2189:B1 *510:37 0.000285329
4 *2189:B1 *549:48 0.000285406
5 *2180:A_N *2189:B1 7.31252e-05
6 *2189:C1 *2189:B1 0.000137173
7 *161:14 *2189:B1 0.000184756
*RES
1 *2188:Y *2189:B1 35.225 
*END

*D_NET *173 0.000561348
*CONN
*I *2190:B2 I *D sky130_fd_sc_hd__o221a_1
*I *2189:X O *D sky130_fd_sc_hd__o211a_1
*CAP
1 *2190:B2 0.000234951
2 *2189:X 0.000234951
3 *2190:B2 *2235:A1 0
4 *2190:B2 *2238:A 6.32633e-05
5 *2190:B2 *510:37 2.23758e-05
6 *2190:B1 *2190:B2 5.80706e-06
*RES
1 *2189:X *2190:B2 31.0107 
*END

*D_NET *174 0.00118515
*CONN
*I *2193:A1 I *D sky130_fd_sc_hd__o21a_1
*I *2190:X O *D sky130_fd_sc_hd__o221a_1
*CAP
1 *2193:A1 0.000364687
2 *2190:X 0.000364687
3 *2193:A1 *2193:B1 0.000118485
4 *2193:A1 *2238:A 0.000157578
5 *2166:B *2193:A1 0
6 *2166:C *2193:A1 0.000154762
7 *2166:D *2193:A1 2.49484e-05
*RES
1 *2190:X *2193:A1 36.0643 
*END

*D_NET *175 0.000903782
*CONN
*I *2192:A2 I *D sky130_fd_sc_hd__a21oi_1
*I *2191:Y O *D sky130_fd_sc_hd__nor2_1
*CAP
1 *2192:A2 0.000441823
2 *2191:Y 0.000441823
3 *137:16 *2192:A2 2.01359e-05
*RES
1 *2191:Y *2192:A2 35.9727 
*END

*D_NET *176 0.00180887
*CONN
*I *2193:B1 I *D sky130_fd_sc_hd__o21a_1
*I *2192:Y O *D sky130_fd_sc_hd__a21oi_1
*CAP
1 *2193:B1 0.000660526
2 *2192:Y 0.000660526
3 *2193:B1 *2238:A 0.000148903
4 *2192:B1 *2193:B1 1.33343e-05
5 *2193:A1 *2193:B1 0.000118485
6 *140:12 *2193:B1 0.000207098
*RES
1 *2192:Y *2193:B1 38.0107 
*END

*D_NET *177 0.000176461
*CONN
*I *2197:A2 I *D sky130_fd_sc_hd__o21a_1
*I *2193:X O *D sky130_fd_sc_hd__o21a_1
*CAP
1 *2197:A2 8.82306e-05
2 *2193:X 8.82306e-05
*RES
1 *2193:X *2197:A2 19.5464 
*END

*D_NET *178 0.00291491
*CONN
*I *2233:A I *D sky130_fd_sc_hd__or2_1
*I *2234:A1 I *D sky130_fd_sc_hd__a21oi_1
*I *2195:D1 I *D sky130_fd_sc_hd__a2111o_1
*I *2194:Y O *D sky130_fd_sc_hd__nor2_1
*CAP
1 *2233:A 0.000124455
2 *2234:A1 7.51842e-05
3 *2195:D1 0.000213234
4 *2194:Y 0
5 *178:25 0.000539139
6 *178:4 0.000552734
7 *2195:D1 *2194:A 3.18676e-05
8 *2195:D1 *510:37 2.32625e-05
9 *2195:D1 *529:61 0
10 *2233:A *2197:B1 9.71197e-05
11 *2233:A *2234:A2 0.000255044
12 *2233:A *2235:B1 6.8646e-06
13 *2233:A *2259:B1 7.80714e-06
14 *2233:A *326:26 5.33005e-05
15 *2233:A *326:39 0.000197984
16 *2233:A *326:47 2.48938e-05
17 *2234:A1 *2235:B2 7.48091e-05
18 *178:25 *2194:A 1.21289e-05
19 *178:25 *2194:B 5.62995e-05
20 *178:25 *2258:C1 0
21 *178:25 *2259:B1 0.000109671
22 *178:25 *273:29 1.46717e-05
23 *178:25 *326:47 0.00034496
24 *178:25 *326:59 4.03318e-05
25 *2185:B *178:25 0
26 *2195:B1 *2195:D1 5.91452e-05
*RES
1 *2194:Y *178:4 9.3 
2 *178:4 *2195:D1 13.1571 
3 *178:4 *178:25 12.7143 
4 *178:25 *2234:A1 15.1571 
5 *178:25 *2233:A 18.3179 
*END

*D_NET *179 0.00141601
*CONN
*I *2196:D I *D sky130_fd_sc_hd__nor4_1
*I *2195:X O *D sky130_fd_sc_hd__a2111o_1
*CAP
1 *2196:D 0.000406229
2 *2195:X 0.000406229
3 *2196:D *2258:A2 0.000154762
4 *2196:D *524:85 7.2561e-05
5 *2196:D *549:48 0.000187893
6 *2196:C *2196:D 0.000188333
*RES
1 *2195:X *2196:D 37.85 
*END

*D_NET *180 0.000476086
*CONN
*I *2197:A1 I *D sky130_fd_sc_hd__o21a_1
*I *2196:Y O *D sky130_fd_sc_hd__nor4_1
*CAP
1 *2197:A1 0.000238043
2 *2196:Y 0.000238043
3 *2197:A1 *2230:A 0
4 *2197:A1 *2235:A1 0
5 *2197:A1 *2238:A 0
6 *2193:A2 *2197:A1 0
7 *2196:A *2197:A1 0
*RES
1 *2196:Y *2197:A1 31.6714 
*END

*D_NET *181 0.00591313
*CONN
*I *2218:C I *D sky130_fd_sc_hd__or3_4
*I *2197:X O *D sky130_fd_sc_hd__o21a_1
*CAP
1 *2218:C 0
2 *2197:X 0.00072293
3 *181:16 0.00072293
4 *181:16 *2229:B 0.000137983
5 *181:16 *2230:A 5.01117e-05
6 *181:16 *2232:A 0.000266479
7 *181:16 *2232:B 0.000166416
8 *181:16 *2261:B 7.91257e-05
9 *181:16 *2262:A 0.00070948
10 *181:16 *2262:B 4.81894e-05
11 *181:16 *2263:B 5.52302e-05
12 *181:16 *2264:A 0.000199921
13 *181:16 *191:28 9.41642e-05
14 *181:16 *191:30 0.00159524
15 *181:16 *192:32 0.000238795
16 *181:16 *223:16 5.97496e-05
17 *181:16 *223:27 0.000702563
18 *181:16 *248:10 9.22103e-06
19 *181:16 *549:72 4.43256e-05
20 *181:16 *551:54 1.02821e-05
*RES
1 *2197:X *181:16 46.6036 
2 *181:16 *2218:C 9.3 
*END

*D_NET *182 0.00412874
*CONN
*I *2199:B I *D sky130_fd_sc_hd__or2_1
*I *2347:A2 I *D sky130_fd_sc_hd__o21a_1
*I *2289:A I *D sky130_fd_sc_hd__nand2_1
*I *2198:X O *D sky130_fd_sc_hd__or3_1
*CAP
1 *2199:B 3.90689e-05
2 *2347:A2 0
3 *2289:A 0.000446071
4 *2198:X 0.000126609
5 *182:8 0.00108964
6 *182:6 0.000809249
7 *2289:A *2289:B 5.52238e-05
8 *2289:A *2347:A1 0
9 *2289:A *2347:B1 0.00010096
10 *2289:A *2348:A 5.71483e-05
11 *2289:A *2361:B1 0.0002106
12 *2289:A *2362:A 6.8646e-06
13 *2289:A *191:60 4.08637e-05
14 *2289:A *191:75 0.000392997
15 *2289:A *338:10 0.000153489
16 *2289:A *537:18 2.49484e-05
17 *2289:A *542:138 0
18 *2289:A *546:33 1.19309e-05
19 *182:6 *337:34 1.90111e-05
20 *182:6 *337:43 5.06983e-05
21 *182:8 *2347:B1 8.27532e-05
22 *182:8 *337:34 9.99644e-06
23 *182:8 *546:41 0.000400619
*RES
1 *2198:X *182:6 11.4786 
2 *182:6 *182:8 11.625 
3 *182:8 *2289:A 29.425 
4 *182:8 *2347:A2 9.3 
5 *182:6 *2199:B 10.0321 
*END

*D_NET *183 0.00679892
*CONN
*I *2203:A1 I *D sky130_fd_sc_hd__o2111a_1
*I *2217:A1 I *D sky130_fd_sc_hd__a311o_1
*I *2199:X O *D sky130_fd_sc_hd__or2_1
*CAP
1 *2203:A1 0.000148394
2 *2217:A1 0
3 *2199:X 0.00241009
4 *183:24 0.00255849
5 *2203:A1 *1986:A_N 3.29979e-05
6 *2203:A1 *2217:B1 1.11775e-05
7 *2203:A1 *192:12 0.000169454
8 *2203:A1 *197:66 0.000135028
9 *2203:A1 *326:22 2.59355e-05
10 *2203:A1 *491:12 0.000183215
11 *183:24 *2217:B1 4.6025e-06
12 *183:24 *2287:C1 4.79453e-05
13 *183:24 *491:12 4.6387e-05
14 *183:24 *497:62 0.000425653
15 *183:24 *520:108 1.21859e-05
16 *183:24 *532:12 0.000129366
17 *183:24 *549:37 0.000162047
18 *183:24 *551:29 0.000118344
19 *183:24 *551:82 4.88232e-05
20 *183:24 *552:22 2.06112e-05
21 *183:24 *553:22 0.00010817
*RES
1 *2199:X *183:24 33.7773 
2 *183:24 *2217:A1 13.8 
3 *183:24 *2203:A1 17.7107 
*END

*D_NET *184 0.000640602
*CONN
*I *2202:A I *D sky130_fd_sc_hd__or2_1
*I *2200:X O *D sky130_fd_sc_hd__or4_1
*CAP
1 *2202:A 0.000143093
2 *2200:X 0.000143093
3 *2202:A *2200:B 4.1331e-06
4 *2202:A *2202:B 6.3156e-05
5 *2202:A *529:57 0
6 *2202:A *551:29 0.000287128
*RES
1 *2200:X *2202:A 31.3679 
*END

*D_NET *185 0.000450496
*CONN
*I *2202:B I *D sky130_fd_sc_hd__or2_1
*I *2201:X O *D sky130_fd_sc_hd__or4_1
*CAP
1 *2202:B 0.000135746
2 *2201:X 0.000135746
3 *2202:B *2262:A 0
4 *2202:B *521:22 5.52302e-05
5 *2202:B *529:57 3.17067e-05
6 *2202:B *541:12 2.89114e-05
7 *2202:A *2202:B 6.3156e-05
*RES
1 *2201:X *2202:B 30.6893 
*END

*D_NET *186 0.00118919
*CONN
*I *2203:A2 I *D sky130_fd_sc_hd__o2111a_1
*I *2217:A2 I *D sky130_fd_sc_hd__a311o_1
*I *2202:X O *D sky130_fd_sc_hd__or2_1
*CAP
1 *2203:A2 9.06765e-05
2 *2217:A2 6.70153e-05
3 *2202:X 0.000114046
4 *186:10 0.000271737
5 *2203:A2 *2203:B1 9.25014e-06
6 *2203:A2 *2218:A 0
7 *2203:A2 *492:10 0.000144696
8 *2217:A2 *2218:A 3.69047e-06
9 *2217:A2 *192:32 0.000135028
10 *186:10 *492:10 0.000167669
11 *186:10 *541:12 2.59355e-05
12 *186:10 *551:29 0.000159444
*RES
1 *2202:X *186:10 16.5857 
2 *186:10 *2217:A2 15.1571 
3 *186:10 *2203:A2 15.7464 
*END

*D_NET *187 0.000706464
*CONN
*I *2218:B I *D sky130_fd_sc_hd__or3_4
*I *2203:X O *D sky130_fd_sc_hd__o2111a_1
*CAP
1 *2218:B 7.84346e-05
2 *2203:X 7.84346e-05
3 *2218:B *2218:A 0.000268396
4 *2218:B *2262:A 4.72818e-05
5 *2218:B *192:32 0.000132957
6 *2218:B *197:66 0.00010096
*RES
1 *2203:X *2218:B 22.0107 
*END

*D_NET *188 0.011437
*CONN
*I *2210:B1 I *D sky130_fd_sc_hd__o22a_1
*I *2399:B1 I *D sky130_fd_sc_hd__o22a_1
*I *2255:B1 I *D sky130_fd_sc_hd__o22a_1
*I *2221:B1 I *D sky130_fd_sc_hd__o22a_1
*I *2284:B1 I *D sky130_fd_sc_hd__o22a_1
*I *2356:B1 I *D sky130_fd_sc_hd__o22a_1
*I *2311:B1 I *D sky130_fd_sc_hd__o22a_1
*I *2438:B1 I *D sky130_fd_sc_hd__o22a_1
*I *2204:X O *D sky130_fd_sc_hd__and4b_2
*CAP
1 *2210:B1 2.3671e-05
2 *2399:B1 0
3 *2255:B1 0
4 *2221:B1 0.000271202
5 *2284:B1 0
6 *2356:B1 2.04425e-05
7 *2311:B1 0.000204053
8 *2438:B1 0.00063379
9 *2204:X 0.000474199
10 *188:75 0.000555597
11 *188:40 0.000901005
12 *188:36 0.000262183
13 *188:32 0.000782152
14 *188:24 0.000443551
15 *188:18 0.000551508
16 *188:10 0.000925005
17 *2210:B1 *2209:B2 5.52302e-05
18 *2221:B1 *2214:B 0.000103029
19 *2221:B1 *2216:B1 1.98839e-05
20 *2221:B1 *2228:A 3.67142e-05
21 *2221:B1 *2257:B1 0
22 *2221:B1 *2287:C1 1.99644e-05
23 *2221:B1 *199:31 9.11365e-06
24 *2221:B1 *199:46 6.05161e-06
25 *2221:B1 *514:10 1.99099e-05
26 *2221:B1 *514:14 0.000140089
27 *2221:B1 *525:120 7.05375e-05
28 *2311:B1 *2311:A1 9.41642e-05
29 *2311:B1 *2345:A2 0
30 *2311:B1 *514:58 0
31 *2356:B1 *2358:A2 5.33005e-05
32 *2356:B1 *2360:B 2.59355e-05
33 *2438:B1 *2355:A2 9.83442e-05
34 *2438:B1 *2356:B2 1.92905e-05
35 *188:10 *1986:C 0.000104236
36 *188:10 *2208:C 0
37 *188:10 *2215:B_N 0.000274288
38 *188:10 *2460:A 0
39 *188:10 *197:72 0.00023241
40 *188:10 *511:46 4.89264e-05
41 *188:10 *530:68 0
42 *188:18 *2399:B2 0.000310816
43 *188:18 *2400:A3 5.82717e-05
44 *188:18 *2481:A 8.66228e-05
45 *188:18 *197:72 0.000701689
46 *188:18 *199:54 9.02331e-05
47 *188:24 *2399:B2 3.45052e-05
48 *188:24 *199:54 0.00044852
49 *188:24 *205:51 0.000195396
50 *188:32 *2255:A2 2.95382e-05
51 *188:32 *2255:B2 9.54798e-06
52 *188:32 *2257:C1 6.722e-05
53 *188:32 *190:57 1.98839e-05
54 *188:32 *205:22 1.4133e-06
55 *188:32 *523:76 1.24066e-05
56 *188:32 *555:68 1.21258e-05
57 *188:32 *580:77 0.000313241
58 *188:36 *190:20 5.37709e-05
59 *188:36 *190:22 0.000121871
60 *188:36 *190:24 0.0002285
61 *188:36 *526:47 0.000396025
62 *188:40 *2355:B1 9.82592e-05
63 *188:40 *190:24 5.41794e-05
64 *188:40 *526:47 0.000145625
65 *188:75 *2257:B1 0
66 *188:75 *199:50 0
67 *188:75 *525:120 0.000309458
68 *188:75 *541:35 0.000100823
69 *188:75 *555:68 5.72869e-05
*RES
1 *2204:X *188:10 22.8893 
2 *188:10 *188:18 16.2321 
3 *188:18 *188:24 5.08929 
4 *188:24 *188:32 15.375 
5 *188:32 *188:36 9.78571 
6 *188:36 *188:40 6.44643 
7 *188:40 *2438:B1 19.425 
8 *188:40 *2311:B1 12.3179 
9 *188:36 *2356:B1 14.3357 
10 *188:32 *188:75 10.9464 
11 *188:75 *2284:B1 13.8 
12 *188:75 *2221:B1 20.2643 
13 *188:24 *2255:B1 9.3 
14 *188:18 *2399:B1 9.3 
15 *188:10 *2210:B1 14.3357 
*END

*D_NET *189 0.00266581
*CONN
*I *2212:C I *D sky130_fd_sc_hd__nor3_1
*I *2206:A I *D sky130_fd_sc_hd__or3b_4
*I *2211:C I *D sky130_fd_sc_hd__nor3_1
*I *2208:D_N I *D sky130_fd_sc_hd__or4b_4
*I *2205:Y O *D sky130_fd_sc_hd__nand2_1
*CAP
1 *2212:C 5.52888e-05
2 *2206:A 0
3 *2211:C 0
4 *2208:D_N 6.22885e-05
5 *2205:Y 0.000346451
6 *189:18 0.000185163
7 *189:12 0.000524615
8 *2208:D_N *2211:A 5.71472e-05
9 *2208:D_N *530:6 5.52302e-05
10 *2208:D_N *530:12 0.00014285
11 *2212:C *2206:B 1.04232e-05
12 *2212:C *2206:C_N 3.18676e-05
13 *2212:C *2212:A 4.38128e-05
14 *2212:C *511:31 0.000230482
15 *2212:C *530:96 8.18698e-05
16 *189:12 *2205:B 9.91086e-05
17 *189:12 *2215:C 9.87983e-06
18 *189:12 *2460:A 4.03318e-05
19 *189:12 *489:6 2.59355e-05
20 *189:12 *511:29 0
21 *189:12 *522:8 2.37761e-05
22 *189:18 *2206:B 0
23 *189:18 *2460:A 6.2198e-05
24 *189:18 *511:31 2.28499e-05
25 *189:18 *511:46 0.000173199
26 *189:18 *530:6 0.000216121
27 *189:18 *530:96 0.000164925
*RES
1 *2205:Y *189:12 23.2107 
2 *189:12 *189:18 5.60714 
3 *189:18 *2208:D_N 11.0679 
4 *189:18 *2211:C 9.3 
5 *189:12 *2206:A 9.3 
6 *189:12 *2212:C 12.3179 
*END

*D_NET *190 0.011387
*CONN
*I *2220:A I *D sky130_fd_sc_hd__nor2_1
*I *2209:B1 I *D sky130_fd_sc_hd__a22oi_1
*I *2283:B1 I *D sky130_fd_sc_hd__a21oi_1
*I *2398:B1 I *D sky130_fd_sc_hd__a21oi_1
*I *2437:B1 I *D sky130_fd_sc_hd__a21oi_1
*I *2310:B1 I *D sky130_fd_sc_hd__a21oi_1
*I *2254:A_N I *D sky130_fd_sc_hd__and2b_1
*I *2355:B1 I *D sky130_fd_sc_hd__a21oi_1
*I *2206:X O *D sky130_fd_sc_hd__or3b_4
*CAP
1 *2220:A 0.000383437
2 *2209:B1 0.000108936
3 *2283:B1 0
4 *2398:B1 0
5 *2437:B1 0.00018649
6 *2310:B1 0.000107196
7 *2254:A_N 0.00046182
8 *2355:B1 5.10967e-05
9 *2206:X 0.000128093
10 *190:57 0.000482854
11 *190:24 0.000642596
12 *190:22 0.000285263
13 *190:20 0.000633271
14 *190:16 0.000461941
15 *190:10 0.000579858
16 *190:6 0.00080903
17 *2209:B1 *2209:A1 5.71472e-05
18 *2209:B1 *2210:A2 4.73463e-05
19 *2209:B1 *205:16 2.85e-05
20 *2209:B1 *527:60 0.000341827
21 *2209:B1 *551:93 0.000273269
22 *2209:B1 *551:118 0.000254396
23 *2220:A *2212:A 8.46829e-05
24 *2220:A *2226:B1 0.000149021
25 *2220:A *2226:B2 2.42516e-05
26 *2220:A *2228:B 2.89114e-05
27 *2220:A *202:33 0
28 *2254:A_N *2356:A1 2.36643e-05
29 *2254:A_N *2356:A2 9.77264e-06
30 *2254:A_N *2358:A2 0.000136676
31 *2254:A_N *2440:B1 0
32 *2254:A_N *537:65 0.00021527
33 *2310:B1 *2310:A1 9.60939e-05
34 *2310:B1 *2311:A2 1.38323e-05
35 *2310:B1 *580:77 5.33005e-05
36 *2355:B1 *2356:B2 0.000122439
37 *2355:B1 *526:47 1.3142e-05
38 *2437:B1 *2398:A2 0
39 *2437:B1 *2439:A3 1.55475e-05
40 *2437:B1 *553:6 9.41642e-05
41 *2437:B1 *553:12 0.000343475
42 *2437:B1 *553:14 3.06511e-05
43 *2437:B1 *580:77 0.000183324
44 *190:6 *2212:A 9.71197e-05
45 *190:6 *511:31 9.90367e-05
46 *190:10 *2214:B 0.000193153
47 *190:10 *2226:B2 0.000112085
48 *190:10 *205:16 5.84075e-05
49 *190:10 *511:29 1.52978e-05
50 *190:10 *523:76 4.00349e-05
51 *190:10 *527:54 2.07728e-05
52 *190:10 *527:60 7.69511e-05
53 *190:16 *205:16 9.05901e-05
54 *190:16 *514:14 0
55 *190:16 *521:18 9.90367e-05
56 *190:16 *523:76 0
57 *190:16 *525:120 0
58 *190:16 *527:60 4.46186e-06
59 *190:16 *541:21 9.71197e-05
60 *190:20 *2257:B2 5.41794e-05
61 *190:20 *205:16 0
62 *190:20 *205:22 7.62851e-06
63 *190:20 *514:14 3.75052e-05
64 *190:20 *526:47 0.000118179
65 *190:20 *580:77 2.09413e-05
66 *190:22 *580:77 0.000113902
67 *190:24 *2356:B2 4.66511e-05
68 *190:24 *2358:A2 1.89351e-05
69 *190:24 *490:49 5.84682e-05
70 *190:24 *580:77 3.10885e-05
71 *190:57 *2399:A1 0.000186662
72 *190:57 *2481:A 5.80996e-05
73 *190:57 *553:6 0.000130419
74 *190:57 *555:68 0.000178847
75 *190:57 *580:77 0.000782393
76 *188:32 *190:57 1.98839e-05
77 *188:36 *190:20 5.37709e-05
78 *188:36 *190:22 0.000121871
79 *188:36 *190:24 0.0002285
80 *188:40 *2355:B1 9.82592e-05
81 *188:40 *190:24 5.41794e-05
*RES
1 *2206:X *190:6 11.0679 
2 *190:6 *190:10 10.0893 
3 *190:10 *190:16 8.30357 
4 *190:16 *190:20 9.78571 
5 *190:20 *190:22 1.64286 
6 *190:22 *190:24 3.76786 
7 *190:24 *2355:B1 15.4429 
8 *190:24 *2254:A_N 20.1036 
9 *190:22 *2310:B1 15.5679 
10 *190:20 *190:57 13.25 
11 *190:57 *2437:B1 23.3536 
12 *190:57 *2398:B1 9.3 
13 *190:16 *2283:B1 9.3 
14 *190:10 *2209:B1 19.4071 
15 *190:6 *2220:A 14.8 
*END

*D_NET *191 0.0142922
*CONN
*I *2260:B1 I *D sky130_fd_sc_hd__o31a_1
*I *2406:A2 I *D sky130_fd_sc_hd__a21o_1
*I *2347:B1 I *D sky130_fd_sc_hd__o21a_1
*I *2361:A2 I *D sky130_fd_sc_hd__a21o_1
*I *2289:B I *D sky130_fd_sc_hd__nand2_1
*I *2237:B1 I *D sky130_fd_sc_hd__o21a_1
*I *2229:B I *D sky130_fd_sc_hd__nand2_1
*I *2207:X O *D sky130_fd_sc_hd__or4b_4
*CAP
1 *2260:B1 0
2 *2406:A2 2.93936e-05
3 *2347:B1 0.000166646
4 *2361:A2 2.79384e-05
5 *2289:B 0.000102581
6 *2237:B1 0.000140875
7 *2229:B 0.000187152
8 *2207:X 0.000443151
9 *191:90 0.000440234
10 *191:75 0.000405295
11 *191:60 0.00103236
12 *191:30 0.0014025
13 *191:28 0.0021954
14 *191:14 0.000767458
15 *2229:B *2229:A 2.8428e-05
16 *2229:B *2232:B 2.36164e-05
17 *2237:B1 *2230:A 0.00026367
18 *2237:B1 *2237:A1 5.03787e-05
19 *2237:B1 *2237:A2 0
20 *2237:B1 *524:134 0
21 *2289:B *2352:A 0
22 *2347:B1 *2347:A1 8.17614e-05
23 *2347:B1 *2362:A 0.000192983
24 *2347:B1 *2406:A1 2.66133e-05
25 *2347:B1 *542:138 0
26 *2347:B1 *546:33 1.02936e-05
27 *2347:B1 *546:41 7.43578e-06
28 *2361:A2 *2361:A1 2.14757e-05
29 *2406:A2 *2406:B1 9.90431e-05
30 *2406:A2 *339:12 2.89114e-05
31 *191:14 *2260:A3 0.00061338
32 *191:14 *2511:A 5.35516e-05
33 *191:14 *211:14 8.02709e-05
34 *191:28 *2260:A3 5.71472e-05
35 *191:28 *2261:A 5.59013e-05
36 *191:28 *2267:B 5.58941e-05
37 *191:28 *2510:A 0.000241205
38 *191:28 *192:32 9.41642e-05
39 *191:28 *192:40 0
40 *191:28 *250:10 0
41 *191:28 *549:72 0.000263524
42 *191:28 *551:54 7.91806e-05
43 *191:60 *2186:C1 0
44 *191:60 *2261:A 0.000173083
45 *191:60 *2264:B 3.69697e-05
46 *191:60 *2290:B 0
47 *191:60 *2291:A 0
48 *191:60 *2291:B 0.000185304
49 *191:60 *2292:B 1.18064e-05
50 *191:60 *2347:A1 0
51 *191:60 *2510:A 6.57338e-05
52 *191:60 *192:74 0.000148189
53 *191:60 *192:91 0.000123383
54 *191:60 *247:12 0.000204011
55 *191:60 *250:10 5.90443e-06
56 *191:60 *276:10 0.000409896
57 *191:60 *277:12 0.000175519
58 *191:60 *580:24 0
59 *191:75 *2347:A1 0.00010024
60 *191:75 *192:91 0
61 *191:75 *537:18 0.000151333
62 *191:90 *2349:B 0
63 *191:90 *2361:A1 1.33343e-05
64 *191:90 *2361:B1 7.79781e-06
65 *191:90 *2406:A1 2.8266e-06
66 *191:90 *339:12 9.8958e-05
67 *191:90 *352:12 0.000107917
68 *191:90 *542:138 0
69 *2289:A *2289:B 5.52238e-05
70 *2289:A *2347:B1 0.00010096
71 *2289:A *191:60 4.08637e-05
72 *2289:A *191:75 0.000392997
73 *181:16 *2229:B 0.000137983
74 *181:16 *191:28 9.41642e-05
75 *181:16 *191:30 0.00159524
76 *182:8 *2347:B1 8.27532e-05
*RES
1 *2207:X *191:14 28.3 
2 *191:14 *191:28 17.0714 
3 *191:28 *191:30 15.3214 
4 *191:30 *2229:B 12.3357 
5 *191:30 *2237:B1 21.7643 
6 *191:28 *191:60 29 
7 *191:60 *2289:B 11.0857 
8 *191:60 *191:75 14.2857 
9 *191:75 *2361:A2 9.83571 
10 *191:75 *191:90 9.05357 
11 *191:90 *2347:B1 18.55 
12 *191:90 *2406:A2 14.7464 
13 *191:14 *2260:B1 9.3 
*END

*D_NET *192 0.0181421
*CONN
*I *2209:B2 I *D sky130_fd_sc_hd__a22oi_1
*I *2267:A I *D sky130_fd_sc_hd__or3b_1
*I *2409:A I *D sky130_fd_sc_hd__nor2_1
*I *2366:B1 I *D sky130_fd_sc_hd__a31o_1
*I *2354:A_N I *D sky130_fd_sc_hd__and3b_1
*I *2316:A1 I *D sky130_fd_sc_hd__o31ai_1
*I *2234:B1 I *D sky130_fd_sc_hd__a21oi_1
*I *2243:B1 I *D sky130_fd_sc_hd__a31oi_1
*I *2208:X O *D sky130_fd_sc_hd__or4b_4
*CAP
1 *2209:B2 0.000312452
2 *2267:A 0
3 *2409:A 0.00155016
4 *2366:B1 6.48944e-05
5 *2354:A_N 0
6 *2316:A1 0
7 *2234:B1 0.000177025
8 *2243:B1 0.000418878
9 *2208:X 0.000236089
10 *192:102 0.00206118
11 *192:91 0.0010817
12 *192:74 0.000919
13 *192:61 0.000762767
14 *192:40 0.000865612
15 *192:32 0.00165774
16 *192:12 0.00206186
17 *2209:B2 *2210:A2 2.44318e-05
18 *2209:B2 *2210:B2 6.9276e-05
19 *2209:B2 *2217:C1 0.000230475
20 *2209:B2 *551:89 5.52302e-05
21 *2234:B1 *2235:B2 7.43578e-06
22 *2234:B1 *2236:B 3.97657e-05
23 *2243:B1 *2242:A1 0.000104263
24 *2243:B1 *2242:B1 0.000112417
25 *2243:B1 *2259:A2 7.43578e-06
26 *2243:B1 *225:6 4.70048e-05
27 *2243:B1 *551:54 1.82549e-05
28 *2366:B1 *2367:B 0
29 *2366:B1 *343:23 6.5185e-05
30 *2366:B1 *355:12 4.1331e-06
31 *2366:B1 *569:16 7.8327e-05
32 *2409:A *2409:B 5.80706e-06
33 *2409:A *343:23 2.40379e-05
34 *2409:A *523:76 4.16021e-05
35 *2409:A *535:66 0
36 *192:12 *2208:C 7.6644e-05
37 *192:12 *2217:A3 9.71197e-05
38 *192:12 *2217:B1 9.97669e-05
39 *192:12 *197:72 0
40 *192:12 *491:12 5.41797e-05
41 *192:32 *2218:A 0.000180303
42 *192:32 *2261:B 7.83659e-05
43 *192:32 *2262:A 9.22103e-06
44 *192:32 *2264:A 0.000267377
45 *192:32 *2506:A 0
46 *192:32 *2510:A 0.000148189
47 *192:32 *197:66 0.000150624
48 *192:32 *326:22 0.000101545
49 *192:32 *530:46 3.57844e-05
50 *192:32 *549:72 1.38323e-05
51 *192:32 *551:37 2.1527e-05
52 *192:32 *551:54 0.000137983
53 *192:40 *2267:C_N 5.52302e-05
54 *192:40 *549:72 0.000225609
55 *192:40 *551:54 0.000116862
56 *192:61 *2236:B 0
57 *192:61 *2259:B1 0
58 *192:61 *223:27 0.000148903
59 *192:61 *248:10 7.83587e-05
60 *192:61 *250:10 0.000152156
61 *192:61 *549:72 3.6337e-05
62 *192:74 *2510:A 6.9253e-05
63 *192:91 *2291:B 0.000195555
64 *192:91 *2346:B1 0.000160732
65 *192:91 *2352:A 5.25418e-05
66 *192:91 *2510:A 1.02504e-05
67 *192:91 *276:10 0.000407467
68 *192:91 *336:8 0
69 *192:91 *497:35 6.73939e-05
70 *192:91 *497:41 6.7848e-05
71 *192:91 *542:138 6.20855e-06
72 *192:102 *2352:A 9.90431e-05
73 *192:102 *2352:B 0.000172315
74 *192:102 *2359:A1 2.54632e-05
75 *192:102 *2359:A2 0.000131824
76 *192:102 *2359:B1 7.16452e-05
77 *192:102 *343:6 2.60984e-05
78 *192:102 *343:23 9.08526e-05
79 *2203:A1 *192:12 0.000169454
80 *2210:B1 *2209:B2 5.52302e-05
81 *2217:A2 *192:32 0.000135028
82 *2218:B *192:32 0.000132957
83 *181:16 *192:32 0.000238795
84 *191:28 *192:32 9.41642e-05
85 *191:28 *192:40 0
86 *191:60 *192:74 0.000148189
87 *191:60 *192:91 0.000123383
88 *191:75 *192:91 0
*RES
1 *2208:X *192:12 23.0143 
2 *192:12 *192:32 41.375 
3 *192:32 *192:40 4.28571 
4 *192:40 *2243:B1 16.3714 
5 *192:40 *192:61 16.1071 
6 *192:61 *2234:B1 12.3 
7 *192:61 *192:74 9.44643 
8 *192:74 *2316:A1 13.8 
9 *192:74 *192:91 18.6786 
10 *192:91 *2354:A_N 9.3 
11 *192:91 *192:102 8.375 
12 *192:102 *2366:B1 20.2464 
13 *192:102 *2409:A 36.0857 
14 *192:32 *2267:A 9.3 
15 *192:12 *2209:B2 15.175 
*END

*D_NET *193 0.000400169
*CONN
*I *2210:B2 I *D sky130_fd_sc_hd__o22a_1
*I *2209:Y O *D sky130_fd_sc_hd__a22oi_1
*CAP
1 *2210:B2 0.000114967
2 *2209:Y 0.000114967
3 *2210:B2 *2210:A2 0.00010096
4 *2209:B2 *2210:B2 6.9276e-05
*RES
1 *2209:Y *2210:B2 21.225 
*END

*D_NET *194 0.000389119
*CONN
*I *2217:C1 I *D sky130_fd_sc_hd__a311o_1
*I *2210:X O *D sky130_fd_sc_hd__o22a_1
*CAP
1 *2217:C1 7.9322e-05
2 *2210:X 7.9322e-05
3 *2209:B2 *2217:C1 0.000230475
*RES
1 *2210:X *2217:C1 20.7786 
*END

*D_NET *195 0.0019784
*CONN
*I *2217:A3 I *D sky130_fd_sc_hd__a311o_1
*I *2211:Y O *D sky130_fd_sc_hd__nor3_1
*CAP
1 *2217:A3 0.000390458
2 *2211:Y 0.000390458
3 *2217:A3 *491:12 0.000327558
4 *2217:A3 *492:10 0.000329273
5 *2217:A3 *511:65 0.000347444
6 *2217:A3 *511:75 9.60939e-05
7 *192:12 *2217:A3 9.71197e-05
*RES
1 *2211:Y *2217:A3 36.7607 
*END

*D_NET *196 0.00387851
*CONN
*I *2227:A1 I *D sky130_fd_sc_hd__a32o_1
*I *2282:B1 I *D sky130_fd_sc_hd__o21a_1
*I *2505:A I *D sky130_fd_sc_hd__clkbuf_2
*I *2212:Y O *D sky130_fd_sc_hd__nor3_1
*CAP
1 *2227:A1 0
2 *2282:B1 0.000397188
3 *2505:A 0
4 *2212:Y 0.00022664
5 *196:25 0.000727517
6 *196:14 0.000556968
7 *2282:B1 *2221:B2 0
8 *2282:B1 *2223:A2 0
9 *2282:B1 *2227:B1 1.02504e-05
10 *2282:B1 *2227:B2 0
11 *2282:B1 *2228:A 0
12 *2282:B1 *2286:B1 9.80173e-05
13 *2282:B1 *2286:C1 5.33005e-05
14 *2282:B1 *527:89 0
15 *2282:B1 *544:29 0.000383281
16 *2282:B1 *549:111 7.38374e-05
17 *2282:B1 *566:18 0.000193118
18 *196:14 *2219:A 0.00022117
19 *196:14 *2226:B2 4.58194e-05
20 *196:14 *199:18 0.00018372
21 *196:14 *205:16 0.000220455
22 *196:14 *514:10 5.52302e-05
23 *196:25 *2219:A 0.000226146
24 *196:25 *2227:B1 0.000150625
25 *196:25 *2228:A 0
26 *196:25 *2228:C 0
27 *196:25 *199:18 5.52238e-05
*RES
1 *2212:Y *196:14 23.8714 
2 *196:14 *2505:A 9.3 
3 *196:14 *196:25 11.0893 
4 *196:25 *2282:B1 23.1214 
5 *196:25 *2227:A1 13.8 
*END

*D_NET *197 0.0148974
*CONN
*I *2226:B2 I *D sky130_fd_sc_hd__a22o_1
*I *2214:B I *D sky130_fd_sc_hd__or2_1
*I *2400:A3 I *D sky130_fd_sc_hd__a32o_1
*I *2439:A3 I *D sky130_fd_sc_hd__a32o_1
*I *2285:A3 I *D sky130_fd_sc_hd__a32o_1
*I *2256:A3 I *D sky130_fd_sc_hd__a32o_1
*I *2357:A3 I *D sky130_fd_sc_hd__a32o_1
*I *2313:A3 I *D sky130_fd_sc_hd__a32o_1
*I *2213:X O *D sky130_fd_sc_hd__and4b_2
*CAP
1 *2226:B2 0.000136735
2 *2214:B 0.000414344
3 *2400:A3 2.24796e-05
4 *2439:A3 0.000430344
5 *2285:A3 0
6 *2256:A3 0
7 *2357:A3 0.000174476
8 *2313:A3 0.000144839
9 *2213:X 0
10 *197:102 0.00126768
11 *197:72 0.00098686
12 *197:66 0.00172517
13 *197:27 0.000302651
14 *197:12 0.000628842
15 *197:10 0.00104187
16 *197:4 0.00116057
17 *2214:B *2216:B1 9.71197e-05
18 *2214:B *199:31 3.17148e-05
19 *2214:B *199:46 2.05938e-05
20 *2214:B *205:16 0.000190724
21 *2214:B *551:118 0.00035206
22 *2226:B2 *2206:C_N 0
23 *2226:B2 *2212:A 2.59355e-05
24 *2226:B2 *2226:B1 1.97695e-05
25 *2226:B2 *205:16 0.000121423
26 *2313:A3 *2285:B1 0.00010466
27 *2313:A3 *519:104 0
28 *2313:A3 *519:118 0.000101863
29 *2313:A3 *526:67 0
30 *2313:A3 *529:57 4.59075e-05
31 *2313:A3 *580:24 2.44318e-05
32 *2357:A3 *2285:B1 5.88674e-05
33 *2357:A3 *2313:A2 0
34 *2357:A3 *2313:B2 0.000170299
35 *2357:A3 *2357:A1 1.85392e-05
36 *2357:A3 *205:67 7.00165e-05
37 *2357:A3 *519:104 2.06112e-05
38 *2357:A3 *519:118 9.10431e-06
39 *2357:A3 *529:57 2.42516e-05
40 *2357:A3 *580:14 0.000224577
41 *2400:A3 *2400:A1 1.73088e-05
42 *2439:A3 *2398:A2 1.14671e-05
43 *2439:A3 *2400:A1 9.90431e-05
44 *2439:A3 *2400:B1 3.61366e-05
45 *2439:A3 *2400:B2 6.53083e-05
46 *2439:A3 *2401:A1 2.19481e-05
47 *2439:A3 *2402:C1 2.2628e-05
48 *2439:A3 *2438:A2 5.71472e-05
49 *2439:A3 *2441:B1 6.71336e-05
50 *2439:A3 *199:54 1.40415e-05
51 *2439:A3 *199:64 9.99644e-06
52 *2439:A3 *205:57 0.000152592
53 *2439:A3 *492:25 5.52238e-05
54 *2439:A3 *492:37 9.25014e-06
55 *2439:A3 *553:14 4.35311e-05
56 *2439:A3 *553:22 7.92641e-05
57 *197:10 *2260:A3 0.000259664
58 *197:10 *2285:B1 2.83284e-06
59 *197:10 *2288:A_N 0
60 *197:10 *2511:A 0
61 *197:10 *230:6 0.000137983
62 *197:10 *326:22 0
63 *197:12 *2285:B1 0.000211248
64 *197:12 *2287:C1 2.41607e-05
65 *197:12 *2316:B1 0
66 *197:12 *526:67 0
67 *197:27 *2258:B1 0.000183726
68 *197:66 *1986:A_N 0.000102046
69 *197:66 *1986:C 3.65069e-05
70 *197:66 *2203:B1 2.89016e-05
71 *197:66 *2203:D1 2.59355e-05
72 *197:66 *2208:C 4.27935e-05
73 *197:66 *2218:A 4.13496e-05
74 *197:66 *2506:A 5.01117e-05
75 *197:66 *315:23 0.000348213
76 *197:66 *326:22 4.29721e-05
77 *197:66 *511:75 2.8266e-06
78 *197:72 *2217:B1 0
79 *197:72 *2398:A2 0.00011746
80 *197:72 *491:12 0
81 *197:72 *580:77 0
82 *197:102 *1986:C 2.97829e-05
83 *197:102 *2216:B1 3.1355e-06
84 *197:102 *2217:B1 4.44629e-05
85 *197:102 *523:76 0.000357048
86 *2203:A1 *197:66 0.000135028
87 *2218:B *197:66 0.00010096
88 *2220:A *2226:B2 2.42516e-05
89 *2221:B1 *2214:B 0.000103029
90 *2287:A2 *197:12 0
91 *2437:B1 *2439:A3 1.55475e-05
92 *188:10 *197:72 0.00023241
93 *188:18 *2400:A3 5.82717e-05
94 *188:18 *197:72 0.000701689
95 *190:10 *2214:B 0.000193153
96 *190:10 *2226:B2 0.000112085
97 *192:12 *197:72 0
98 *192:32 *197:66 0.000150624
99 *196:14 *2226:B2 4.58194e-05
*RES
1 *2213:X *197:4 9.3 
2 *197:4 *197:10 14.4464 
3 *197:10 *197:12 7.71429 
4 *197:12 *2313:A3 17.4071 
5 *197:12 *197:27 7.08929 
6 *197:27 *2357:A3 23.4607 
7 *197:27 *2256:A3 9.3 
8 *197:10 *2285:A3 13.8 
9 *197:4 *197:66 19.6429 
10 *197:66 *197:72 21.2679 
11 *197:72 *2439:A3 26.8536 
12 *197:72 *2400:A3 10.0321 
13 *197:66 *197:102 13.6607 
14 *197:102 *2214:B 31.05 
15 *197:102 *2226:B2 17.2286 
*END

*D_NET *198 0.000759307
*CONN
*I *2216:A3 I *D sky130_fd_sc_hd__a32o_1
*I *2214:X O *D sky130_fd_sc_hd__or2_1
*CAP
1 *2216:A3 0.000177139
2 *2214:X 0.000177139
3 *2216:A3 *2219:A 4.38058e-05
4 *2216:A3 *2287:C1 4.79264e-05
5 *2216:A3 *205:16 4.38058e-05
6 *2216:A3 *523:76 0
7 *2216:A3 *527:54 0.000248873
8 *2216:A3 *527:60 2.06178e-05
*RES
1 *2214:X *2216:A3 35.7565 
*END

*D_NET *199 0.0110752
*CONN
*I *2286:A2 I *D sky130_fd_sc_hd__a221o_1
*I *2312:B I *D sky130_fd_sc_hd__and2_1
*I *2401:A2 I *D sky130_fd_sc_hd__a211o_1
*I *2357:B1 I *D sky130_fd_sc_hd__a32o_1
*I *2256:B1 I *D sky130_fd_sc_hd__a32o_1
*I *2216:B1 I *D sky130_fd_sc_hd__a32o_1
*I *2226:A2 I *D sky130_fd_sc_hd__a22o_1
*I *2215:X O *D sky130_fd_sc_hd__and4bb_2
*CAP
1 *2286:A2 6.58131e-06
2 *2312:B 0
3 *2401:A2 0.000109133
4 *2357:B1 0
5 *2256:B1 0.000195529
6 *2216:B1 0.000374961
7 *2226:A2 0
8 *2215:X 0.000504867
9 *199:64 0.000659931
10 *199:54 0.0012958
11 *199:50 0.000974469
12 *199:46 0.000553421
13 *199:31 0.000872705
14 *199:18 0.000707977
15 *2216:B1 *2216:B2 0.000102981
16 *2256:B1 *2256:A1 5.04018e-05
17 *2256:B1 *2256:B2 9.71197e-05
18 *2256:B1 *2357:A1 1.89596e-05
19 *2256:B1 *520:108 0.000120091
20 *2256:B1 *529:57 3.33238e-05
21 *2256:B1 *552:12 5.49106e-05
22 *2286:A2 *2286:C1 7.13226e-06
23 *2286:A2 *521:14 7.13226e-06
24 *2401:A2 *2401:A1 3.10819e-05
25 *2401:A2 *2438:B2 0.000138854
26 *2401:A2 *205:57 5.87359e-05
27 *2401:A2 *535:66 8.44271e-06
28 *199:18 *2219:A 0.000147191
29 *199:18 *2222:B_N 0.000229456
30 *199:18 *2222:D 2.96895e-05
31 *199:18 *2226:A1 1.02504e-05
32 *199:18 *2227:B1 6.42095e-05
33 *199:18 *2228:A 0
34 *199:18 *2228:B 4.03318e-05
35 *199:18 *211:14 7.19261e-05
36 *199:18 *514:10 3.84291e-05
37 *199:31 *2221:B2 0.000147219
38 *199:31 *2226:A1 4.27896e-05
39 *199:31 *2228:A 3.67356e-05
40 *199:31 *514:10 0
41 *199:31 *544:29 0
42 *199:46 *2228:A 8.27184e-06
43 *199:46 *2257:B1 0.000140368
44 *199:46 *521:14 0
45 *199:46 *544:29 0
46 *199:50 *2257:B1 0.000148189
47 *199:50 *2286:A1 0.000504613
48 *199:50 *2312:A 8.08996e-05
49 *199:50 *514:35 0
50 *199:50 *521:14 0
51 *199:50 *525:120 0
52 *199:54 *2286:A1 8.53409e-05
53 *199:54 *2310:A1 1.98839e-05
54 *199:54 *2311:A2 0.000135028
55 *199:54 *2311:B2 9.41642e-05
56 *199:54 *2399:A2 0.000186669
57 *199:54 *2438:B2 4.08637e-05
58 *199:54 *205:51 7.6921e-05
59 *199:54 *580:77 4.27338e-05
60 *199:64 *2357:A1 9.94194e-06
61 *199:64 *2400:A1 8.42528e-05
62 *199:64 *2400:B1 1.1671e-05
63 *199:64 *2437:A1 0.000139208
64 *199:64 *2437:A2 5.49489e-05
65 *199:64 *2438:B2 0.000221634
66 *199:64 *529:57 0.000119481
67 *199:64 *537:8 3.80414e-05
68 *2214:B *2216:B1 9.71197e-05
69 *2214:B *199:31 3.17148e-05
70 *2214:B *199:46 2.05938e-05
71 *2221:B1 *2216:B1 1.98839e-05
72 *2221:B1 *199:31 9.11365e-06
73 *2221:B1 *199:46 6.05161e-06
74 *2439:A3 *199:54 1.40415e-05
75 *2439:A3 *199:64 9.99644e-06
76 *188:18 *199:54 9.02331e-05
77 *188:24 *199:54 0.00044852
78 *188:75 *199:50 0
79 *196:14 *199:18 0.00018372
80 *196:25 *199:18 5.52238e-05
81 *197:102 *2216:B1 3.1355e-06
*RES
1 *2215:X *199:18 24.2643 
2 *199:18 *2226:A2 13.8 
3 *199:18 *199:31 8.91071 
4 *199:31 *2216:B1 13.8446 
5 *199:31 *199:46 9.82143 
6 *199:46 *199:50 11.6071 
7 *199:50 *199:54 14.8214 
8 *199:54 *199:64 9.54464 
9 *199:64 *2256:B1 22.2464 
10 *199:64 *2357:B1 9.3 
11 *199:54 *2401:A2 20.55 
12 *199:50 *2312:B 9.3 
13 *199:46 *2286:A2 13.9473 
*END

*D_NET *200 0.00219634
*CONN
*I *2217:B1 I *D sky130_fd_sc_hd__a311o_1
*I *2216:X O *D sky130_fd_sc_hd__a32o_1
*CAP
1 *2217:B1 0.000773237
2 *2216:X 0.000773237
3 *2217:B1 *1986:C 0.000399841
4 *2217:B1 *2216:A1 5.52302e-05
5 *2217:B1 *523:76 3.47797e-05
6 *2203:A1 *2217:B1 1.11775e-05
7 *183:24 *2217:B1 4.6025e-06
8 *192:12 *2217:B1 9.97669e-05
9 *197:72 *2217:B1 0
10 *197:102 *2217:B1 4.44629e-05
*RES
1 *2216:X *2217:B1 38.4036 
*END

*D_NET *201 0.00159261
*CONN
*I *2218:A I *D sky130_fd_sc_hd__or3_4
*I *2217:X O *D sky130_fd_sc_hd__a311o_1
*CAP
1 *2218:A 0.000346619
2 *2217:X 0.000346619
3 *2218:A *2262:A 0.000255571
4 *2218:A *326:22 9.41642e-05
5 *2218:A *530:46 5.58941e-05
6 *2218:A *551:29 0
7 *2203:A2 *2218:A 0
8 *2217:A2 *2218:A 3.69047e-06
9 *2218:B *2218:A 0.000268396
10 *192:32 *2218:A 0.000180303
11 *197:66 *2218:A 4.13496e-05
*RES
1 *2217:X *2218:A 36.0464 
*END

*D_NET *202 0.00621028
*CONN
*I *2244:B1 I *D sky130_fd_sc_hd__a21o_1
*I *2224:C I *D sky130_fd_sc_hd__and3_1
*I *2220:B I *D sky130_fd_sc_hd__nor2_1
*I *2226:B1 I *D sky130_fd_sc_hd__a22o_1
*I *2246:C I *D sky130_fd_sc_hd__and3_1
*I *2219:X O *D sky130_fd_sc_hd__and2_1
*CAP
1 *2244:B1 0.000414145
2 *2224:C 0
3 *2220:B 0
4 *2226:B1 0.000168481
5 *2246:C 0.00036711
6 *2219:X 0
7 *202:33 0.00070508
8 *202:25 0.000722324
9 *202:10 0.000904271
10 *202:4 0.000765581
11 *2226:B1 *2221:B2 4.87953e-05
12 *2226:B1 *2227:A3 1.3701e-05
13 *2244:B1 *2244:A2 4.1331e-06
14 *2244:B1 *2245:A 0.000128154
15 *2244:B1 *227:10 0.000198698
16 *2244:B1 *545:140 0
17 *2246:C *2225:A 8.08022e-05
18 *2246:C *2246:A 0.000105637
19 *2246:C *2249:A 4.46186e-06
20 *2246:C *2250:B 1.24368e-05
21 *2246:C *2252:B 1.02504e-05
22 *2246:C *207:14 0.000126439
23 *2246:C *233:12 8.12703e-05
24 *2246:C *528:12 0.000140011
25 *2246:C *551:118 0
26 *202:10 *2219:A 0.000318107
27 *202:10 *2219:B 3.48705e-05
28 *202:10 *2249:A 6.42338e-05
29 *202:25 *2227:B2 9.51682e-05
30 *202:33 *2223:A1 9.60875e-05
31 *202:33 *2224:A 9.90431e-05
32 *202:33 *2227:A2 6.38319e-05
33 *202:33 *2227:A3 2.39411e-05
34 *202:33 *2227:B1 2.39852e-05
35 *202:33 *2227:B2 0.000163295
36 *202:33 *2228:C 5.71472e-05
37 *2220:A *2226:B1 0.000149021
38 *2220:A *202:33 0
39 *2226:B2 *2226:B1 1.97695e-05
*RES
1 *2219:X *202:4 9.3 
2 *202:4 *202:10 11.3929 
3 *202:10 *2246:C 20.5321 
4 *202:10 *202:25 7.01786 
5 *202:25 *202:33 8.98214 
6 *202:33 *2226:B1 13.1571 
7 *202:33 *2220:B 9.3 
8 *202:25 *2224:C 9.3 
9 *202:4 *2244:B1 26.0679 
*END

*D_NET *203 0.000570094
*CONN
*I *2221:B2 I *D sky130_fd_sc_hd__o22a_1
*I *2220:Y O *D sky130_fd_sc_hd__nor2_1
*CAP
1 *2221:B2 0.000148718
2 *2220:Y 0.000148718
3 *2221:B2 *2228:A 7.6644e-05
4 *2221:B2 *544:29 0
5 *2226:B1 *2221:B2 4.87953e-05
6 *2282:B1 *2221:B2 0
7 *199:31 *2221:B2 0.000147219
*RES
1 *2220:Y *2221:B2 30.4929 
*END

*D_NET *204 0.00103999
*CONN
*I *2228:A I *D sky130_fd_sc_hd__or3_1
*I *2221:X O *D sky130_fd_sc_hd__o22a_1
*CAP
1 *2228:A 0.000314226
2 *2221:X 0.000314226
3 *2228:A *2228:B 0.000125731
4 *2228:A *2228:C 0.000127446
5 *2221:B1 *2228:A 3.67142e-05
6 *2221:B2 *2228:A 7.6644e-05
7 *2282:B1 *2228:A 0
8 *196:25 *2228:A 0
9 *199:18 *2228:A 0
10 *199:31 *2228:A 3.67356e-05
11 *199:46 *2228:A 8.27184e-06
*RES
1 *2221:X *2228:A 33.4393 
*END

*D_NET *205 0.0143757
*CONN
*I *2227:B1 I *D sky130_fd_sc_hd__a32o_1
*I *2257:A2 I *D sky130_fd_sc_hd__a221o_1
*I *2400:B1 I *D sky130_fd_sc_hd__a32o_1
*I *2440:A2 I *D sky130_fd_sc_hd__a211o_1
*I *2313:B1 I *D sky130_fd_sc_hd__a32o_1
*I *2285:B1 I *D sky130_fd_sc_hd__a32o_1
*I *2358:A2 I *D sky130_fd_sc_hd__a221o_1
*I *2222:X O *D sky130_fd_sc_hd__and4bb_2
*CAP
1 *2227:B1 0.000417959
2 *2257:A2 4.66209e-06
3 *2400:B1 3.27608e-05
4 *2440:A2 2.24275e-05
5 *2313:B1 0
6 *2285:B1 0.000541469
7 *2358:A2 0.000346615
8 *2222:X 0
9 *205:67 0.000951906
10 *205:57 0.000554751
11 *205:51 0.000725904
12 *205:22 0.0012625
13 *205:16 0.00109965
14 *205:4 0.00116831
15 *2227:B1 *2219:A 0.000619931
16 *2227:B1 *2219:B 0
17 *2227:B1 *2222:D 0
18 *2227:B1 *2227:A2 1.43404e-05
19 *2227:B1 *2228:B 0
20 *2227:B1 *2228:C 0
21 *2227:B1 *211:14 0.000317082
22 *2257:A2 *2257:C1 1.46576e-05
23 *2257:A2 *526:55 1.46576e-05
24 *2285:B1 *2285:A2 2.39852e-05
25 *2285:B1 *2285:B2 0
26 *2285:B1 *2313:A2 3.18676e-05
27 *2285:B1 *2313:B2 0
28 *2285:B1 *2470:A 2.39148e-05
29 *2285:B1 *519:118 3.32846e-05
30 *2285:B1 *521:47 2.39852e-05
31 *2285:B1 *524:97 0
32 *2285:B1 *529:57 0.000192319
33 *2285:B1 *580:14 1.21289e-05
34 *2285:B1 *580:24 1.21289e-05
35 *2358:A2 *2255:B2 0
36 *2358:A2 *2356:A1 5.33005e-05
37 *2358:A2 *2358:A1 3.99614e-06
38 *2358:A2 *2358:C1 0.000114596
39 *2358:A2 *2360:B 2.89965e-05
40 *2358:A2 *490:34 3.17148e-05
41 *2358:A2 *490:49 0.000121528
42 *2358:A2 *523:76 0
43 *2358:A2 *537:65 0
44 *2358:A2 *537:69 2.67601e-05
45 *2358:A2 *555:43 4.38058e-05
46 *2358:A2 *555:68 3.10819e-05
47 *2358:A2 *580:77 1.38167e-05
48 *2400:B1 *2398:A2 3.47641e-06
49 *2400:B1 *2400:A1 2.39852e-05
50 *2440:A2 *2440:B1 3.08382e-06
51 *205:16 *2219:A 6.36286e-05
52 *205:16 *2222:A_N 5.80706e-06
53 *205:16 *511:10 0
54 *205:16 *511:25 0
55 *205:16 *511:29 0
56 *205:16 *523:76 0
57 *205:16 *525:120 0.000108434
58 *205:16 *527:60 1.92905e-05
59 *205:16 *551:118 2.15245e-05
60 *205:22 *2257:B2 0
61 *205:22 *2257:C1 0
62 *205:22 *523:76 0
63 *205:22 *555:68 9.18513e-05
64 *205:22 *580:77 6.69988e-05
65 *205:51 *2399:A1 1.38167e-05
66 *205:51 *2399:A2 2.35042e-06
67 *205:51 *490:49 0.000471738
68 *205:51 *519:98 0.00048628
69 *205:57 *2360:B 0.0001399
70 *205:57 *2401:A1 8.6229e-06
71 *205:57 *2440:B1 6.87574e-05
72 *205:67 *2313:B2 1.38167e-05
73 *205:67 *2360:A 6.24997e-05
74 *205:67 *2360:B 0.000854844
75 *205:67 *2440:B1 7.11463e-05
76 *205:67 *2511:A 0.00016609
77 *205:67 *501:48 0.000293244
78 *205:67 *519:118 0
79 *205:67 *529:57 0.000126435
80 *205:67 *532:8 3.77147e-05
81 *205:67 *546:52 1.7606e-05
82 *2209:B1 *205:16 2.85e-05
83 *2214:B *205:16 0.000190724
84 *2216:A3 *205:16 4.38058e-05
85 *2226:B2 *205:16 0.000121423
86 *2254:A_N *2358:A2 0.000136676
87 *2282:B1 *2227:B1 1.02504e-05
88 *2313:A3 *2285:B1 0.00010466
89 *2356:B1 *2358:A2 5.33005e-05
90 *2357:A3 *2285:B1 5.88674e-05
91 *2357:A3 *205:67 7.00165e-05
92 *2401:A2 *205:57 5.87359e-05
93 *2439:A3 *2400:B1 3.61366e-05
94 *2439:A3 *205:57 0.000152592
95 *188:24 *205:51 0.000195396
96 *188:32 *205:22 1.4133e-06
97 *190:10 *205:16 5.84075e-05
98 *190:16 *205:16 9.05901e-05
99 *190:20 *205:16 0
100 *190:20 *205:22 7.62851e-06
101 *190:24 *2358:A2 1.89351e-05
102 *196:14 *205:16 0.000220455
103 *196:25 *2227:B1 0.000150625
104 *197:10 *2285:B1 2.83284e-06
105 *197:12 *2285:B1 0.000211248
106 *199:18 *2227:B1 6.42095e-05
107 *199:54 *205:51 7.6921e-05
108 *199:64 *2400:B1 1.1671e-05
109 *202:33 *2227:B1 2.39852e-05
*RES
1 *2222:X *205:4 9.3 
2 *205:4 *205:16 28.0714 
3 *205:16 *205:22 5.75 
4 *205:22 *2358:A2 21.0232 
5 *205:22 *205:51 22.9359 
6 *205:51 *205:57 7.95536 
7 *205:57 *205:67 21.4375 
8 *205:67 *2285:B1 30.4964 
9 *205:67 *2313:B1 9.3 
10 *205:57 *2440:A2 9.72857 
11 *205:51 *2400:B1 14.6214 
12 *205:16 *2257:A2 13.9473 
13 *205:4 *2227:B1 28.9339 
*END

*D_NET *206 0.000594044
*CONN
*I *2227:A2 I *D sky130_fd_sc_hd__a32o_1
*I *2223:X O *D sky130_fd_sc_hd__a22o_1
*CAP
1 *2227:A2 7.82503e-05
2 *2223:X 7.82503e-05
3 *2227:A2 *2223:A2 0
4 *2227:A2 *2227:A3 0.000303072
5 *2227:A2 *2227:B2 5.62995e-05
6 *2227:B1 *2227:A2 1.43404e-05
7 *202:33 *2227:A2 6.38319e-05
*RES
1 *2223:X *2227:A2 22.1714 
*END

*D_NET *207 0.000935913
*CONN
*I *2225:A I *D sky130_fd_sc_hd__inv_2
*I *2251:A I *D sky130_fd_sc_hd__nor2_1
*I *2250:A I *D sky130_fd_sc_hd__and2_1
*I *2224:X O *D sky130_fd_sc_hd__and3_1
*CAP
1 *2225:A 3.78563e-05
2 *2251:A 1.85698e-05
3 *2250:A 2.14084e-05
4 *2224:X 9.48126e-05
5 *207:14 0.000137423
6 *207:8 0.000230114
7 *2225:A *2223:B2 0
8 *2250:A *2250:B 3.18676e-05
9 *2251:A *2250:B 9.76223e-06
10 *207:8 *2227:A3 0.00010096
11 *207:8 *2227:B2 2.14658e-05
12 *207:14 *2224:B 0
13 *207:14 *2250:B 2.44318e-05
14 *207:14 *551:118 0
15 *2246:C *2225:A 8.08022e-05
16 *2246:C *207:14 0.000126439
*RES
1 *2224:X *207:8 15.1571 
2 *207:8 *207:14 6.67857 
3 *207:14 *2250:A 9.83571 
4 *207:14 *2251:A 9.72857 
5 *207:8 *2225:A 14.8357 
*END

*D_NET *208 0.00199147
*CONN
*I *2227:A3 I *D sky130_fd_sc_hd__a32o_1
*I *2225:Y O *D sky130_fd_sc_hd__inv_2
*CAP
1 *2227:A3 0.000595717
2 *2225:Y 0.000595717
3 *2227:A3 *2227:B2 0.000358359
4 *2226:B1 *2227:A3 1.3701e-05
5 *2227:A2 *2227:A3 0.000303072
6 *202:33 *2227:A3 2.39411e-05
7 *207:8 *2227:A3 0.00010096
*RES
1 *2225:Y *2227:A3 28.5286 
*END

*D_NET *209 0.000512218
*CONN
*I *2228:B I *D sky130_fd_sc_hd__or3_1
*I *2226:X O *D sky130_fd_sc_hd__a22o_1
*CAP
1 *2228:B 0.000158621
2 *2226:X 0.000158621
3 *2228:B *2222:A_N 0
4 *2220:A *2228:B 2.89114e-05
5 *2227:B1 *2228:B 0
6 *2228:A *2228:B 0.000125731
7 *199:18 *2228:B 4.03318e-05
*RES
1 *2226:X *2228:B 30.6893 
*END

*D_NET *210 0.000400019
*CONN
*I *2228:C I *D sky130_fd_sc_hd__or3_1
*I *2227:X O *D sky130_fd_sc_hd__a32o_1
*CAP
1 *2228:C 0.000107713
2 *2227:X 0.000107713
3 *2227:B1 *2228:C 0
4 *2228:A *2228:C 0.000127446
5 *196:25 *2228:C 0
6 *202:33 *2228:C 5.71472e-05
*RES
1 *2227:X *2228:C 29.7786 
*END

*D_NET *211 0.0073487
*CONN
*I *2236:A I *D sky130_fd_sc_hd__or2_4
*I *2228:X O *D sky130_fd_sc_hd__or3_1
*CAP
1 *2236:A 0
2 *2228:X 0.00247057
3 *211:14 0.00247057
4 *211:14 *2222:D 9.61553e-05
5 *211:14 *2259:A1 6.05161e-06
6 *211:14 *2265:A 9.43471e-05
7 *211:14 *2265:B 0.000274064
8 *211:14 *2265:C 2.88157e-05
9 *211:14 *2288:B 6.13102e-05
10 *211:14 *489:44 0.000110362
11 *211:14 *500:6 0.000493359
12 *211:14 *500:8 0.00018372
13 *211:14 *500:12 5.52302e-05
14 *211:14 *500:46 0.000481568
15 *211:14 *500:63 5.33005e-05
16 *2227:B1 *211:14 0.000317082
17 *191:14 *211:14 8.02709e-05
18 *199:18 *211:14 7.19261e-05
*RES
1 *2228:X *211:14 47.8 
2 *211:14 *2236:A 9.3 
*END

*D_NET *212 0.000241538
*CONN
*I *2230:B I *D sky130_fd_sc_hd__xnor2_1
*I *2229:Y O *D sky130_fd_sc_hd__nand2_1
*CAP
1 *2230:B 0.000101131
2 *2229:Y 0.000101131
3 *2230:B *2230:A 0
4 *2230:B *2232:B 3.92757e-05
5 *2230:B *2238:A 0
*RES
1 *2229:Y *2230:B 29.2429 
*END

*D_NET *213 0.00238221
*CONN
*I *2231:B I *D sky130_fd_sc_hd__nand2_1
*I *2232:B I *D sky130_fd_sc_hd__xnor2_1
*I *2230:Y O *D sky130_fd_sc_hd__xnor2_1
*CAP
1 *2231:B 0.000403541
2 *2232:B 0.000152047
3 *2230:Y 0
4 *213:4 0.000555588
5 *2231:B *2237:A2 9.80173e-05
6 *2231:B *2239:B 0.000144773
7 *2231:B *2240:A 4.39965e-05
8 *2231:B *2241:A 5.52238e-05
9 *2231:B *221:14 0.000184773
10 *2231:B *223:16 9.71197e-05
11 *2231:B *524:134 2.14658e-05
12 *2232:B *2229:A 0.000312215
13 *2232:B *2230:A 4.03318e-05
14 *2232:B *2238:A 0
15 *2232:B *551:54 4.38128e-05
16 *2229:B *2232:B 2.36164e-05
17 *2230:B *2232:B 3.92757e-05
18 *181:16 *2232:B 0.000166416
*RES
1 *2230:Y *213:4 9.3 
2 *213:4 *2232:B 23.3536 
3 *213:4 *2231:B 17.2821 
*END

*D_NET *214 0.000772893
*CONN
*I *2242:A1 I *D sky130_fd_sc_hd__a21o_1
*I *2243:A1 I *D sky130_fd_sc_hd__a31oi_1
*I *2231:Y O *D sky130_fd_sc_hd__nand2_1
*CAP
1 *2242:A1 6.68557e-05
2 *2243:A1 0
3 *2231:Y 0.00010592
4 *214:6 0.000172775
5 *2242:A1 *2242:A2 0.000173328
6 *2242:A1 *2242:B1 5.72024e-05
7 *2242:A1 *2259:A2 1.74352e-05
8 *214:6 *2242:A2 5.52302e-05
9 *214:6 *2242:B1 1.98839e-05
10 *2243:B1 *2242:A1 0.000104263
*RES
1 *2231:Y *214:6 11.0679 
2 *214:6 *2243:A1 9.3 
3 *214:6 *2242:A1 11.9071 
*END

*D_NET *215 0.00212987
*CONN
*I *2234:A2 I *D sky130_fd_sc_hd__a21oi_1
*I *2233:B I *D sky130_fd_sc_hd__or2_1
*I *2232:Y O *D sky130_fd_sc_hd__xnor2_1
*CAP
1 *2234:A2 0.000203281
2 *2233:B 0
3 *2232:Y 0.00017868
4 *215:12 0.000381961
5 *2234:A2 *2197:B1 3.9846e-05
6 *2234:A2 *2259:B1 0.00024292
7 *2234:A2 *216:8 9.90431e-05
8 *2234:A2 *326:26 4.43256e-05
9 *2234:A2 *549:72 5.71472e-05
10 *215:12 *2197:B1 0.000144951
11 *215:12 *2237:A2 4.21301e-05
12 *215:12 *223:16 5.59013e-05
13 *215:12 *524:134 0.000104301
14 *215:12 *549:48 1.19309e-05
15 *215:12 *549:72 0.000268409
16 *2233:A *2234:A2 0.000255044
*RES
1 *2232:Y *215:12 23.7464 
2 *215:12 *2233:B 9.3 
3 *215:12 *2234:A2 24.4607 
*END

*D_NET *216 0.00212228
*CONN
*I *2243:A2 I *D sky130_fd_sc_hd__a31oi_1
*I *2242:A2 I *D sky130_fd_sc_hd__a21o_1
*I *2235:B1 I *D sky130_fd_sc_hd__a22o_1
*I *2233:X O *D sky130_fd_sc_hd__or2_1
*CAP
1 *2243:A2 2.10306e-05
2 *2242:A2 5.44455e-05
3 *2235:B1 0.000126559
4 *2233:X 6.59538e-05
5 *216:19 0.000264826
6 *216:8 0.000381862
7 *2235:B1 *2230:A 0.000173083
8 *2235:B1 *326:39 1.08359e-05
9 *2235:B1 *526:81 9.04513e-05
10 *2235:B1 *549:72 9.25014e-06
11 *2242:A2 *2242:B1 0.000230482
12 *2242:A2 *2259:B1 5.59013e-05
13 *2243:A2 *2243:A3 4.73656e-05
14 *216:19 *2231:A 1.09026e-05
15 *216:19 *2243:A3 3.34366e-05
16 *216:19 *2259:B1 0
17 *216:19 *224:10 7.6644e-05
18 *216:19 *549:72 0.000134788
19 *2233:A *2235:B1 6.8646e-06
20 *2234:A2 *216:8 9.90431e-05
21 *2242:A1 *2242:A2 0.000173328
22 *214:6 *2242:A2 5.52302e-05
*RES
1 *2233:X *216:8 14.7464 
2 *216:8 *2235:B1 17.2643 
3 *216:8 *216:19 3.76786 
4 *216:19 *2242:A2 25.7107 
5 *216:19 *2243:A2 14.5321 
*END

*D_NET *217 0.00073334
*CONN
*I *2235:B2 I *D sky130_fd_sc_hd__a22o_1
*I *2234:Y O *D sky130_fd_sc_hd__a21oi_1
*CAP
1 *2235:B2 0.000250435
2 *2234:Y 0.000250435
3 *2235:B2 *2235:A1 5.41494e-05
4 *2235:B2 *2236:B 9.60771e-05
5 *2234:A1 *2235:B2 7.48091e-05
6 *2234:B1 *2235:B2 7.43578e-06
*RES
1 *2234:Y *2235:B2 23.6893 
*END

*D_NET *218 0.00181333
*CONN
*I *2236:B I *D sky130_fd_sc_hd__or2_4
*I *2235:X O *D sky130_fd_sc_hd__a22o_1
*CAP
1 *2236:B 0.000702522
2 *2235:X 0.000702522
3 *2236:B *2259:B1 0
4 *2236:B *2265:B 1.31516e-05
5 *2236:B *223:27 1.37292e-05
6 *2236:B *225:10 4.75715e-05
7 *2236:B *551:54 0.000197991
8 *2234:B1 *2236:B 3.97657e-05
9 *2235:B2 *2236:B 9.60771e-05
10 *192:61 *2236:B 0
*RES
1 *2235:X *2236:B 39.225 
*END

*D_NET *219 0.00580709
*CONN
*I *2184:A I *D sky130_fd_sc_hd__and2_1
*I *2194:A I *D sky130_fd_sc_hd__nor2_1
*I *2186:B1 I *D sky130_fd_sc_hd__o211a_1
*I *2448:A I *D sky130_fd_sc_hd__clkbuf_4
*I *1976:Y O *D sky130_fd_sc_hd__inv_2
*CAP
1 *2184:A 0
2 *2194:A 9.55702e-05
3 *2186:B1 0
4 *2448:A 0.000478845
5 *1976:Y 8.40104e-05
6 *219:36 0.000234371
7 *219:23 0.000977715
8 *219:6 0.00140177
9 *2194:A *2194:B 0.000230475
10 *2194:A *2447:A 5.52302e-05
11 *2194:A *516:14 8.86413e-05
12 *2194:A *529:61 1.38323e-05
13 *2448:A *517:12 1.03403e-05
14 *219:23 *1981:A 0
15 *219:23 *2172:C1 0.000770166
16 *219:23 *2186:A2 1.02504e-05
17 *219:23 *2186:C1 5.80706e-06
18 *219:23 *2347:A1 0.000354411
19 *219:23 *273:10 0
20 *219:23 *580:24 0
21 *219:36 *2186:A2 0.000135502
22 *219:36 *2186:C1 9.99989e-05
23 *219:36 *2447:A 5.71472e-05
24 *219:36 *273:10 0
25 *219:36 *516:14 7.03295e-05
26 *219:36 *529:61 7.03295e-05
27 *2070:A *2448:A 9.37479e-05
28 *2074:B *2448:A 9.8045e-05
29 *2112:A *2448:A 9.41642e-05
30 *2195:B1 *2194:A 0.000232399
31 *2195:D1 *2194:A 3.18676e-05
32 *178:25 *2194:A 1.21289e-05
*RES
1 *1976:Y *219:6 10.2464 
2 *219:6 *2448:A 24.5857 
3 *219:6 *219:23 24.6607 
4 *219:23 *2186:B1 13.8 
5 *219:23 *219:36 8.82143 
6 *219:36 *2194:A 13.55 
7 *219:36 *2184:A 9.3 
*END

*D_NET *220 0.00082117
*CONN
*I *2238:B I *D sky130_fd_sc_hd__xnor2_1
*I *2237:X O *D sky130_fd_sc_hd__o21a_1
*CAP
1 *2238:B 0.000247412
2 *2237:X 0.000247412
3 *2238:B *2230:A 0.000232399
4 *2238:B *221:14 9.39485e-05
*RES
1 *2237:X *2238:B 24.1 
*END

*D_NET *221 0.00154642
*CONN
*I *2240:B I *D sky130_fd_sc_hd__nand2_1
*I *2239:B I *D sky130_fd_sc_hd__or2_1
*I *2238:Y O *D sky130_fd_sc_hd__xnor2_1
*CAP
1 *2240:B 0
2 *2239:B 4.72236e-05
3 *2238:Y 0.000376879
4 *221:14 0.000424103
5 *2239:B *2240:A 5.84801e-05
6 *221:14 *2230:A 0.000216235
7 *2231:B *2239:B 0.000144773
8 *2231:B *221:14 0.000184773
9 *2238:B *221:14 9.39485e-05
*RES
1 *2238:Y *221:14 16.9964 
2 *221:14 *2239:B 11.5143 
3 *221:14 *2240:B 9.3 
*END

*D_NET *222 0.000482652
*CONN
*I *2241:A I *D sky130_fd_sc_hd__nand2_1
*I *2239:X O *D sky130_fd_sc_hd__or2_1
*CAP
1 *2241:A 9.96905e-05
2 *2239:X 9.96905e-05
3 *2241:A *2231:A 0.000148189
4 *2241:A *2232:A 9.25014e-06
5 *2241:A *524:134 7.06079e-05
6 *2231:B *2241:A 5.52238e-05
*RES
1 *2239:X *2241:A 30.0821 
*END

*D_NET *223 0.00396943
*CONN
*I *2265:A I *D sky130_fd_sc_hd__and3_1
*I *2266:A1 I *D sky130_fd_sc_hd__a21o_1
*I *2241:B I *D sky130_fd_sc_hd__nand2_1
*I *2240:Y O *D sky130_fd_sc_hd__nand2_1
*CAP
1 *2265:A 0.000123829
2 *2266:A1 0
3 *2241:B 0
4 *2240:Y 0.000226831
5 *223:27 0.000323643
6 *223:16 0.000426645
7 *2265:A *2265:B 3.34366e-05
8 *2265:A *2265:C 0.000159776
9 *2265:A *2510:A 0
10 *2265:A *225:10 0.000114759
11 *2265:A *248:10 5.80706e-06
12 *223:16 *2232:A 0.00018077
13 *223:16 *2237:A2 6.42242e-05
14 *223:16 *524:134 2.1527e-05
15 *223:16 *551:54 0.000306324
16 *223:27 *225:10 9.25014e-06
17 *223:27 *248:10 4.13573e-05
18 *223:27 *549:72 0.000657852
19 *223:27 *551:54 0.000101086
20 *2231:B *223:16 9.71197e-05
21 *2236:B *223:27 1.37292e-05
22 *181:16 *223:16 5.97496e-05
23 *181:16 *223:27 0.000702563
24 *192:61 *223:27 0.000148903
25 *211:14 *2265:A 9.43471e-05
26 *215:12 *223:16 5.59013e-05
*RES
1 *2240:Y *223:16 24.3179 
2 *223:16 *2241:B 9.3 
3 *223:16 *223:27 14.0536 
4 *223:27 *2266:A1 13.8 
5 *223:27 *2265:A 17.5143 
*END

*D_NET *224 0.00159102
*CONN
*I *2243:A3 I *D sky130_fd_sc_hd__a31oi_1
*I *2242:B1 I *D sky130_fd_sc_hd__a21o_1
*I *2241:Y O *D sky130_fd_sc_hd__nand2_1
*CAP
1 *2243:A3 2.29612e-05
2 *2242:B1 0.000291353
3 *2241:Y 0.00010379
4 *224:10 0.000418105
5 *2243:A3 *2231:A 3.90513e-05
6 *224:10 *2231:A 3.92854e-05
7 *224:10 *551:54 9.90431e-05
8 *2242:A1 *2242:B1 5.72024e-05
9 *2242:A2 *2242:B1 0.000230482
10 *2243:A2 *2243:A3 4.73656e-05
11 *2243:B1 *2242:B1 0.000112417
12 *214:6 *2242:B1 1.98839e-05
13 *216:19 *2243:A3 3.34366e-05
14 *216:19 *224:10 7.6644e-05
*RES
1 *2241:Y *224:10 15.7821 
2 *224:10 *2242:B1 18.7821 
3 *224:10 *2243:A3 14.8357 
*END

*D_NET *225 0.00212785
*CONN
*I *2266:A2 I *D sky130_fd_sc_hd__a21o_1
*I *2265:B I *D sky130_fd_sc_hd__and3_1
*I *2259:A1 I *D sky130_fd_sc_hd__a21o_1
*I *2242:X O *D sky130_fd_sc_hd__a21o_1
*CAP
1 *2266:A2 0
2 *2265:B 0.000276027
3 *2259:A1 0.000343951
4 *2242:X 6.65977e-05
5 *225:10 0.00067119
6 *225:6 0.000117809
7 *2265:B *2259:B1 0
8 *2265:B *2507:A 2.19684e-05
9 *2265:B *2508:A 0
10 *225:6 *551:54 5.33005e-05
11 *225:10 *551:54 3.17148e-05
12 *2236:B *2265:B 1.31516e-05
13 *2236:B *225:10 4.75715e-05
14 *2243:B1 *225:6 4.70048e-05
15 *2265:A *2265:B 3.34366e-05
16 *2265:A *225:10 0.000114759
17 *211:14 *2259:A1 6.05161e-06
18 *211:14 *2265:B 0.000274064
19 *223:27 *225:10 9.25014e-06
*RES
1 *2242:X *225:6 10.6571 
2 *225:6 *225:10 6.14286 
3 *225:10 *2259:A1 17.6214 
4 *225:10 *2265:B 18.4429 
5 *225:6 *2266:A2 9.3 
*END

*D_NET *226 0.00030262
*CONN
*I *2259:A2 I *D sky130_fd_sc_hd__a21o_1
*I *2243:Y O *D sky130_fd_sc_hd__a31oi_1
*CAP
1 *2259:A2 0.000116002
2 *2243:Y 0.000116002
3 *2259:A2 *2259:B1 4.57445e-05
4 *2242:A1 *2259:A2 1.74352e-05
5 *2243:B1 *2259:A2 7.43578e-06
*RES
1 *2243:Y *2259:A2 29.7786 
*END

*D_NET *227 0.00145109
*CONN
*I *2245:A I *D sky130_fd_sc_hd__inv_2
*I *2248:D I *D sky130_fd_sc_hd__and4b_1
*I *2244:X O *D sky130_fd_sc_hd__a21o_1
*CAP
1 *2245:A 4.54803e-05
2 *2248:D 0.000164536
3 *2244:X 0.000202438
4 *227:10 0.000412454
5 *2245:A *2247:B1 6.91157e-05
6 *2248:D *2247:B1 6.21199e-05
7 *2248:D *2248:A_N 9.99644e-06
8 *2248:D *2248:B 5.52302e-05
9 *227:10 *2247:B1 5.66157e-05
10 *227:10 *2248:B 2.05938e-05
11 *227:10 *545:140 2.56601e-05
12 *2244:B1 *2245:A 0.000128154
13 *2244:B1 *227:10 0.000198698
*RES
1 *2244:X *227:10 17.7107 
2 *227:10 *2248:D 16.233 
3 *227:10 *2245:A 15.4429 
*END

*D_NET *228 0.000803559
*CONN
*I *2247:B1 I *D sky130_fd_sc_hd__o2bb2a_1
*I *2245:Y O *D sky130_fd_sc_hd__inv_2
*CAP
1 *2247:B1 0.000142633
2 *2245:Y 0.000142633
3 *2247:B1 *2248:A_N 4.72917e-05
4 *2247:B1 *2248:B 7.0528e-05
5 *2247:B1 *2248:C 0.00018372
6 *2247:B1 *2249:B 2.89016e-05
7 *2247:B1 *2268:B 0
8 *2245:A *2247:B1 6.91157e-05
9 *2248:D *2247:B1 6.21199e-05
10 *227:10 *2247:B1 5.66157e-05
*RES
1 *2245:Y *2247:B1 31.8321 
*END

*D_NET *229 0.00140942
*CONN
*I *2248:A_N I *D sky130_fd_sc_hd__and4b_1
*I *2247:B2 I *D sky130_fd_sc_hd__o2bb2a_1
*I *2268:A I *D sky130_fd_sc_hd__nor2_1
*I *2246:X O *D sky130_fd_sc_hd__and3_1
*CAP
1 *2248:A_N 0.000163549
2 *2247:B2 1.1624e-05
3 *2268:A 0.000113688
4 *2246:X 0
5 *229:21 0.000233417
6 *229:4 0.000171932
7 *2247:B2 *2247:A2_N 5.52238e-05
8 *2247:B2 *2248:C 5.52238e-05
9 *2248:A_N *2247:A2_N 0.000169359
10 *2248:A_N *2248:C 0.000181796
11 *2268:A *2246:A 8.07313e-05
12 *229:21 *2246:B 2.8266e-06
13 *229:21 *2247:A2_N 1.19402e-05
14 *229:21 *2268:B 0.000100823
15 *229:21 *233:12 0
16 *2247:B1 *2248:A_N 4.72917e-05
17 *2248:D *2248:A_N 9.99644e-06
*RES
1 *2246:X *229:4 9.3 
2 *229:4 *2268:A 11.8179 
3 *229:4 *229:21 10.3393 
4 *229:21 *2247:B2 9.83571 
5 *229:21 *2248:A_N 13.1393 
*END

*D_NET *230 0.00336201
*CONN
*I *2204:C I *D sky130_fd_sc_hd__and4b_2
*I *2211:A I *D sky130_fd_sc_hd__nor3_1
*I *2203:B1 I *D sky130_fd_sc_hd__o2111a_1
*I *2213:B I *D sky130_fd_sc_hd__and4b_2
*I *1977:Y O *D sky130_fd_sc_hd__inv_2
*CAP
1 *2204:C 0.000202328
2 *2211:A 0.000254121
3 *2203:B1 0.000102335
4 *2213:B 2.23854e-05
5 *1977:Y 0.00011219
6 *230:30 0.000487163
7 *230:17 0.000183576
8 *230:6 0.000185103
9 *2203:B1 *2203:D1 4.02462e-05
10 *2203:B1 *315:8 4.78056e-05
11 *2203:B1 *326:22 5.71472e-05
12 *2203:B1 *492:10 7.91281e-05
13 *2204:C *2213:A_N 9.4724e-05
14 *2204:C *489:35 0.000162763
15 *2204:C *489:44 1.39841e-05
16 *2204:C *492:10 5.10822e-05
17 *2211:A *530:12 0.000183233
18 *2211:A *530:14 3.33238e-05
19 *2211:A *530:16 0.000266486
20 *2213:B *2260:A3 0
21 *2213:B *511:75 0
22 *230:6 *1977:A 0.000123673
23 *230:6 *2213:C 7.49387e-06
24 *230:6 *2260:A3 1.24368e-05
25 *230:6 *511:75 5.52302e-05
26 *230:6 *530:20 7.43578e-06
27 *230:17 *511:75 0.000167436
28 *230:17 *530:16 6.42095e-05
29 *230:17 *530:20 2.89016e-05
30 *230:30 *2213:A_N 1.02504e-05
31 *230:30 *315:8 3.2293e-05
32 *230:30 *492:10 4.02462e-05
33 *2203:A2 *2203:B1 9.25014e-06
34 *2208:D_N *2211:A 5.71472e-05
35 *197:10 *230:6 0.000137983
36 *197:66 *2203:B1 2.89016e-05
*RES
1 *1977:Y *230:6 12.3 
2 *230:6 *2213:B 9.72857 
3 *230:6 *230:17 6.26786 
4 *230:17 *2203:B1 16.5857 
5 *230:17 *230:30 1.03571 
6 *230:30 *2211:A 18.8536 
7 *230:30 *2204:C 17.8714 
*END

*D_NET *231 0.000393975
*CONN
*I *2249:A I *D sky130_fd_sc_hd__nor2_1
*I *2247:X O *D sky130_fd_sc_hd__o2bb2a_1
*CAP
1 *2249:A 9.63392e-05
2 *2247:X 9.63392e-05
3 *2249:A *2227:B2 2.28499e-05
4 *2249:A *2249:B 2.49484e-05
5 *2249:A *233:12 7.83659e-05
6 *2249:A *528:41 6.43697e-06
7 *2246:C *2249:A 4.46186e-06
8 *202:10 *2249:A 6.42338e-05
*RES
1 *2247:X *2249:A 29.7786 
*END

*D_NET *232 0.00120224
*CONN
*I *2268:B I *D sky130_fd_sc_hd__nor2_1
*I *2249:B I *D sky130_fd_sc_hd__nor2_1
*I *2248:X O *D sky130_fd_sc_hd__and4b_1
*CAP
1 *2268:B 0.000160991
2 *2249:B 0.000231399
3 *2248:X 0
4 *232:4 0.00039239
5 *2249:B *2247:A2_N 5.52238e-05
6 *2249:B *2248:C 4.51641e-05
7 *2249:B *233:12 8.00806e-05
8 *2268:B *2246:B 0
9 *2268:B *2247:A2_N 0
10 *2268:B *2248:B 2.97074e-05
11 *2268:B *233:12 0
12 *2268:B *545:140 5.26091e-05
13 *2247:B1 *2249:B 2.89016e-05
14 *2247:B1 *2268:B 0
15 *2249:A *2249:B 2.49484e-05
16 *229:21 *2268:B 0.000100823
*RES
1 *2248:X *232:4 9.3 
2 *232:4 *2249:B 22.1214 
3 *232:4 *2268:B 21.7643 
*END

*D_NET *233 0.00140835
*CONN
*I *2251:B I *D sky130_fd_sc_hd__nor2_1
*I *2250:B I *D sky130_fd_sc_hd__and2_1
*I *2249:Y O *D sky130_fd_sc_hd__nor2_1
*CAP
1 *2251:B 0
2 *2250:B 0.000156938
3 *2249:Y 0.000225518
4 *233:12 0.000382456
5 *233:12 *2246:B 4.58192e-05
6 *233:12 *2247:A2_N 5.33786e-05
7 *233:12 *528:12 0.000226021
8 *2246:C *2250:B 1.24368e-05
9 *2246:C *233:12 8.12703e-05
10 *2249:A *233:12 7.83659e-05
11 *2249:B *233:12 8.00806e-05
12 *2250:A *2250:B 3.18676e-05
13 *2251:A *2250:B 9.76223e-06
14 *2268:B *233:12 0
15 *207:14 *2250:B 2.44318e-05
16 *229:21 *233:12 0
*RES
1 *2249:Y *233:12 24.0321 
2 *233:12 *2250:B 12.3357 
3 *233:12 *2251:B 9.3 
*END

*D_NET *234 0.00172597
*CONN
*I *2252:A I *D sky130_fd_sc_hd__nor2_1
*I *2280:A I *D sky130_fd_sc_hd__and2_1
*I *2281:A I *D sky130_fd_sc_hd__nand2_1
*I *2282:A1 I *D sky130_fd_sc_hd__o21a_1
*I *2250:X O *D sky130_fd_sc_hd__and2_1
*CAP
1 *2252:A 0
2 *2280:A 0.000201314
3 *2281:A 0
4 *2282:A1 8.95943e-06
5 *2250:X 0.000227031
6 *234:18 0.000101857
7 *234:12 0.000428637
8 *234:10 0.000361457
9 *2280:A *2277:B 3.18676e-05
10 *2280:A *2278:A2 5.52302e-05
11 *2280:A *2279:A 0
12 *2280:A *2280:B 5.03787e-05
13 *2280:A *527:46 0
14 *2282:A1 *2282:A2 5.52238e-05
15 *2282:A1 *2286:B1 5.71472e-05
16 *234:10 *2224:B 1.03968e-05
17 *234:10 *2252:B 0
18 *234:10 *527:46 0
19 *234:10 *527:89 7.53109e-06
20 *234:10 *549:124 3.69047e-06
21 *234:10 *551:118 0.000101545
22 *234:12 *2252:B 0
23 *234:12 *527:46 0
24 *234:18 *527:46 2.3704e-05
*RES
1 *2250:X *234:10 17.2107 
2 *234:10 *234:12 2.40179 
3 *234:12 *234:18 6.02679 
4 *234:18 *2282:A1 9.83571 
5 *234:18 *2281:A 9.3 
6 *234:12 *2280:A 17.0411 
7 *234:10 *2252:A 13.8 
*END

*D_NET *235 0.000629877
*CONN
*I *2252:B I *D sky130_fd_sc_hd__nor2_1
*I *2251:Y O *D sky130_fd_sc_hd__nor2_1
*CAP
1 *2252:B 0.00028635
2 *2251:Y 0.00028635
3 *2252:B *2257:B1 5.30637e-06
4 *2252:B *528:12 4.16207e-05
5 *2252:B *551:118 0
6 *2246:C *2252:B 1.02504e-05
7 *234:10 *2252:B 0
8 *234:12 *2252:B 0
*RES
1 *2251:Y *2252:B 32.6536 
*END

*D_NET *236 0.00306391
*CONN
*I *2257:B1 I *D sky130_fd_sc_hd__a221o_1
*I *2252:Y O *D sky130_fd_sc_hd__nor2_1
*CAP
1 *2257:B1 0.000950059
2 *2252:Y 0.000950059
3 *2257:B1 *2257:B2 5.45794e-05
4 *2257:B1 *2257:C1 6.69495e-05
5 *2257:B1 *2287:C1 6.56976e-05
6 *2257:B1 *514:35 9.58478e-05
7 *2257:B1 *526:47 0.000227532
8 *2257:B1 *541:35 0.000173135
9 *2257:B1 *551:118 0.000186183
10 *2221:B1 *2257:B1 0
11 *2252:B *2257:B1 5.30637e-06
12 *188:75 *2257:B1 0
13 *199:46 *2257:B1 0.000140368
14 *199:50 *2257:B1 0.000148189
*RES
1 *2252:Y *2257:B1 43.9393 
*END

*D_NET *237 0.00203704
*CONN
*I *2254:B I *D sky130_fd_sc_hd__and2b_1
*I *2300:A I *D sky130_fd_sc_hd__xnor2_1
*I *2253:Y O *D sky130_fd_sc_hd__nand2_1
*CAP
1 *2254:B 0.000407011
2 *2300:A 0.000176166
3 *2253:Y 0
4 *237:6 0.000583177
5 *2254:B *523:76 0.000731675
6 *2254:B *537:69 0
7 *2254:B *537:73 0
8 *2300:A *523:58 0
9 *2300:A *523:76 8.32242e-05
10 *2300:A *537:73 0
11 *2300:A *545:109 5.57914e-05
*RES
1 *2253:Y *237:6 13.8 
2 *237:6 *2300:A 17.4964 
3 *237:6 *2254:B 23.3357 
*END

*D_NET *238 0.000520655
*CONN
*I *2255:B2 I *D sky130_fd_sc_hd__o22a_1
*I *2254:X O *D sky130_fd_sc_hd__and2b_1
*CAP
1 *2255:B2 0.000193964
2 *2254:X 0.000193964
3 *2255:B2 *2255:A2 1.7845e-05
4 *2255:B2 *2360:B 0.00010096
5 *2255:B2 *523:76 0
6 *2255:B2 *555:43 4.37485e-06
7 *2358:A2 *2255:B2 0
8 *188:32 *2255:B2 9.54798e-06
*RES
1 *2254:X *2255:B2 30.4929 
*END

*D_NET *239 0.00145949
*CONN
*I *2257:C1 I *D sky130_fd_sc_hd__a221o_1
*I *2255:X O *D sky130_fd_sc_hd__o22a_1
*CAP
1 *2257:C1 0.000285037
2 *2255:X 0.000285037
3 *2257:C1 *2257:B2 6.61814e-05
4 *2257:C1 *523:76 0.000310486
5 *2257:C1 *526:47 1.21289e-05
6 *2257:C1 *526:55 0.0001394
7 *2257:C1 *529:47 0.000212392
8 *2257:A2 *2257:C1 1.46576e-05
9 *2257:B1 *2257:C1 6.69495e-05
10 *188:32 *2257:C1 6.722e-05
11 *205:22 *2257:C1 0
*RES
1 *2255:X *2257:C1 36.3321 
*END

*D_NET *240 0.0021556
*CONN
*I *2258:B1 I *D sky130_fd_sc_hd__a211o_1
*I *2256:X O *D sky130_fd_sc_hd__a32o_1
*CAP
1 *2258:B1 0.00090558
2 *2256:X 0.00090558
3 *2258:B1 *2291:B 9.76491e-05
4 *2258:B1 *2292:B 5.72984e-05
5 *2258:B1 *326:47 5.7661e-06
6 *197:27 *2258:B1 0.000183726
*RES
1 *2256:X *2258:B1 32.7071 
*END

*D_NET *241 0.00426255
*CONN
*I *2054:B I *D sky130_fd_sc_hd__nor2_1
*I *2417:A I *D sky130_fd_sc_hd__or4b_1
*I *2068:B1 I *D sky130_fd_sc_hd__a21o_1
*I *2055:B I *D sky130_fd_sc_hd__nand2_1
*I *1978:Y O *D sky130_fd_sc_hd__inv_2
*CAP
1 *2054:B 0.000114193
2 *2417:A 0
3 *2068:B1 0.000230643
4 *2055:B 2.58525e-05
5 *1978:Y 0
6 *241:20 0.000587811
7 *241:12 0.000471467
8 *241:6 0.000254345
9 *2054:B *1978:A 2.26973e-05
10 *2054:B *2004:A 0.000217478
11 *2054:B *2053:B 0.000155244
12 *2054:B *2054:A 0.00014285
13 *2054:B *516:49 1.5942e-05
14 *2054:B *516:51 1.41706e-05
15 *2054:B *517:58 3.17148e-05
16 *2055:B *2055:A 2.28499e-05
17 *241:12 *2004:A 0.000150625
18 *241:12 *413:12 1.58163e-05
19 *241:12 *516:51 5.26184e-05
20 *241:20 *2055:A 0.0008837
21 *241:20 *2417:C 0.000372304
22 *2080:A2 *2068:B1 0
23 *38:37 *2054:B 9.76491e-05
24 *44:14 *2068:B1 0.000382573
25 *46:14 *2068:B1 0
*RES
1 *1978:Y *241:6 13.8 
2 *241:6 *241:12 7.80357 
3 *241:12 *241:20 10.5536 
4 *241:20 *2055:B 9.83571 
5 *241:20 *2068:B1 23.2821 
6 *241:12 *2417:A 9.3 
7 *241:6 *2054:B 18.7286 
*END

*D_NET *242 0.00702088
*CONN
*I *2258:C1 I *D sky130_fd_sc_hd__a211o_1
*I *2257:X O *D sky130_fd_sc_hd__a221o_1
*CAP
1 *2258:C1 0.0001447
2 *2257:X 0.00198546
3 *242:12 0.00213016
4 *2258:C1 *2259:B1 0
5 *2258:C1 *2291:A 0
6 *2258:C1 *2292:B 0
7 *2258:C1 *326:59 4.1331e-06
8 *242:12 *2292:A 2.40354e-05
9 *242:12 *2292:B 4.43256e-05
10 *242:12 *2292:C 7.67457e-05
11 *242:12 *2293:A2 5.52238e-05
12 *242:12 *2316:A2 0.000208126
13 *242:12 *2316:B1 0.00018077
14 *242:12 *2510:A 0.00010096
15 *242:12 *277:12 2.59355e-05
16 *242:12 *279:6 5.42675e-05
17 *242:12 *524:97 0.000158902
18 *242:12 *526:55 0.00153281
19 *242:12 *526:67 0.000294337
20 *178:25 *2258:C1 0
*RES
1 *2257:X *242:12 47.5321 
2 *242:12 *2258:C1 16.3536 
*END

*D_NET *243 0.002175
*CONN
*I *2259:B1 I *D sky130_fd_sc_hd__a21o_1
*I *2258:X O *D sky130_fd_sc_hd__a211o_1
*CAP
1 *2259:B1 0.000829804
2 *2258:X 0.000829804
3 *2259:B1 *326:47 5.33433e-05
4 *2233:A *2259:B1 7.80714e-06
5 *2234:A2 *2259:B1 0.00024292
6 *2236:B *2259:B1 0
7 *2242:A2 *2259:B1 5.59013e-05
8 *2258:C1 *2259:B1 0
9 *2259:A2 *2259:B1 4.57445e-05
10 *2265:B *2259:B1 0
11 *178:25 *2259:B1 0.000109671
12 *192:61 *2259:B1 0
13 *216:19 *2259:B1 0
*RES
1 *2258:X *2259:B1 42.3321 
*END

*D_NET *244 0.000572839
*CONN
*I *2261:B I *D sky130_fd_sc_hd__xnor2_1
*I *2260:X O *D sky130_fd_sc_hd__o31a_1
*CAP
1 *2261:B 9.68822e-05
2 *2260:X 9.68822e-05
3 *2261:B *2264:A 0.000137983
4 *2261:B *2510:A 2.26424e-05
5 *2261:B *551:37 6.09572e-05
6 *181:16 *2261:B 7.91257e-05
7 *192:32 *2261:B 7.83659e-05
*RES
1 *2260:X *2261:B 30.6 
*END

*D_NET *245 0.00055214
*CONN
*I *2262:B I *D sky130_fd_sc_hd__or2_1
*I *2263:B I *D sky130_fd_sc_hd__nand2_1
*I *2261:Y O *D sky130_fd_sc_hd__xnor2_1
*CAP
1 *2262:B 4.85077e-05
2 *2263:B 9.33532e-05
3 *2261:Y 0
4 *245:4 0.000141861
5 *2263:B *2510:A 0.000127446
6 *2263:B *326:22 0
7 *2263:B *551:37 3.75528e-05
8 *2287:A2 *2263:B 0
9 *181:16 *2262:B 4.81894e-05
10 *181:16 *2263:B 5.52302e-05
*RES
1 *2261:Y *245:4 9.3 
2 *245:4 *2263:B 20.4786 
3 *245:4 *2262:B 10.2643 
*END

*D_NET *246 0.00123152
*CONN
*I *2264:A I *D sky130_fd_sc_hd__nand2_1
*I *2262:X O *D sky130_fd_sc_hd__or2_1
*CAP
1 *2264:A 0.000286469
2 *2262:X 0.000286469
3 *2264:A *248:10 5.33005e-05
4 *2261:B *2264:A 0.000137983
5 *181:16 *2264:A 0.000199921
6 *192:32 *2264:A 0.000267377
*RES
1 *2262:X *2264:A 25.2071 
*END

*D_NET *247 0.00285203
*CONN
*I *2264:B I *D sky130_fd_sc_hd__nand2_1
*I *2292:A I *D sky130_fd_sc_hd__and3_1
*I *2293:A1 I *D sky130_fd_sc_hd__a21oi_1
*I *2263:Y O *D sky130_fd_sc_hd__nand2_1
*CAP
1 *2264:B 5.54962e-05
2 *2292:A 0.00043602
3 *2293:A1 0
4 *2263:Y 0.000146522
5 *247:12 0.000562366
6 *247:8 0.000328364
7 *2264:B *2261:A 1.59782e-05
8 *2264:B *250:10 0.000114759
9 *2292:A *2292:C 0.000380762
10 *2292:A *2293:A2 6.05161e-06
11 *2292:A *2316:B1 2.68e-05
12 *2292:A *277:12 5.33005e-05
13 *247:8 *2263:A 1.33343e-05
14 *247:8 *326:26 5.56825e-05
15 *247:12 *250:10 0.000391576
16 *191:60 *2264:B 3.69697e-05
17 *191:60 *247:12 0.000204011
18 *242:12 *2292:A 2.40354e-05
*RES
1 *2263:Y *247:8 15.5679 
2 *247:8 *247:12 9.48214 
3 *247:12 *2293:A1 9.3 
4 *247:12 *2292:A 15.1929 
5 *247:8 *2264:B 15.4429 
*END

*D_NET *248 0.00121298
*CONN
*I *2265:C I *D sky130_fd_sc_hd__and3_1
*I *2266:B1 I *D sky130_fd_sc_hd__a21o_1
*I *2264:Y O *D sky130_fd_sc_hd__nand2_1
*CAP
1 *2265:C 0.000204116
2 *2266:B1 0
3 *2264:Y 0.000145238
4 *248:10 0.000349354
5 *2265:C *2267:B 0
6 *2265:C *2267:C_N 5.80706e-06
7 *248:10 *2267:C_N 2.49484e-05
8 *248:10 *549:72 0.000106882
9 *2264:A *248:10 5.33005e-05
10 *2265:A *2265:C 0.000159776
11 *2265:A *248:10 5.80706e-06
12 *181:16 *248:10 9.22103e-06
13 *192:61 *248:10 7.83587e-05
14 *211:14 *2265:C 2.88157e-05
15 *223:27 *248:10 4.13573e-05
*RES
1 *2264:Y *248:10 16.6929 
2 *248:10 *2266:B1 13.8 
3 *248:10 *2265:C 17.2821 
*END

*D_NET *249 0.000414604
*CONN
*I *2267:B I *D sky130_fd_sc_hd__or3b_1
*I *2265:X O *D sky130_fd_sc_hd__and3_1
*CAP
1 *2267:B 0.000144051
2 *2265:X 0.000144051
3 *2267:B *2267:C_N 0
4 *2267:B *2510:A 7.06079e-05
5 *2267:B *250:10 0
6 *2265:C *2267:B 0
7 *191:28 *2267:B 5.58941e-05
*RES
1 *2265:X *2267:B 30.1536 
*END

*D_NET *250 0.00344623
*CONN
*I *2267:C_N I *D sky130_fd_sc_hd__or3b_1
*I *2293:A2 I *D sky130_fd_sc_hd__a21oi_1
*I *2292:B I *D sky130_fd_sc_hd__and3_1
*I *2266:X O *D sky130_fd_sc_hd__a21o_1
*CAP
1 *2267:C_N 5.97123e-05
2 *2293:A2 2.54224e-05
3 *2292:B 0.000445712
4 *2266:X 0
5 *250:10 0.000825957
6 *250:6 0.000414535
7 *2267:C_N *549:72 2.31791e-05
8 *2267:C_N *551:54 5.52302e-05
9 *2292:B *2291:B 0.0001399
10 *2292:B *2316:A2 9.71197e-05
11 *2292:B *2346:B1 0.000101545
12 *2292:B *277:12 0.000150618
13 *2292:B *542:138 5.10822e-05
14 *250:10 *277:12 1.31516e-05
15 *250:10 *549:72 0.000117981
16 *2258:B1 *2292:B 5.72984e-05
17 *2258:C1 *2292:B 0
18 *2264:B *250:10 0.000114759
19 *2265:C *2267:C_N 5.80706e-06
20 *2267:B *2267:C_N 0
21 *2267:B *250:10 0
22 *2292:A *2293:A2 6.05161e-06
23 *191:28 *250:10 0
24 *191:60 *2292:B 1.18064e-05
25 *191:60 *250:10 5.90443e-06
26 *192:40 *2267:C_N 5.52302e-05
27 *192:61 *250:10 0.000152156
28 *242:12 *2292:B 4.43256e-05
29 *242:12 *2293:A2 5.52238e-05
30 *247:12 *250:10 0.000391576
31 *248:10 *2267:C_N 2.49484e-05
*RES
1 *2266:X *250:6 13.8 
2 *250:6 *250:10 9.46429 
3 *250:10 *2292:B 31.1571 
4 *250:10 *2293:A2 14.3357 
5 *250:6 *2267:C_N 15.3714 
*END

*D_NET *251 0.00148539
*CONN
*I *2417:B I *D sky130_fd_sc_hd__or4b_1
*I *2051:A2 I *D sky130_fd_sc_hd__o211ai_2
*I *1979:Y O *D sky130_fd_sc_hd__inv_2
*CAP
1 *2417:B 0.000144303
2 *2051:A2 0.000233639
3 *1979:Y 0
4 *251:6 0.000377943
5 *2051:A2 *2004:A 1.59782e-05
6 *2051:A2 *2051:A1 4.43256e-05
7 *2051:A2 *2051:C1 0
8 *2051:A2 *2514:A 0.000142856
9 *2051:A2 *518:108 0.000193833
10 *2417:B *2004:A 7.17603e-05
11 *2417:B *2051:C1 0
12 *2417:B *2055:A 1.76135e-05
13 *2417:B *2417:D_N 0
14 *2050:B1 *2051:A2 0.000216297
15 *2051:B1 *2051:A2 2.68461e-05
*RES
1 *1979:Y *251:6 13.8 
2 *251:6 *2051:A2 19.9786 
3 *251:6 *2417:B 16.3536 
*END

*D_NET *252 0.000419744
*CONN
*I *2288:B I *D sky130_fd_sc_hd__nand2b_1
*I *2267:X O *D sky130_fd_sc_hd__or3b_1
*CAP
1 *2288:B 0.000114283
2 *2267:X 0.000114283
3 *2288:B *2288:A_N 0
4 *2288:B *2510:A 0.000129868
5 *211:14 *2288:B 6.13102e-05
*RES
1 *2267:X *2288:B 30.3232 
*END

*D_NET *253 0.00189126
*CONN
*I *2276:A I *D sky130_fd_sc_hd__xnor2_1
*I *2275:A_N I *D sky130_fd_sc_hd__and2b_1
*I *2268:Y O *D sky130_fd_sc_hd__nor2_1
*CAP
1 *2276:A 0.000143326
2 *2275:A_N 0.000154174
3 *2268:Y 0.00038106
4 *253:8 0.00067856
5 *2275:A_N *2276:B 0
6 *2275:A_N *259:18 5.76121e-05
7 *2275:A_N *545:140 7.92975e-05
8 *253:8 *2276:B 0
9 *253:8 *545:140 0.000397233
10 *253:8 *555:68 0
*RES
1 *2268:Y *253:8 23.0321 
2 *253:8 *2275:A_N 17.1036 
3 *253:8 *2276:A 15.9786 
*END

*D_NET *254 0.000688724
*CONN
*I *2274:A I *D sky130_fd_sc_hd__xnor2_1
*I *2297:A1 I *D sky130_fd_sc_hd__o21ba_1
*I *2269:Y O *D sky130_fd_sc_hd__nand2_1
*CAP
1 *2274:A 6.03581e-05
2 *2297:A1 0
3 *2269:Y 9.40064e-05
4 *254:12 0.000154364
5 *2274:A *2274:B 9.83388e-05
6 *2274:A *284:12 2.84109e-05
7 *254:12 *2269:A 2.59355e-05
8 *254:12 *284:12 7.6644e-05
9 *254:12 *490:25 2.49484e-05
10 *254:12 *537:73 0.000125717
*RES
1 *2269:Y *254:12 20.4786 
2 *254:12 *2297:A1 9.3 
3 *254:12 *2274:A 10.6571 
*END

*D_NET *255 0.000438206
*CONN
*I *2299:A2 I *D sky130_fd_sc_hd__a21oi_2
*I *2270:Y O *D sky130_fd_sc_hd__nand2_1
*CAP
1 *2299:A2 9.137e-05
2 *2270:Y 9.137e-05
3 *2299:A2 *2299:A1 0
4 *2299:A2 *2428:A 0.000100831
5 *2299:A2 *520:58 0.000125724
6 *2299:A2 *548:28 2.89114e-05
*RES
1 *2270:Y *2299:A2 29.7786 
*END

*D_NET *256 0.00105974
*CONN
*I *2297:B1_N I *D sky130_fd_sc_hd__o21ba_1
*I *2273:A I *D sky130_fd_sc_hd__nor2_1
*I *2271:X O *D sky130_fd_sc_hd__and3_1
*CAP
1 *2297:B1_N 2.14173e-05
2 *2273:A 0.00016086
3 *2271:X 0.000121825
4 *256:10 0.000304102
5 *2273:A *2273:B 5.7661e-06
6 *2273:A *2274:B 0.000181796
7 *2297:B1_N *2300:B 1.59782e-05
8 *2297:B1_N *545:50 5.59013e-05
9 *256:10 *2300:B 3.5707e-05
10 *256:10 *523:43 2.89016e-05
11 *256:10 *523:92 2.59355e-05
12 *256:10 *545:50 0.000101545
*RES
1 *2271:X *256:10 16.0857 
2 *256:10 *2273:A 16.7107 
3 *256:10 *2297:B1_N 14.5321 
*END

*D_NET *257 0.00110934
*CONN
*I *2273:B I *D sky130_fd_sc_hd__nor2_1
*I *2297:A2 I *D sky130_fd_sc_hd__o21ba_1
*I *2272:Y O *D sky130_fd_sc_hd__a21oi_1
*CAP
1 *2273:B 0.000116825
2 *2297:A2 0
3 *2272:Y 8.93959e-05
4 *257:12 0.000206221
5 *2273:B *2274:B 0.000134461
6 *2273:B *284:12 0.000226507
7 *257:12 *523:92 2.89114e-05
8 *257:12 *524:29 0.000150625
9 *257:12 *537:73 0.000150625
10 *2273:A *2273:B 5.7661e-06
*RES
1 *2272:Y *257:12 20.7821 
2 *257:12 *2297:A2 9.3 
3 *257:12 *2273:B 12.7464 
*END

*D_NET *258 0.000871206
*CONN
*I *2274:B I *D sky130_fd_sc_hd__xnor2_1
*I *2273:Y O *D sky130_fd_sc_hd__nor2_1
*CAP
1 *2274:B 0.000217356
2 *2273:Y 0.000217356
3 *2274:B *284:12 2.18985e-05
4 *2273:A *2274:B 0.000181796
5 *2273:B *2274:B 0.000134461
6 *2274:A *2274:B 9.83388e-05
*RES
1 *2273:Y *2274:B 23.2429 
*END

*D_NET *259 0.00854652
*CONN
*I *2276:B I *D sky130_fd_sc_hd__xnor2_1
*I *2275:B I *D sky130_fd_sc_hd__and2b_1
*I *2274:Y O *D sky130_fd_sc_hd__xnor2_1
*CAP
1 *2276:B 0.000171703
2 *2275:B 6.44184e-05
3 *2274:Y 0.0021416
4 *259:18 0.000754977
5 *259:12 0.00266046
6 *2276:B *2305:A1 0
7 *2276:B *2306:A 0
8 *2276:B *2307:B 0
9 *2276:B *260:8 0
10 *2276:B *545:140 0
11 *2276:B *555:68 3.3938e-05
12 *259:12 *2321:A 1.58163e-05
13 *259:12 *2393:A 0
14 *259:12 *2397:B 0.000277839
15 *259:12 *2436:B 7.05447e-05
16 *259:12 *2512:A 1.71615e-05
17 *259:12 *2513:A 1.08359e-05
18 *259:12 *309:10 2.05418e-05
19 *259:12 *360:10 0
20 *259:12 *431:10 0.000875613
21 *259:12 *493:26 0.000138255
22 *259:12 *527:6 5.70797e-05
23 *259:12 *527:12 2.40379e-05
24 *259:18 *2395:A 5.58941e-05
25 *259:18 *2396:B 1.3142e-05
26 *259:18 *2397:B 7.05143e-06
27 *259:18 *2512:A 4.54397e-05
28 *259:18 *329:23 0.000142082
29 *259:18 *493:26 0.00011617
30 *259:18 *545:140 0.000774315
31 *2275:A_N *2276:B 0
32 *2275:A_N *259:18 5.76121e-05
33 *253:8 *2276:B 0
*RES
1 *2274:Y *259:12 45.9696 
2 *259:12 *259:18 17.7946 
3 *259:18 *2275:B 10.2464 
4 *259:18 *2276:B 21.4607 
*END

*D_NET *260 0.0010488
*CONN
*I *2305:A1 I *D sky130_fd_sc_hd__o21ai_1
*I *2306:A I *D sky130_fd_sc_hd__or3_1
*I *2275:X O *D sky130_fd_sc_hd__and2b_1
*CAP
1 *2305:A1 0.000105921
2 *2306:A 0.000189974
3 *2275:X 7.93761e-06
4 *260:8 0.000303833
5 *2305:A1 *2306:B 3.6322e-05
6 *2305:A1 *261:12 3.69047e-06
7 *2305:A1 *263:14 4.1331e-06
8 *2305:A1 *555:68 0.000114334
9 *2306:A *2306:B 0.00011196
10 *2306:A *2307:B 0.000150618
11 *2306:A *292:18 2.00751e-05
12 *2276:B *2305:A1 0
13 *2276:B *2306:A 0
14 *2276:B *260:8 0
*RES
1 *2275:X *260:8 14.0768 
2 *260:8 *2306:A 18.5946 
3 *260:8 *2305:A1 16.2375 
*END

*D_NET *261 0.000973228
*CONN
*I *2278:B1 I *D sky130_fd_sc_hd__a21oi_1
*I *2277:C I *D sky130_fd_sc_hd__and3_1
*I *2276:Y O *D sky130_fd_sc_hd__xnor2_1
*CAP
1 *2278:B1 1.76505e-05
2 *2277:C 5.49194e-05
3 *2276:Y 0.000147467
4 *261:12 0.000220037
5 *2277:C *2278:A2 0.000129534
6 *2277:C *2458:A 4.58976e-05
7 *2277:C *263:8 8.57208e-05
8 *2277:C *528:6 5.52238e-05
9 *2278:B1 *2458:A 1.98839e-05
10 *2278:B1 *528:6 5.33005e-05
11 *261:12 *2279:B 8.07951e-05
12 *261:12 *263:14 0
13 *261:12 *555:68 5.91092e-05
14 *2305:A1 *261:12 3.69047e-06
*RES
1 *2276:Y *261:12 21.0857 
2 *261:12 *2277:C 11.3357 
3 *261:12 *2278:B1 9.83571 
*END

*D_NET *262 0.000529906
*CONN
*I *1989:A2 I *D sky130_fd_sc_hd__a2111oi_1
*I *1980:Y O *D sky130_fd_sc_hd__inv_2
*CAP
1 *1989:A2 0.000185368
2 *1980:Y 0.000185368
3 *1989:A2 *337:54 7.25388e-05
4 *1989:A2 *492:39 7.83587e-05
5 *1989:A2 *549:25 8.27184e-06
*RES
1 *1980:Y *1989:A2 30.4036 
*END

*D_NET *263 0.00175399
*CONN
*I *2279:A I *D sky130_fd_sc_hd__nor2_1
*I *2305:A2 I *D sky130_fd_sc_hd__o21ai_1
*I *2306:B I *D sky130_fd_sc_hd__or3_1
*I *2277:X O *D sky130_fd_sc_hd__and3_1
*CAP
1 *2279:A 9.69465e-05
2 *2305:A2 0
3 *2306:B 0.000123653
4 *2277:X 9.51615e-05
5 *263:14 0.000366416
6 *263:8 0.000434871
7 *2279:A *2277:A 1.10632e-05
8 *2279:A *2280:B 0
9 *2279:A *528:12 0
10 *2306:B *266:10 0
11 *2306:B *292:10 0.000151333
12 *2306:B *292:18 0.000128154
13 *263:8 *2278:A2 2.99737e-05
14 *263:14 *2277:A 3.39401e-05
15 *263:14 *2279:B 0
16 *263:14 *2280:B 0
17 *263:14 *266:10 4.43405e-05
18 *263:14 *555:68 0
19 *2277:C *263:8 8.57208e-05
20 *2280:A *2279:A 0
21 *2305:A1 *2306:B 3.6322e-05
22 *2305:A1 *263:14 4.1331e-06
23 *2306:A *2306:B 0.00011196
24 *261:12 *263:14 0
*RES
1 *2277:X *263:8 15.1571 
2 *263:8 *263:14 4.53571 
3 *263:14 *2306:B 17.8714 
4 *263:14 *2305:A2 13.8 
5 *263:8 *2279:A 15.4429 
*END

*D_NET *264 0.00113492
*CONN
*I *2279:B I *D sky130_fd_sc_hd__nor2_1
*I *2278:Y O *D sky130_fd_sc_hd__a21oi_1
*CAP
1 *2279:B 0.000350848
2 *2278:Y 0.000350848
3 *2279:B *2282:A2 0
4 *2279:B *265:6 3.18676e-05
5 *2279:B *265:10 0
6 *2279:B *528:12 7.5222e-05
7 *2279:B *555:68 0.000245342
8 *261:12 *2279:B 8.07951e-05
9 *263:14 *2279:B 0
*RES
1 *2278:Y *2279:B 35.0107 
*END

*D_NET *265 0.00105892
*CONN
*I *2280:B I *D sky130_fd_sc_hd__and2_1
*I *2282:A2 I *D sky130_fd_sc_hd__o21a_1
*I *2281:B I *D sky130_fd_sc_hd__nand2_1
*I *2279:Y O *D sky130_fd_sc_hd__nor2_1
*CAP
1 *2280:B 9.8587e-05
2 *2282:A2 0.000115038
3 *2281:B 0
4 *2279:Y 0.000106552
5 *265:10 0.000232634
6 *265:6 0.000322735
7 *2280:B *2277:A 0
8 *2282:A2 *2286:B1 4.59075e-05
9 *2282:A2 *2286:C1 0
10 *2279:A *2280:B 0
11 *2279:B *2282:A2 0
12 *2279:B *265:6 3.18676e-05
13 *2279:B *265:10 0
14 *2280:A *2280:B 5.03787e-05
15 *2282:A1 *2282:A2 5.52238e-05
16 *263:14 *2280:B 0
*RES
1 *2279:Y *265:6 11.0679 
2 *265:6 *265:10 1.78571 
3 *265:10 *2281:B 9.3 
4 *265:10 *2282:A2 11.4964 
5 *265:6 *2280:B 20.2464 
*END

*D_NET *266 0.000781166
*CONN
*I *2308:A I *D sky130_fd_sc_hd__or2_1
*I *2309:A I *D sky130_fd_sc_hd__nand2_1
*I *2280:X O *D sky130_fd_sc_hd__and2_1
*CAP
1 *2308:A 9.83863e-05
2 *2309:A 0
3 *2280:X 0.000241373
4 *266:10 0.000339759
5 *2308:A *2308:B 4.22908e-05
6 *2308:A *2309:B 5.7661e-06
7 *266:10 *2458:A 9.25014e-06
8 *266:10 *292:10 0
9 *266:10 *529:41 0
10 *2306:B *266:10 0
11 *263:14 *266:10 4.43405e-05
*RES
1 *2280:X *266:10 22.3714 
2 *266:10 *2309:A 9.3 
3 *266:10 *2308:A 11.0857 
*END

*D_NET *267 0.000950918
*CONN
*I *2286:B1 I *D sky130_fd_sc_hd__a221o_1
*I *2281:Y O *D sky130_fd_sc_hd__nand2_1
*CAP
1 *2286:B1 0.000241641
2 *2281:Y 0.000241641
3 *2286:B1 *2286:B2 2.40927e-05
4 *2286:B1 *2286:C1 9.96218e-05
5 *2286:B1 *521:14 0.00014285
6 *2282:A1 *2286:B1 5.71472e-05
7 *2282:A2 *2286:B1 4.59075e-05
8 *2282:B1 *2286:B1 9.80173e-05
*RES
1 *2281:Y *2286:B1 23.6536 
*END

*D_NET *268 0.000413912
*CONN
*I *2286:B2 I *D sky130_fd_sc_hd__a221o_1
*I *2282:X O *D sky130_fd_sc_hd__o21a_1
*CAP
1 *2286:B2 7.19187e-05
2 *2282:X 7.19187e-05
3 *2286:B2 *2286:C1 0.000245982
4 *2286:B1 *2286:B2 2.40927e-05
*RES
1 *2282:X *2286:B2 20.8188 
*END

*D_NET *269 0.00044236
*CONN
*I *2284:B2 I *D sky130_fd_sc_hd__o22a_1
*I *2283:Y O *D sky130_fd_sc_hd__a21oi_1
*CAP
1 *2284:B2 9.97222e-05
2 *2283:Y 9.97222e-05
3 *2284:B2 *525:120 9.60875e-05
4 *2284:B2 *541:21 0.00010096
5 *2284:B2 *541:35 4.58679e-05
*RES
1 *2283:Y *2284:B2 21.1 
*END

*D_NET *270 0.00130052
*CONN
*I *2286:C1 I *D sky130_fd_sc_hd__a221o_1
*I *2284:X O *D sky130_fd_sc_hd__o22a_1
*CAP
1 *2286:C1 0.000423072
2 *2284:X 0.000423072
3 *2286:C1 *521:14 4.83343e-05
4 *2282:A2 *2286:C1 0
5 *2282:B1 *2286:C1 5.33005e-05
6 *2286:A2 *2286:C1 7.13226e-06
7 *2286:B1 *2286:C1 9.96218e-05
8 *2286:B2 *2286:C1 0.000245982
*RES
1 *2284:X *2286:C1 26.5643 
*END

*D_NET *271 0.00025765
*CONN
*I *2287:B1 I *D sky130_fd_sc_hd__a211o_1
*I *2285:X O *D sky130_fd_sc_hd__a32o_1
*CAP
1 *2287:B1 3.5196e-05
2 *2285:X 3.5196e-05
3 *2287:B1 *2263:A 8.62984e-05
4 *2287:B1 *326:22 0.00010096
*RES
1 *2285:X *2287:B1 19.975 
*END

*D_NET *272 0.00546196
*CONN
*I *2287:C1 I *D sky130_fd_sc_hd__a211o_1
*I *2286:X O *D sky130_fd_sc_hd__a221o_1
*CAP
1 *2287:C1 0.00211173
2 *2286:X 0.00211173
3 *2287:C1 *326:22 2.83284e-06
4 *2287:C1 *527:54 0
5 *2287:C1 *551:37 0.000608421
6 *2287:C1 *551:82 0.000421544
7 *2216:A3 *2287:C1 4.79264e-05
8 *2221:B1 *2287:C1 1.99644e-05
9 *2257:B1 *2287:C1 6.56976e-05
10 *2287:A2 *2287:C1 0
11 *183:24 *2287:C1 4.79453e-05
12 *197:12 *2287:C1 2.41607e-05
*RES
1 *2286:X *2287:C1 41.511 
*END

*D_NET *273 0.00732983
*CONN
*I *2230:A I *D sky130_fd_sc_hd__xnor2_1
*I *2195:A1 I *D sky130_fd_sc_hd__a2111o_1
*I *2447:A I *D sky130_fd_sc_hd__buf_2
*I *1981:Y O *D sky130_fd_sc_hd__inv_2
*CAP
1 *2230:A 0.000814475
2 *2195:A1 0.000117403
3 *2447:A 1.71667e-05
4 *1981:Y 0.000597411
5 *273:29 0.00120523
6 *273:10 0.000887929
7 *2195:A1 *526:81 0.000152814
8 *2230:A *2197:B1 0.000786348
9 *2230:A *2237:A2 0
10 *2230:A *326:39 0.000162832
11 *2230:A *326:47 0.000366401
12 *2230:A *524:91 0.000310292
13 *2230:A *526:81 0
14 *2230:A *549:48 0
15 *2447:A *529:61 9.90431e-05
16 *273:10 *1981:A 2.89016e-05
17 *273:10 *326:59 0.000168939
18 *273:10 *510:37 0
19 *273:29 *2258:A2 0.000227539
20 *273:29 *2291:A 0
21 *273:29 *326:47 3.68414e-05
22 *273:29 *326:59 0.00013966
23 *2183:A1 *273:10 0
24 *2185:B *2195:A1 0.00010326
25 *2185:B *273:29 4.46186e-06
26 *2194:A *2447:A 5.52302e-05
27 *2197:A1 *2230:A 0
28 *2230:B *2230:A 0
29 *2232:B *2230:A 4.03318e-05
30 *2235:B1 *2230:A 0.000173083
31 *2237:B1 *2230:A 0.00026367
32 *2238:B *2230:A 0.000232399
33 *178:25 *273:29 1.46717e-05
34 *181:16 *2230:A 5.01117e-05
35 *219:23 *273:10 0
36 *219:36 *2447:A 5.71472e-05
37 *219:36 *273:10 0
38 *221:14 *2230:A 0.000216235
*RES
1 *1981:Y *273:10 23.9786 
2 *273:10 *2447:A 14.7464 
3 *273:10 *273:29 14.7411 
4 *273:29 *2195:A1 17.1661 
5 *273:29 *2230:A 45.2375 
*END

*D_NET *274 0.00099505
*CONN
*I *2288:A_N I *D sky130_fd_sc_hd__nand2b_1
*I *2287:X O *D sky130_fd_sc_hd__a211o_1
*CAP
1 *2288:A_N 0.000326994
2 *2287:X 0.000326994
3 *2288:A_N *2510:A 0
4 *2288:A_N *326:22 4.1331e-06
5 *2288:A_N *551:37 0.00033693
6 *2288:B *2288:A_N 0
7 *197:10 *2288:A_N 0
*RES
1 *2287:X *2288:A_N 34.1 
*END

*D_NET *275 0.000255084
*CONN
*I *2290:B I *D sky130_fd_sc_hd__xor2_1
*I *2289:Y O *D sky130_fd_sc_hd__nand2_1
*CAP
1 *2290:B 6.26081e-05
2 *2289:Y 6.26081e-05
3 *2290:B *2347:A1 0.000129868
4 *191:60 *2290:B 0
*RES
1 *2289:Y *2290:B 29.2429 
*END

*D_NET *276 0.00210515
*CONN
*I *2291:B I *D sky130_fd_sc_hd__xnor2_1
*I *2346:A2 I *D sky130_fd_sc_hd__a21o_1
*I *2290:X O *D sky130_fd_sc_hd__xor2_1
*CAP
1 *2291:B 0.000116848
2 *2346:A2 0
3 *2290:X 0.000217843
4 *276:10 0.000334691
5 *2258:B1 *2291:B 9.76491e-05
6 *2292:B *2291:B 0.0001399
7 *191:60 *2291:B 0.000185304
8 *191:60 *276:10 0.000409896
9 *192:91 *2291:B 0.000195555
10 *192:91 *276:10 0.000407467
*RES
1 *2290:X *276:10 20.4429 
2 *276:10 *2346:A2 13.8 
3 *276:10 *2291:B 18.1214 
*END

*D_NET *277 0.00140045
*CONN
*I *2292:C I *D sky130_fd_sc_hd__and3_1
*I *2293:B1 I *D sky130_fd_sc_hd__a21oi_1
*I *2291:Y O *D sky130_fd_sc_hd__xnor2_1
*CAP
1 *2292:C 7.78483e-05
2 *2293:B1 0
3 *2291:Y 7.19904e-05
4 *277:12 0.000149839
5 *2292:C *2316:B1 0.000125693
6 *2292:C *2510:A 9.90431e-05
7 *2292:A *2292:C 0.000380762
8 *2292:A *277:12 5.33005e-05
9 *2292:B *277:12 0.000150618
10 *191:60 *277:12 0.000175519
11 *242:12 *2292:C 7.67457e-05
12 *242:12 *277:12 2.59355e-05
13 *250:10 *277:12 1.31516e-05
*RES
1 *2291:Y *277:12 21.0857 
2 *277:12 *2293:B1 9.3 
3 *277:12 *2292:C 12.9786 
*END

*D_NET *278 0.000475295
*CONN
*I *2316:A2 I *D sky130_fd_sc_hd__o31ai_1
*I *2292:X O *D sky130_fd_sc_hd__and3_1
*CAP
1 *2316:A2 4.66805e-05
2 *2292:X 4.66805e-05
3 *2316:A2 *279:6 7.66879e-05
4 *2292:B *2316:A2 9.71197e-05
5 *242:12 *2316:A2 0.000208126
*RES
1 *2292:X *2316:A2 20.5732 
*END

*D_NET *279 0.00100803
*CONN
*I *2316:A3 I *D sky130_fd_sc_hd__o31ai_1
*I *2346:B1 I *D sky130_fd_sc_hd__a21o_1
*I *2293:Y O *D sky130_fd_sc_hd__a21oi_1
*CAP
1 *2316:A3 0
2 *2346:B1 0.0001335
3 *2293:Y 0.000135533
4 *279:6 0.000269033
5 *2346:B1 *542:138 7.67315e-05
6 *2292:B *2346:B1 0.000101545
7 *2316:A2 *279:6 7.66879e-05
8 *192:91 *2346:B1 0.000160732
9 *242:12 *279:6 5.42675e-05
*RES
1 *2293:Y *279:6 11.0679 
2 *279:6 *2346:B1 22.3714 
3 *279:6 *2316:A3 9.3 
*END

*D_NET *280 0.00270991
*CONN
*I *2338:A I *D sky130_fd_sc_hd__xnor2_1
*I *2368:A1 I *D sky130_fd_sc_hd__a21o_1
*I *2296:A I *D sky130_fd_sc_hd__or2_1
*I *2294:X O *D sky130_fd_sc_hd__and4_1
*CAP
1 *2338:A 0.000199185
2 *2368:A1 0.000138696
3 *2296:A 0
4 *2294:X 0.000137471
5 *280:21 0.000465993
6 *280:12 0.000265583
7 *2338:A *2336:A2 6.42095e-05
8 *2338:A *2338:B 3.57366e-05
9 *2338:A *325:6 1.97865e-05
10 *2368:A1 *2335:B 4.51611e-05
11 *2368:A1 *2335:C 5.33005e-05
12 *2368:A1 *2336:B1 6.73939e-05
13 *2368:A1 *2368:A2 5.33005e-05
14 *2368:A1 *323:14 3.17148e-05
15 *2368:A1 *527:12 0.000100823
16 *280:12 *2295:A2 9.71197e-05
17 *280:12 *2296:B 0.000148196
18 *280:12 *289:10 0.00012401
19 *280:12 *538:44 2.36032e-05
20 *280:12 *544:29 2.37761e-05
21 *280:21 *2296:B 9.90431e-05
22 *280:21 *2303:A_N 5.22701e-05
23 *280:21 *2336:A1 0.000266479
24 *280:21 *2336:A2 9.80173e-05
25 *280:21 *288:10 9.90367e-05
*RES
1 *2294:X *280:12 21.8 
2 *280:12 *2296:A 9.3 
3 *280:12 *280:21 4.25 
4 *280:21 *2368:A1 21.4071 
5 *280:21 *2338:A 12.2107 
*END

*D_NET *281 0.000659712
*CONN
*I *2296:B I *D sky130_fd_sc_hd__or2_1
*I *2295:Y O *D sky130_fd_sc_hd__a22oi_1
*CAP
1 *2296:B 8.30041e-05
2 *2295:Y 8.30041e-05
3 *2296:B *282:6 1.74352e-05
4 *2296:B *288:10 3.03304e-05
5 *2296:B *289:10 4.87953e-05
6 *2296:B *538:44 0.000149904
7 *280:12 *2296:B 0.000148196
8 *280:21 *2296:B 9.90431e-05
*RES
1 *2295:Y *2296:B 30.9036 
*END

*D_NET *282 0.00215829
*CONN
*I *2303:A_N I *D sky130_fd_sc_hd__nand2b_1
*I *2304:A I *D sky130_fd_sc_hd__xnor2_1
*I *2296:X O *D sky130_fd_sc_hd__or2_1
*CAP
1 *2303:A_N 0.000255684
2 *2304:A 0.000124752
3 *2296:X 0.00014162
4 *282:6 0.000522055
5 *2303:A_N *2303:B 2.59355e-05
6 *2303:A_N *2336:A2 5.30637e-06
7 *2303:A_N *527:12 0.000148911
8 *2303:A_N *527:18 2.59355e-05
9 *2303:A_N *566:18 7.83366e-05
10 *2304:A *2304:B 0.00021559
11 *2304:A *289:10 0.000101545
12 *2304:A *544:29 0.000307885
13 *282:6 *289:10 0.000135028
14 *2296:B *282:6 1.74352e-05
15 *280:21 *2303:A_N 5.22701e-05
*RES
1 *2296:X *282:6 11.0679 
2 *282:6 *2304:A 22.3714 
3 *282:6 *2303:A_N 22.9607 
*END

*D_NET *283 0.0183791
*CONN
*I *2178:C1 I *D sky130_fd_sc_hd__o211a_1
*I *2138:A I *D sky130_fd_sc_hd__xnor2_1
*I *2177:C1 I *D sky130_fd_sc_hd__a211o_1
*I *2092:A I *D sky130_fd_sc_hd__and3_1
*I *2094:B1 I *D sky130_fd_sc_hd__a21o_1
*I *2093:B1 I *D sky130_fd_sc_hd__a21oi_1
*I *2417:C I *D sky130_fd_sc_hd__or4b_1
*I *2037:A I *D sky130_fd_sc_hd__xnor2_2
*I *1982:Y O *D sky130_fd_sc_hd__inv_2
*CAP
1 *2178:C1 0
2 *2138:A 0.000601196
3 *2177:C1 0.000641027
4 *2092:A 0
5 *2094:B1 0
6 *2093:B1 0.000142744
7 *2417:C 0.000545776
8 *2037:A 2.32338e-05
9 *1982:Y 0
10 *283:102 0.000801372
11 *283:79 0.00165845
12 *283:50 0.00024306
13 *283:46 0.00019259
14 *283:18 0.00156043
15 *283:10 0.00190021
16 *283:4 0.00163377
17 *2037:A *477:16 0
18 *2093:B1 *2093:A1 5.2027e-05
19 *2093:B1 *571:10 8.45367e-05
20 *2138:A *2152:B 9.25014e-06
21 *2138:A *2152:C 0.000397571
22 *2138:A *471:97 3.75052e-05
23 *2138:A *498:31 1.55885e-05
24 *2138:A *501:14 0.000242213
25 *2417:C *2061:C1 4.43256e-05
26 *2417:C *2062:C1 2.61337e-05
27 *2417:C *2079:B1 0.000137762
28 *2417:C *477:18 4.18895e-05
29 *2417:C *542:92 4.71964e-05
30 *283:10 *2317:B 0
31 *283:10 *534:45 0.000396892
32 *283:10 *536:44 0
33 *283:18 *2043:A 0
34 *283:18 *2061:C1 6.44345e-05
35 *283:18 *477:16 0
36 *283:46 *571:10 0.00014183
37 *283:50 *571:10 0.000215346
38 *283:79 *1982:A 2.95726e-05
39 *283:79 *2170:C1 8.33655e-05
40 *283:79 *2238:A 6.72518e-05
41 *283:79 *471:97 0.000241743
42 *283:79 *534:45 4.18895e-05
43 *283:79 *542:92 8.37335e-05
44 *283:79 *543:81 0.000742134
45 *283:79 *543:110 0.000508125
46 *283:102 *2152:C 0.000493352
47 *283:102 *2238:A 0.000171368
48 *2061:B1 *283:18 0.000606096
49 *2091:A *283:10 6.6477e-06
50 *2091:A *283:18 1.19191e-05
51 *2091:B *283:18 0
52 *2091:B *283:46 2.32517e-05
53 *2091:B *283:50 3.14163e-05
54 *2092:C *283:50 2.0954e-05
55 *2093:A2 *2093:B1 5.49489e-05
56 *2098:C *283:18 0.000122951
57 *2137:A0 *283:10 0
58 *2162:A *2138:A 2.82057e-05
59 *2170:B1 *283:79 0.000148196
60 *2177:B1 *2177:C1 2.62395e-05
61 *2178:A1 *283:102 0
62 *2178:A2 *283:102 3.99614e-06
63 *2442:A *283:102 0.000144773
64 *2536:A *2138:A 0.000481568
65 *48:12 *283:10 0
66 *49:20 *283:18 0.000101545
67 *73:12 *283:18 0
68 *73:12 *283:46 5.52238e-05
69 *73:16 *283:46 5.52302e-05
70 *74:18 *2093:B1 4.0022e-05
71 *74:18 *283:50 2.95726e-05
72 *76:14 *2093:B1 5.52302e-05
73 *76:14 *283:50 0.000129515
74 *77:10 *2093:B1 2.18272e-05
75 *81:10 *283:10 0.000147835
76 *81:10 *283:46 5.52238e-05
77 *81:23 *283:10 0.000199997
78 *82:10 *283:18 0
79 *97:18 *2177:C1 0.000618272
80 *97:28 *283:79 7.80478e-05
81 *107:27 *283:79 0
82 *121:37 *2138:A 0.000103803
83 *130:27 *2138:A 4.43355e-05
84 *130:27 *283:102 4.17014e-05
85 *130:36 *283:102 6.87574e-05
86 *161:14 *2177:C1 5.71472e-05
87 *162:6 *283:102 3.14078e-05
88 *241:20 *2417:C 0.000372304
*RES
1 *1982:Y *283:4 9.3 
2 *283:4 *283:10 18.4643 
3 *283:10 *283:18 22.8571 
4 *283:18 *2037:A 9.72857 
5 *283:18 *2417:C 29.4429 
6 *283:10 *283:46 7.08929 
7 *283:46 *283:50 3.42857 
8 *283:50 *2093:B1 13.2821 
9 *283:50 *2094:B1 9.3 
10 *283:46 *2092:A 9.3 
11 *283:4 *283:79 25.0357 
12 *283:79 *2177:C1 24.2464 
13 *283:79 *283:102 11.8214 
14 *283:102 *2138:A 31.1929 
15 *283:102 *2178:C1 9.3 
*END

*D_NET *284 0.00248713
*CONN
*I *2301:A_N I *D sky130_fd_sc_hd__nand2b_1
*I *2302:A I *D sky130_fd_sc_hd__xnor2_1
*I *2297:X O *D sky130_fd_sc_hd__o21ba_1
*CAP
1 *2301:A_N 9.97873e-05
2 *2302:A 0
3 *2297:X 0.00042901
4 *284:12 0.000528797
5 *2301:A_N *2301:B 0.000225609
6 *284:12 *490:25 0.000505342
7 *284:12 *537:73 0.000226813
8 *284:12 *555:43 0.000118315
9 *2273:B *284:12 0.000226507
10 *2274:A *284:12 2.84109e-05
11 *2274:B *284:12 2.18985e-05
12 *254:12 *284:12 7.6644e-05
*RES
1 *2297:X *284:12 28.2107 
2 *284:12 *2302:A 9.3 
3 *284:12 *2301:A_N 11.4786 
*END

*D_NET *285 0.00162866
*CONN
*I *2323:B1 I *D sky130_fd_sc_hd__a31oi_2
*I *2299:B1 I *D sky130_fd_sc_hd__a21oi_2
*I *2298:X O *D sky130_fd_sc_hd__and3_1
*CAP
1 *2323:B1 7.83987e-05
2 *2299:B1 2.76792e-05
3 *2298:X 9.14998e-05
4 *285:10 0.000197578
5 *2299:B1 *2413:A 1.74352e-05
6 *2299:B1 *2413:B 9.41642e-05
7 *2299:B1 *286:6 5.33005e-05
8 *2323:B1 *2413:A 4.17014e-05
9 *2323:B1 *2413:B 0.000265453
10 *2323:B1 *311:12 7.43578e-06
11 *2323:B1 *523:12 0.000137983
12 *2323:B1 *537:90 4.38128e-05
13 *285:10 *2300:B 0.000320031
14 *285:10 *523:39 0.000179656
15 *285:10 *545:50 7.25296e-05
*RES
1 *2298:X *285:10 22.3714 
2 *285:10 *2299:B1 10.2464 
3 *285:10 *2323:B1 12.3 
*END

*D_NET *286 0.00436908
*CONN
*I *2323:A3 I *D sky130_fd_sc_hd__a31oi_2
*I *2300:B I *D sky130_fd_sc_hd__xnor2_1
*I *2299:Y O *D sky130_fd_sc_hd__a21oi_2
*CAP
1 *2323:A3 0
2 *2300:B 0.000890818
3 *2299:Y 2.76144e-05
4 *286:6 0.000918432
5 *2300:B *2271:A 1.00375e-05
6 *2300:B *2298:A 3.69865e-05
7 *2300:B *523:39 2.82976e-05
8 *2300:B *523:58 0.000215159
9 *2300:B *545:40 0
10 *2300:B *545:50 6.79451e-06
11 *2300:B *545:52 2.8266e-06
12 *2300:B *545:109 0
13 *2300:B *548:18 0.000262948
14 *2300:B *548:28 0.000342495
15 *2300:B *548:88 0.000301764
16 *2300:B *548:94 7.75093e-05
17 *2300:B *548:109 0.000290271
18 *2300:B *549:12 0
19 *286:6 *2413:A 5.17614e-05
20 *286:6 *2413:B 2.28499e-05
21 *2297:B1_N *2300:B 1.59782e-05
22 *2298:C *2300:B 0.000308599
23 *2299:B1 *286:6 5.33005e-05
24 *38:54 *2300:B 0.000148903
25 *256:10 *2300:B 3.5707e-05
26 *285:10 *2300:B 0.000320031
*RES
1 *2299:Y *286:6 10.2464 
2 *286:6 *2300:B 42.7107 
3 *286:6 *2323:A3 9.3 
*END

*D_NET *287 0.00122126
*CONN
*I *2301:B I *D sky130_fd_sc_hd__nand2b_1
*I *2302:B I *D sky130_fd_sc_hd__xnor2_1
*I *2300:Y O *D sky130_fd_sc_hd__xnor2_1
*CAP
1 *2301:B 0.000115747
2 *2302:B 0
3 *2300:Y 0.000163653
4 *287:12 0.0002794
5 *2301:B *289:10 9.63036e-05
6 *2301:B *549:107 0.000113899
7 *287:12 *490:25 7.60306e-05
8 *287:12 *537:73 0.000150618
9 *2301:A_N *2301:B 0.000225609
*RES
1 *2300:Y *287:12 21.6036 
2 *287:12 *2302:B 9.3 
3 *287:12 *2301:B 12.858 
*END

*D_NET *288 0.00158084
*CONN
*I *2336:A1 I *D sky130_fd_sc_hd__a21oi_1
*I *2335:A I *D sky130_fd_sc_hd__and3_1
*I *2301:Y O *D sky130_fd_sc_hd__nand2b_1
*CAP
1 *2336:A1 0.000182434
2 *2335:A 5.55277e-05
3 *2301:Y 0.0002559
4 *288:10 0.000493861
5 *2335:A *538:44 0
6 *2335:A *544:29 0.000103253
7 *288:10 *289:10 9.40156e-05
8 *2296:B *288:10 3.03304e-05
9 *280:21 *2336:A1 0.000266479
10 *280:21 *288:10 9.90367e-05
*RES
1 *2301:Y *288:10 13.675 
2 *288:10 *2335:A 19.6393 
3 *288:10 *2336:A1 11.8893 
*END

*D_NET *289 0.00271587
*CONN
*I *2304:B I *D sky130_fd_sc_hd__xnor2_1
*I *2303:B I *D sky130_fd_sc_hd__nand2b_1
*I *2302:Y O *D sky130_fd_sc_hd__xnor2_1
*CAP
1 *2304:B 0.000101082
2 *2303:B 0.000261214
3 *2302:Y 0.000224611
4 *289:10 0.000586907
5 *2303:B *2295:A2 7.63225e-05
6 *2303:B *527:18 4.00868e-05
7 *2304:B *2294:A 5.00087e-06
8 *2304:B *2295:A1 0.000146474
9 *2304:B *538:44 1.21416e-05
10 *2304:B *544:29 1.41029e-05
11 *2304:B *549:107 0
12 *289:10 *544:29 1.08359e-05
13 *289:10 *549:107 0.000395873
14 *2296:B *289:10 4.87953e-05
15 *2301:B *289:10 9.63036e-05
16 *2303:A_N *2303:B 2.59355e-05
17 *2304:A *2304:B 0.00021559
18 *2304:A *289:10 0.000101545
19 *280:12 *289:10 0.00012401
20 *282:6 *289:10 0.000135028
21 *288:10 *289:10 9.40156e-05
*RES
1 *2302:Y *289:10 20.9071 
2 *289:10 *2303:B 18.0723 
3 *289:10 *2304:B 16.9607 
*END

*D_NET *290 0.00200244
*CONN
*I *2336:A2 I *D sky130_fd_sc_hd__a21oi_1
*I *2335:B I *D sky130_fd_sc_hd__and3_1
*I *2303:Y O *D sky130_fd_sc_hd__nand2b_1
*CAP
1 *2336:A2 7.98395e-05
2 *2335:B 0.00023946
3 *2303:Y 8.64671e-05
4 *290:8 0.000405767
5 *2335:B *2335:C 1.57523e-05
6 *2335:B *2336:B1 5.01213e-05
7 *2335:B *2337:A 0.000264428
8 *2335:B *2368:A2 6.05161e-06
9 *2335:B *323:14 5.43491e-05
10 *2335:B *529:41 0.000218741
11 *2335:B *534:109 0.000139907
12 *2336:A2 *325:6 5.33334e-05
13 *290:8 *527:12 0
14 *290:8 *529:41 0.000175526
15 *2303:A_N *2336:A2 5.30637e-06
16 *2338:A *2336:A2 6.42095e-05
17 *2368:A1 *2335:B 4.51611e-05
18 *280:21 *2336:A2 9.80173e-05
*RES
1 *2303:Y *290:8 16.05 
2 *290:8 *2335:B 20.4964 
3 *290:8 *2336:A2 15.9786 
*END

*D_NET *291 0.00500603
*CONN
*I *2305:B1 I *D sky130_fd_sc_hd__o21ai_1
*I *2306:C I *D sky130_fd_sc_hd__or3_1
*I *2304:Y O *D sky130_fd_sc_hd__xnor2_1
*CAP
1 *2305:B1 0.00040145
2 *2306:C 0.00036538
3 *2304:Y 0.000203703
4 *291:8 0.000970532
5 *2305:B1 *549:111 0.000437927
6 *2305:B1 *555:68 0.000294851
7 *2305:B1 *566:18 0.000428684
8 *2306:C *2314:A3 0.000526407
9 *291:8 *527:46 1.3142e-05
10 *291:8 *549:111 0.000669033
11 *291:8 *566:18 0.000694927
*RES
1 *2304:Y *291:8 22.7286 
2 *291:8 *2306:C 20.5143 
3 *291:8 *2305:B1 25.2643 
*END

*D_NET *292 0.00218802
*CONN
*I *2307:A I *D sky130_fd_sc_hd__and2_1
*I *2339:A I *D sky130_fd_sc_hd__or2_1
*I *2341:A I *D sky130_fd_sc_hd__nand2_1
*I *2305:Y O *D sky130_fd_sc_hd__o21ai_1
*CAP
1 *2307:A 7.84897e-05
2 *2339:A 3.35945e-05
3 *2341:A 0
4 *2305:Y 0.00011557
5 *292:18 0.000357157
6 *292:10 0.000517623
7 *2307:A *2307:B 9.71197e-05
8 *2339:A *2339:B 5.71472e-05
9 *2339:A *2342:A 5.71472e-05
10 *2339:A *2410:A2 5.52302e-05
11 *292:10 *529:41 0
12 *292:10 *555:68 5.52238e-05
13 *292:18 *2339:B 5.7661e-06
14 *292:18 *2342:A 0.000197984
15 *292:18 *2342:B 0.000155625
16 *292:18 *2441:B1 0
17 *292:18 *297:8 5.57914e-05
18 *292:18 *297:14 4.89924e-05
19 *292:18 *529:41 0
20 *2306:A *292:18 2.00751e-05
21 *2306:B *292:10 0.000151333
22 *2306:B *292:18 0.000128154
23 *266:10 *292:10 0
*RES
1 *2305:Y *292:10 16.2821 
2 *292:10 *292:18 12.5714 
3 *292:18 *2341:A 9.3 
4 *292:18 *2339:A 10.6571 
5 *292:10 *2307:A 15.1571 
*END

*D_NET *293 0.000563427
*CONN
*I *2307:B I *D sky130_fd_sc_hd__and2_1
*I *2306:X O *D sky130_fd_sc_hd__or3_1
*CAP
1 *2307:B 0.000157844
2 *2306:X 0.000157844
3 *2307:B *545:140 0
4 *2276:B *2307:B 0
5 *2306:A *2307:B 0.000150618
6 *2307:A *2307:B 9.71197e-05
*RES
1 *2306:X *2307:B 30.9036 
*END

*D_NET *294 0.0155321
*CONN
*I *2172:C1 I *D sky130_fd_sc_hd__o211a_1
*I *2018:B1 I *D sky130_fd_sc_hd__a21oi_2
*I *2017:B I *D sky130_fd_sc_hd__and3_1
*I *2057:A2 I *D sky130_fd_sc_hd__a221o_1
*I *2087:A I *D sky130_fd_sc_hd__xnor2_1
*I *1983:Y O *D sky130_fd_sc_hd__inv_2
*CAP
1 *2172:C1 0.00144016
2 *2018:B1 0.000586534
3 *2017:B 0
4 *2057:A2 0.000247696
5 *2087:A 0.00011365
6 *1983:Y 0
7 *294:46 0.000738888
8 *294:18 0.0021346
9 *294:12 0.00265983
10 *294:6 0.00217439
11 *2018:B1 *2017:C 3.80953e-06
12 *2018:B1 *2033:A2 5.33005e-05
13 *2018:B1 *2047:A1 0.00012747
14 *2018:B1 *460:18 9.10731e-05
15 *2057:A2 *2062:A3 0
16 *2057:A2 *484:12 0
17 *2087:A *483:12 0
18 *2087:A *484:12 0
19 *2172:C1 *1981:A 0
20 *2172:C1 *2123:A 0.000274288
21 *2172:C1 *2347:A1 0.000358389
22 *2172:C1 *2362:A 0
23 *2172:C1 *546:33 1.41029e-05
24 *2172:C1 *550:97 7.73662e-05
25 *294:12 *2004:A 0
26 *294:12 *2059:B 0.000831054
27 *294:12 *2533:A 7.49239e-05
28 *294:12 *459:8 0
29 *294:12 *470:12 0
30 *294:12 *477:16 7.83587e-05
31 *294:12 *516:57 0
32 *294:12 *542:127 0.00108217
33 *294:12 *543:81 1.94945e-05
34 *294:12 *550:97 0.000168818
35 *294:18 *2050:A1 9.3111e-05
36 *294:18 *516:57 9.74783e-05
37 *294:18 *560:8 3.65178e-05
38 *294:46 *2017:C 6.33946e-06
39 *294:46 *2033:A2 0
40 *294:46 *2533:A 3.18676e-05
41 *2052:B *2057:A2 2.1892e-05
42 *2052:B *2087:A 2.8266e-06
43 *2056:A2 *2057:A2 8.06331e-05
44 *2057:B1 *2057:A2 1.04232e-05
45 *2057:B2 *2057:A2 2.42338e-05
46 *2057:C1 *2057:A2 0
47 *2120:A *2172:C1 2.89016e-05
48 *34:6 *294:18 0.000156901
49 *34:12 *294:18 0.000102207
50 *35:8 *2057:A2 5.30892e-05
51 *35:14 *2057:A2 0.000295784
52 *39:14 *2057:A2 7.38777e-05
53 *39:16 *2057:A2 0.000114665
54 *107:10 *2172:C1 0.000180852
55 *219:23 *2172:C1 0.000770166
*RES
1 *1983:Y *294:6 13.8 
2 *294:6 *294:12 25.2946 
3 *294:12 *294:18 27.0268 
4 *294:18 *2087:A 15.7464 
5 *294:18 *2057:A2 21.0545 
6 *294:12 *294:46 2.8125 
7 *294:46 *2017:B 9.3 
8 *294:46 *2018:B1 16.7286 
9 *294:6 *2172:C1 38.0321 
*END

*D_NET *295 0.000308427
*CONN
*I *2309:B I *D sky130_fd_sc_hd__nand2_1
*I *2308:B I *D sky130_fd_sc_hd__or2_1
*I *2307:X O *D sky130_fd_sc_hd__and2_1
*CAP
1 *2309:B 1.24159e-05
2 *2308:B 8.98304e-05
3 *2307:X 2.79386e-05
4 *295:6 0.000130185
5 *2308:A *2308:B 4.22908e-05
6 *2308:A *2309:B 5.7661e-06
*RES
1 *2307:X *295:6 9.83571 
2 *295:6 *2308:B 11.0857 
3 *295:6 *2309:B 9.72857 
*END

*D_NET *296 0.00120932
*CONN
*I *2314:A2 I *D sky130_fd_sc_hd__a311o_1
*I *2308:X O *D sky130_fd_sc_hd__or2_1
*CAP
1 *2314:A2 0.000448057
2 *2308:X 0.000448057
3 *2314:A2 *514:35 0.00015234
4 *2314:A2 *514:43 1.02504e-05
5 *2314:A2 *544:29 0.000150618
*RES
1 *2308:X *2314:A2 33.7786 
*END

*D_NET *297 0.00318504
*CONN
*I *2314:A3 I *D sky130_fd_sc_hd__a311o_1
*I *2344:A I *D sky130_fd_sc_hd__nor2_1
*I *2343:A I *D sky130_fd_sc_hd__nand2_1
*I *2345:A1 I *D sky130_fd_sc_hd__o21a_1
*I *2309:Y O *D sky130_fd_sc_hd__nand2_1
*CAP
1 *2314:A3 0.000280781
2 *2344:A 0
3 *2343:A 1.45455e-05
4 *2345:A1 1.40568e-05
5 *2309:Y 8.33179e-05
6 *297:20 0.0001809
7 *297:14 0.000300853
8 *297:8 0.000512654
9 *2314:A3 *2315:C1 5.03772e-05
10 *2343:A *2343:B 5.7661e-06
11 *2343:A *2345:A2 5.31567e-06
12 *2343:A *514:58 9.7049e-06
13 *2345:A1 *2345:A2 2.89016e-05
14 *2345:A1 *514:58 5.52238e-05
15 *297:8 *529:41 0
16 *297:14 *2342:B 4.46186e-06
17 *297:14 *332:8 5.52238e-05
18 *297:14 *514:58 2.44318e-05
19 *297:14 *529:41 0
20 *297:20 *2343:B 0
21 *297:20 *2345:A2 5.03772e-05
22 *297:20 *332:8 0.000406898
23 *297:20 *514:58 0.000470056
24 *2306:C *2314:A3 0.000526407
25 *292:18 *297:8 5.57914e-05
26 *292:18 *297:14 4.89924e-05
*RES
1 *2309:Y *297:8 15.7464 
2 *297:8 *297:14 7.28571 
3 *297:14 *297:20 6.42857 
4 *297:20 *2345:A1 9.83571 
5 *297:20 *2343:A 9.72857 
6 *297:14 *2344:A 9.3 
7 *297:8 *2314:A3 20.0857 
*END

*D_NET *298 0.000994681
*CONN
*I *2311:B2 I *D sky130_fd_sc_hd__o22a_1
*I *2310:Y O *D sky130_fd_sc_hd__a21oi_1
*CAP
1 *2311:B2 0.000264007
2 *2310:Y 0.000264007
3 *2311:B2 *2314:B1 0
4 *2311:B2 *2314:C1 0
5 *2311:B2 *2315:C1 5.7903e-06
6 *2311:B2 *2358:B2 4.03251e-05
7 *2311:B2 *519:44 9.25014e-06
8 *2311:B2 *519:55 0.000122446
9 *2311:B2 *519:68 0.000194691
10 *199:54 *2311:B2 9.41642e-05
*RES
1 *2310:Y *2311:B2 32.6179 
*END

*D_NET *299 0.000664879
*CONN
*I *2314:B1 I *D sky130_fd_sc_hd__a311o_1
*I *2311:X O *D sky130_fd_sc_hd__o22a_1
*CAP
1 *2314:B1 0.000224261
2 *2311:X 0.000224261
3 *2314:B1 *2314:C1 1.02504e-05
4 *2314:B1 *2345:B1 6.05161e-06
5 *2314:B1 *2358:B1 0.000100476
6 *2314:B1 *2358:B2 5.09515e-05
7 *2314:B1 *514:43 4.86282e-05
8 *2314:B1 *519:44 0
9 *2314:B1 *544:29 0
10 *2311:B2 *2314:B1 0
*RES
1 *2311:X *2314:B1 31.8143 
*END

*D_NET *300 0.000393245
*CONN
*I *2314:C1 I *D sky130_fd_sc_hd__a311o_1
*I *2312:X O *D sky130_fd_sc_hd__and2_1
*CAP
1 *2314:C1 0.000159923
2 *2312:X 0.000159923
3 *2314:C1 *2286:A1 2.51343e-06
4 *2314:C1 *2315:C1 7.69776e-06
5 *2314:C1 *2358:B2 4.46186e-06
6 *2314:C1 *514:35 4.8476e-05
7 *2311:B2 *2314:C1 0
8 *2314:B1 *2314:C1 1.02504e-05
*RES
1 *2312:X *2314:C1 30.0821 
*END

*D_NET *301 0.000564065
*CONN
*I *2315:B1 I *D sky130_fd_sc_hd__a211oi_1
*I *2313:X O *D sky130_fd_sc_hd__a32o_1
*CAP
1 *2315:B1 0.000175863
2 *2313:X 0.000175863
3 *2315:B1 *2360:A 0
4 *2315:B1 *526:67 2.56694e-05
5 *2315:B1 *580:24 0.000186669
*RES
1 *2313:X *2315:B1 30.4036 
*END

*D_NET *302 0.00680841
*CONN
*I *2315:C1 I *D sky130_fd_sc_hd__a211oi_1
*I *2314:X O *D sky130_fd_sc_hd__a311o_1
*CAP
1 *2315:C1 0.00174008
2 *2314:X 0.00174008
3 *2315:C1 *2312:A 0
4 *2315:C1 *2357:A1 0.000375871
5 *2315:C1 *2358:B1 4.35336e-05
6 *2315:C1 *2358:C1 5.71472e-05
7 *2315:C1 *2441:B1 0.000443511
8 *2315:C1 *326:59 1.70307e-05
9 *2315:C1 *326:61 5.80706e-06
10 *2315:C1 *490:49 0.000635947
11 *2315:C1 *497:41 0.000467556
12 *2315:C1 *497:62 9.37043e-05
13 *2315:C1 *519:98 7.22374e-05
14 *2315:C1 *519:104 0.000116915
15 *2315:C1 *526:67 9.87983e-06
16 *2315:C1 *537:65 0.000925257
17 *2287:A2 *2315:C1 0
18 *2311:B2 *2315:C1 5.7903e-06
19 *2314:A3 *2315:C1 5.03772e-05
20 *2314:C1 *2315:C1 7.69776e-06
*RES
1 *2314:X *2315:C1 44.2623 
*END

*D_NET *303 0.00199891
*CONN
*I *2316:B1 I *D sky130_fd_sc_hd__o31ai_1
*I *2315:Y O *D sky130_fd_sc_hd__a211oi_1
*CAP
1 *2316:B1 0.000291639
2 *2315:Y 0.000291639
3 *2316:B1 *326:59 9.80173e-05
4 *2316:B1 *526:67 0.000457262
5 *2287:A2 *2316:B1 0.000527085
6 *2292:A *2316:B1 2.68e-05
7 *2292:C *2316:B1 0.000125693
8 *197:12 *2316:B1 0
9 *242:12 *2316:B1 0.00018077
*RES
1 *2315:Y *2316:B1 37.1179 
*END

*D_NET *304 0.00146071
*CONN
*I *2144:A1_N I *D sky130_fd_sc_hd__o2bb2a_1
*I *2143:A1 I *D sky130_fd_sc_hd__o21bai_1
*I *1984:Y O *D sky130_fd_sc_hd__inv_2
*CAP
1 *2144:A1_N 0.000135779
2 *2143:A1 0.000251537
3 *1984:Y 0
4 *304:4 0.000387316
5 *2143:A1 *534:24 0.00057284
6 *2144:A1_N *2144:B2 0
7 *2143:A2 *2143:A1 5.52238e-05
8 *2144:B1 *2143:A1 2.44318e-05
9 *2145:B1 *2144:A1_N 3.35852e-05
*RES
1 *1984:Y *304:4 9.3 
2 *304:4 *2143:A1 24.5857 
3 *304:4 *2144:A1_N 11.7866 
*END

*D_NET *305 0.00190354
*CONN
*I *2321:A I *D sky130_fd_sc_hd__nor3_1
*I *2320:B1 I *D sky130_fd_sc_hd__o21a_1
*I *2317:Y O *D sky130_fd_sc_hd__nand2_1
*CAP
1 *2321:A 0.000126986
2 *2320:B1 0.000126346
3 *2317:Y 0.000162291
4 *305:12 0.000415624
5 *2320:B1 *2320:A1 9.90367e-05
6 *2320:B1 *2370:A2 9.46929e-05
7 *2320:B1 *306:12 3.75052e-05
8 *2320:B1 *306:23 5.33005e-05
9 *2320:B1 *519:23 1.55885e-05
10 *2320:B1 *538:24 3.06466e-05
11 *2320:B1 *540:51 1.59145e-05
12 *2320:B1 *540:53 6.65302e-05
13 *2321:A *538:24 0.000216147
14 *2321:A *540:49 0.000105824
15 *2321:A *540:51 4.22135e-06
16 *305:12 *2318:D 5.52238e-05
17 *305:12 *2319:B1 0
18 *305:12 *2319:B2 0.000206618
19 *305:12 *525:47 5.52238e-05
20 *259:12 *2321:A 1.58163e-05
*RES
1 *2317:Y *305:12 16.9429 
2 *305:12 *2320:B1 17.5143 
3 *305:12 *2321:A 17.1929 
*END

*D_NET *306 0.00283894
*CONN
*I *2321:B I *D sky130_fd_sc_hd__nor3_1
*I *2370:B1 I *D sky130_fd_sc_hd__a211oi_1
*I *2369:A1 I *D sky130_fd_sc_hd__o211a_1
*I *2320:A1 I *D sky130_fd_sc_hd__o21a_1
*I *2318:X O *D sky130_fd_sc_hd__and4_1
*CAP
1 *2321:B 3.5592e-05
2 *2370:B1 0
3 *2369:A1 0.00021366
4 *2320:A1 2.45086e-05
5 *2318:X 7.03212e-05
6 *306:23 0.00042523
7 *306:12 0.000389082
8 *306:8 0.000258917
9 *2320:A1 *2320:A2 5.71472e-05
10 *2320:A1 *519:23 6.05161e-06
11 *2321:B *2321:C 0.00010326
12 *2321:B *538:24 4.89264e-05
13 *2369:A1 *2369:A2 2.62395e-05
14 *2369:A1 *2370:A1 8.00806e-05
15 *2369:A1 *2370:C1 0
16 *2369:A1 *309:12 0
17 *2369:A1 *323:14 0.000126439
18 *2369:A1 *533:16 0
19 *306:8 *2317:A 9.71197e-05
20 *306:12 *2320:A2 0.000213269
21 *306:12 *2321:C 4.49293e-05
22 *306:12 *538:24 5.38813e-05
23 *306:12 *540:53 0
24 *306:23 *2320:A2 4.18895e-05
25 *306:23 *2322:A 5.71472e-05
26 *306:23 *2370:A2 8.02398e-05
27 *306:23 *2370:C1 0.000195169
28 *2320:B1 *2320:A1 9.90367e-05
29 *2320:B1 *306:12 3.75052e-05
30 *2320:B1 *306:23 5.33005e-05
*RES
1 *2318:X *306:8 14.7464 
2 *306:8 *306:12 7.96429 
3 *306:12 *2320:A1 10.2464 
4 *306:12 *306:23 5.07143 
5 *306:23 *2369:A1 22.1571 
6 *306:23 *2370:B1 9.3 
7 *306:8 *2321:B 15.1393 
*END

*D_NET *307 0.00132626
*CONN
*I *2321:C I *D sky130_fd_sc_hd__nor3_1
*I *2320:A2 I *D sky130_fd_sc_hd__o21a_1
*I *2319:Y O *D sky130_fd_sc_hd__a22oi_1
*CAP
1 *2321:C 6.41396e-05
2 *2320:A2 0.000141716
3 *2319:Y 0
4 *307:6 0.000205856
5 *2320:A2 *540:53 0
6 *2320:A2 *544:29 0.000237449
7 *2321:C *538:24 1.69115e-05
8 *2321:C *544:29 0.000199698
9 *2320:A1 *2320:A2 5.71472e-05
10 *2321:B *2321:C 0.00010326
11 *306:12 *2320:A2 0.000213269
12 *306:12 *2321:C 4.49293e-05
13 *306:23 *2320:A2 4.18895e-05
*RES
1 *2319:Y *307:6 13.8 
2 *307:6 *2320:A2 17.9071 
3 *307:6 *2321:C 16.3536 
*END

*D_NET *308 0.000104357
*CONN
*I *2322:A I *D sky130_fd_sc_hd__nor2_1
*I *2320:X O *D sky130_fd_sc_hd__o21a_1
*CAP
1 *2322:A 7.67105e-06
2 *2320:X 7.67105e-06
3 *2322:A *2370:A2 3.18676e-05
4 *306:23 *2322:A 5.71472e-05
*RES
1 *2320:X *2322:A 19.1357 
*END

*D_NET *309 0.00229579
*CONN
*I *2369:A2 I *D sky130_fd_sc_hd__o211a_1
*I *2322:B I *D sky130_fd_sc_hd__nor2_1
*I *2370:C1 I *D sky130_fd_sc_hd__a211oi_1
*I *2321:Y O *D sky130_fd_sc_hd__nor3_1
*CAP
1 *2369:A2 0.00011625
2 *2322:B 0
3 *2370:C1 0.000196585
4 *2321:Y 0.000244809
5 *309:12 0.000268042
6 *309:10 0.000432516
7 *2369:A2 *2317:A 0.000181796
8 *2369:A2 *2369:C1 5.52302e-05
9 *2370:C1 *323:14 0
10 *2370:C1 *566:18 5.22205e-05
11 *309:10 *534:109 0.00012401
12 *309:10 *566:18 0.000115474
13 *309:12 *2370:A1 4.16114e-05
14 *309:12 *534:109 3.34295e-05
15 *309:12 *566:18 0.00019187
16 *2369:A1 *2369:A2 2.62395e-05
17 *2369:A1 *2370:C1 0
18 *2369:A1 *309:12 0
19 *259:12 *309:10 2.05418e-05
20 *306:23 *2370:C1 0.000195169
*RES
1 *2321:Y *309:10 17.6214 
2 *309:10 *309:12 2.55357 
3 *309:12 *2370:C1 17.8 
4 *309:12 *2322:B 13.8 
5 *309:10 *2369:A2 16.4071 
*END

*D_NET *310 0.00167137
*CONN
*I *2333:A I *D sky130_fd_sc_hd__nand2_1
*I *2332:A I *D sky130_fd_sc_hd__or2_1
*I *2322:Y O *D sky130_fd_sc_hd__nor2_1
*CAP
1 *2333:A 0.000153813
2 *2332:A 0
3 *2322:Y 0.00026142
4 *310:12 0.000415233
5 *2333:A *2333:B 0.000115951
6 *2333:A *2334:A 5.71472e-05
7 *2333:A *2334:B 9.99644e-06
8 *2333:A *2391:C 0
9 *2333:A *323:14 0.000144773
10 *310:12 *2333:B 5.62995e-05
11 *310:12 *320:12 0.000105163
12 *310:12 *323:14 5.71472e-05
13 *310:12 *566:18 0.00029443
*RES
1 *2322:Y *310:12 24.6571 
2 *310:12 *2332:A 9.3 
3 *310:12 *2333:A 13.1393 
*END

*D_NET *311 0.00223396
*CONN
*I *2330:A I *D sky130_fd_sc_hd__or3_1
*I *2331:A I *D sky130_fd_sc_hd__xnor2_1
*I *2323:Y O *D sky130_fd_sc_hd__a31oi_2
*CAP
1 *2330:A 0.000161096
2 *2331:A 0
3 *2323:Y 0.00036406
4 *311:12 0.000525156
5 *2330:A *2331:B 4.25716e-05
6 *2330:A *2432:A 0.00018372
7 *2330:A *317:34 1.02504e-05
8 *2330:A *519:23 0
9 *2330:A *566:18 9.24299e-05
10 *311:12 *2331:B 3.34366e-05
11 *311:12 *2376:A 5.91282e-05
12 *311:12 *2376:B 0.000100625
13 *311:12 *2429:A1 0.000144773
14 *311:12 *2429:A2 5.52302e-05
15 *311:12 *2431:A 0.000227526
16 *311:12 *320:12 0
17 *311:12 *519:23 0.000175505
18 *311:12 *537:90 2.77173e-05
19 *311:12 *555:18 2.32993e-05
20 *311:12 *566:18 0
21 *2323:B1 *311:12 7.43578e-06
*RES
1 *2323:Y *311:12 27.2464 
2 *311:12 *2331:A 9.3 
3 *311:12 *2330:A 22.3179 
*END

*D_NET *312 0.00170423
*CONN
*I *2327:B1 I *D sky130_fd_sc_hd__o21a_1
*I *2328:A I *D sky130_fd_sc_hd__nor3_1
*I *2324:Y O *D sky130_fd_sc_hd__nand2_1
*CAP
1 *2327:B1 6.54773e-05
2 *2328:A 8.60575e-05
3 *2324:Y 0.000110751
4 *312:6 0.000262286
5 *2327:B1 *520:12 0.000181796
6 *2327:B1 *566:16 0
7 *2327:B1 *577:14 9.02133e-05
8 *2328:A *316:10 6.97972e-05
9 *2328:A *317:10 1.46717e-05
10 *2328:A *375:14 6.8646e-06
11 *2328:A *519:8 8.06331e-05
12 *312:6 *2324:A 0.00018077
13 *312:6 *313:8 8.18783e-05
14 *312:6 *375:14 0.000353079
15 *312:6 *448:42 1.74352e-05
16 *312:6 *520:12 9.50797e-05
17 *312:6 *577:14 7.43578e-06
*RES
1 *2324:Y *312:6 13.9429 
2 *312:6 *2328:A 20.55 
3 *312:6 *2327:B1 11.4964 
*END

*D_NET *313 0.00354945
*CONN
*I *2328:B I *D sky130_fd_sc_hd__nor3_1
*I *2327:A1 I *D sky130_fd_sc_hd__o21a_1
*I *2383:A I *D sky130_fd_sc_hd__nor3_1
*I *2384:A1 I *D sky130_fd_sc_hd__o21a_1
*I *2325:X O *D sky130_fd_sc_hd__and3_1
*CAP
1 *2328:B 0.000213324
2 *2327:A1 0
3 *2383:A 7.70193e-05
4 *2384:A1 9.3994e-05
5 *2325:X 0.00037156
6 *313:32 0.000236567
7 *313:10 0.000218683
8 *313:8 0.000442473
9 *2328:B *2328:C 0.000297867
10 *2328:B *2385:A 5.9483e-05
11 *2328:B *2385:B 1.98839e-05
12 *2328:B *490:14 1.21258e-05
13 *2383:A *2383:B 1.32552e-05
14 *2383:A *2383:C 5.52302e-05
15 *2383:A *2385:A 0.00010096
16 *2384:A1 *2383:B 2.44318e-05
17 *2384:A1 *2383:C 0.000211249
18 *2384:A1 *314:10 0.000371059
19 *2384:A1 *375:14 0.000144773
20 *313:8 *577:14 0.00030926
21 *313:10 *2385:A 2.56601e-05
22 *313:10 *314:10 9.30022e-05
23 *313:10 *577:14 0
24 *313:32 *2328:C 1.02504e-05
25 *313:32 *2385:A 1.88048e-05
26 *313:32 *314:10 4.66511e-05
27 *312:6 *313:8 8.18783e-05
*RES
1 *2325:X *313:8 18.8536 
2 *313:8 *313:10 1.33929 
3 *313:10 *2384:A1 17.9429 
4 *313:10 *2383:A 15.5679 
5 *313:8 *313:32 0.732143 
6 *313:32 *2327:A1 13.8 
7 *313:32 *2328:B 18.2286 
*END

*D_NET *314 0.00226785
*CONN
*I *2328:C I *D sky130_fd_sc_hd__nor3_1
*I *2327:A2 I *D sky130_fd_sc_hd__o21a_1
*I *2326:Y O *D sky130_fd_sc_hd__a21oi_1
*CAP
1 *2328:C 0.000139285
2 *2327:A2 0
3 *2326:Y 0.000221491
4 *314:10 0.000360776
5 *2328:C *2385:B 9.41642e-05
6 *2328:C *377:8 7.33494e-06
7 *2328:C *490:14 1.98839e-05
8 *2328:C *566:18 0.000171375
9 *314:10 *2326:B1 5.30637e-06
10 *314:10 *2383:B 0.000142856
11 *314:10 *2384:A2 0.00014285
12 *314:10 *317:10 3.15739e-05
13 *314:10 *375:14 4.88637e-05
14 *314:10 *377:8 6.32633e-05
15 *2328:B *2328:C 0.000297867
16 *2384:A1 *314:10 0.000371059
17 *313:10 *314:10 9.30022e-05
18 *313:32 *2328:C 1.02504e-05
19 *313:32 *314:10 4.66511e-05
*RES
1 *2326:Y *314:10 20.8893 
2 *314:10 *2327:A2 13.8 
3 *314:10 *2328:C 18.1393 
*END

*D_NET *315 0.00245426
*CONN
*I *2208:C I *D sky130_fd_sc_hd__or4b_4
*I *1986:B I *D sky130_fd_sc_hd__and3b_2
*I *2203:D1 I *D sky130_fd_sc_hd__o2111a_1
*I *1985:Y O *D sky130_fd_sc_hd__nor2_1
*CAP
1 *2208:C 8.96647e-05
2 *1986:B 0
3 *2203:D1 4.74727e-05
4 *1985:Y 0.000188094
5 *315:23 0.000347139
6 *315:8 0.00049304
7 *2203:D1 *326:22 5.52302e-05
8 *2203:D1 *530:46 8.08022e-05
9 *315:8 *1985:A 0
10 *315:8 *1985:B 9.22948e-05
11 *315:8 *2207:B 1.40849e-05
12 *315:8 *2207:C 9.24395e-05
13 *315:8 *2213:A_N 0.000202128
14 *315:8 *530:46 0.000137939
15 *2203:B1 *2203:D1 4.02462e-05
16 *2203:B1 *315:8 4.78056e-05
17 *188:10 *2208:C 0
18 *192:12 *2208:C 7.6644e-05
19 *197:66 *2203:D1 2.59355e-05
20 *197:66 *2208:C 4.27935e-05
21 *197:66 *315:23 0.000348213
22 *230:30 *315:8 3.2293e-05
*RES
1 *1985:Y *315:8 19.6929 
2 *315:8 *2203:D1 15.3714 
3 *315:8 *315:23 7.91071 
4 *315:23 *1986:B 9.3 
5 *315:23 *2208:C 19.8714 
*END

*D_NET *316 0.00118614
*CONN
*I *2329:A I *D sky130_fd_sc_hd__nor2_1
*I *2330:B I *D sky130_fd_sc_hd__or3_1
*I *2327:X O *D sky130_fd_sc_hd__o21a_1
*CAP
1 *2329:A 8.40949e-05
2 *2330:B 0
3 *2327:X 0.000220829
4 *316:10 0.000304924
5 *2329:A *2329:B 4.50908e-05
6 *316:10 *317:10 8.00806e-05
7 *316:10 *317:34 0.000381325
8 *316:10 *519:8 0
9 *316:10 *519:23 0
10 *2328:A *316:10 6.97972e-05
*RES
1 *2327:X *316:10 24.1929 
2 *316:10 *2330:B 9.3 
3 *316:10 *2329:A 10.9964 
*END

*D_NET *317 0.00316472
*CONN
*I *2329:B I *D sky130_fd_sc_hd__nor2_1
*I *2330:C I *D sky130_fd_sc_hd__or3_1
*I *2383:B I *D sky130_fd_sc_hd__nor3_1
*I *2384:A2 I *D sky130_fd_sc_hd__o21a_1
*I *2328:Y O *D sky130_fd_sc_hd__nor3_1
*CAP
1 *2329:B 0.000110018
2 *2330:C 0
3 *2383:B 0.000191494
4 *2384:A2 9.0998e-05
5 *2328:Y 0
6 *317:34 0.000334577
7 *317:10 0.000492788
8 *317:6 0.000434855
9 *2383:B *2383:C 1.74352e-05
10 *317:10 *375:14 0
11 *317:10 *377:8 0.00026467
12 *317:34 *2430:B1 0.00013966
13 *317:34 *377:8 8.00806e-05
14 *317:34 *519:23 0
15 *317:34 *566:18 0.000121763
16 *2328:A *317:10 1.46717e-05
17 *2329:A *2329:B 4.50908e-05
18 *2330:A *317:34 1.02504e-05
19 *2383:A *2383:B 1.32552e-05
20 *2384:A1 *2383:B 2.44318e-05
21 *314:10 *2383:B 0.000142856
22 *314:10 *2384:A2 0.00014285
23 *314:10 *317:10 3.15739e-05
24 *316:10 *317:10 8.00806e-05
25 *316:10 *317:34 0.000381325
*RES
1 *2328:Y *317:6 13.8 
2 *317:6 *317:10 9.48214 
3 *317:10 *2384:A2 10.6571 
4 *317:10 *2383:B 12.3179 
5 *317:6 *317:34 11.0536 
6 *317:34 *2330:C 9.3 
7 *317:34 *2329:B 11.5143 
*END

*D_NET *318 0.000277931
*CONN
*I *2331:B I *D sky130_fd_sc_hd__xnor2_1
*I *2329:Y O *D sky130_fd_sc_hd__nor2_1
*CAP
1 *2331:B 7.05951e-05
2 *2329:Y 7.05951e-05
3 *2331:B *519:23 6.07328e-05
4 *2331:B *566:18 0
5 *2330:A *2331:B 4.25716e-05
6 *311:12 *2331:B 3.34366e-05
*RES
1 *2329:Y *2331:B 29.5464 
*END

*D_NET *319 0.00226861
*CONN
*I *2389:A1 I *D sky130_fd_sc_hd__a21oi_1
*I *2388:A I *D sky130_fd_sc_hd__and3_1
*I *2330:X O *D sky130_fd_sc_hd__or3_1
*CAP
1 *2389:A1 6.26507e-05
2 *2388:A 0
3 *2330:X 0.000730196
4 *319:12 0.000792847
5 *2389:A1 *2389:A2 3.97657e-05
6 *2389:A1 *2389:B1 0.000180966
7 *2389:A1 *322:25 1.72894e-05
8 *2389:A1 *381:12 0.000106663
9 *2389:A1 *383:10 4.0342e-06
10 *319:12 *2387:A 9.76689e-05
11 *319:12 *381:12 0.000236528
12 *319:12 *533:16 0
*RES
1 *2330:X *319:12 29.55 
2 *319:12 *2388:A 9.3 
3 *319:12 *2389:A1 11.8893 
*END

*D_NET *320 0.0020797
*CONN
*I *2333:B I *D sky130_fd_sc_hd__nand2_1
*I *2332:B I *D sky130_fd_sc_hd__or2_1
*I *2331:Y O *D sky130_fd_sc_hd__xnor2_1
*CAP
1 *2333:B 0.000148369
2 *2332:B 2.23854e-05
3 *2331:Y 0.000380446
4 *320:12 0.0005512
5 *2333:B *2334:A 5.71472e-05
6 *2333:B *2334:B 2.89114e-05
7 *320:12 *519:23 0
8 *320:12 *544:16 0.000128154
9 *320:12 *544:29 0.00020455
10 *320:12 *566:18 0.000281124
11 *2333:A *2333:B 0.000115951
12 *310:12 *2333:B 5.62995e-05
13 *310:12 *320:12 0.000105163
14 *311:12 *320:12 0
*RES
1 *2331:Y *320:12 28.1036 
2 *320:12 *2332:B 9.72857 
3 *320:12 *2333:B 13.1393 
*END

*D_NET *321 0.000126884
*CONN
*I *2334:A I *D sky130_fd_sc_hd__nand2_1
*I *2332:X O *D sky130_fd_sc_hd__or2_1
*CAP
1 *2334:A 6.29488e-06
2 *2332:X 6.29488e-06
3 *2333:A *2334:A 5.71472e-05
4 *2333:B *2334:A 5.71472e-05
*RES
1 *2332:X *2334:A 19.1357 
*END

*D_NET *322 0.000918151
*CONN
*I *2389:A2 I *D sky130_fd_sc_hd__a21oi_1
*I *2388:B I *D sky130_fd_sc_hd__and3_1
*I *2334:B I *D sky130_fd_sc_hd__nand2_1
*I *2333:Y O *D sky130_fd_sc_hd__nand2_1
*CAP
1 *2389:A2 0.000151666
2 *2388:B 0
3 *2334:B 0.000149085
4 *2333:Y 0
5 *322:25 0.000250299
6 *322:4 0.000247718
7 *2334:B *2390:A1 0
8 *322:25 *382:8 2.34204e-05
9 *2333:A *2334:B 9.99644e-06
10 *2333:B *2334:B 2.89114e-05
11 *2389:A1 *2389:A2 3.97657e-05
12 *2389:A1 *322:25 1.72894e-05
*RES
1 *2333:Y *322:4 9.3 
2 *322:4 *2334:B 20.2821 
3 *322:4 *322:25 10.5714 
4 *322:25 *2388:B 9.3 
5 *322:25 *2389:A2 11.6929 
*END

*D_NET *323 0.00348019
*CONN
*I *2336:B1 I *D sky130_fd_sc_hd__a21oi_1
*I *2335:C I *D sky130_fd_sc_hd__and3_1
*I *2334:Y O *D sky130_fd_sc_hd__nand2_1
*CAP
1 *2336:B1 5.79363e-05
2 *2335:C 0.000205564
3 *2334:Y 0.00072078
4 *323:14 0.00098428
5 *2335:C *534:109 4.39242e-05
6 *2336:B1 *527:12 1.08359e-05
7 *323:14 *2370:A1 2.23987e-05
8 *323:14 *527:12 0.000181551
9 *323:14 *527:117 0.000126446
10 *323:14 *527:119 5.58941e-05
11 *323:14 *529:14 0.000227998
12 *323:14 *529:30 7.48356e-05
13 *323:14 *529:41 0.000166758
14 *323:14 *566:18 0
15 *2333:A *323:14 0.000144773
16 *2335:B *2335:C 1.57523e-05
17 *2335:B *2336:B1 5.01213e-05
18 *2335:B *323:14 5.43491e-05
19 *2368:A1 *2335:C 5.33005e-05
20 *2368:A1 *2336:B1 6.73939e-05
21 *2368:A1 *323:14 3.17148e-05
22 *2369:A1 *323:14 0.000126439
23 *2370:C1 *323:14 0
24 *310:12 *323:14 5.71472e-05
*RES
1 *2334:Y *323:14 30.925 
2 *323:14 *2335:C 16.2732 
3 *323:14 *2336:B1 15.1393 
*END

*D_NET *324 0.00168877
*CONN
*I *2337:A I *D sky130_fd_sc_hd__nor2_1
*I *2335:X O *D sky130_fd_sc_hd__and3_1
*CAP
1 *2337:A 0.000543095
2 *2335:X 0.000543095
3 *2337:A *2368:A2 3.87936e-05
4 *2337:A *2368:B1 2.4871e-05
5 *2337:A *360:10 0.000188586
6 *2337:A *388:10 8.59039e-05
7 *2337:A *529:41 0
8 *2335:B *2337:A 0.000264428
*RES
1 *2335:X *2337:A 37.2964 
*END

*D_NET *325 0.00125028
*CONN
*I *2337:B I *D sky130_fd_sc_hd__nor2_1
*I *2368:B1 I *D sky130_fd_sc_hd__a21o_1
*I *2336:Y O *D sky130_fd_sc_hd__a21oi_1
*CAP
1 *2337:B 8.99266e-05
2 *2368:B1 0.000182919
3 *2336:Y 0.000162014
4 *325:6 0.00043486
5 *2337:B *2338:B 0
6 *2337:B *327:6 5.04705e-05
7 *2337:B *328:12 5.71472e-05
8 *2368:B1 *2368:A2 0.000116594
9 *2368:B1 *388:10 0
10 *2368:B1 *529:41 4.25446e-05
11 *325:6 *327:6 1.58163e-05
12 *2336:A2 *325:6 5.33334e-05
13 *2337:A *2368:B1 2.4871e-05
14 *2338:A *325:6 1.97865e-05
*RES
1 *2336:Y *325:6 11.8893 
2 *325:6 *2368:B1 21.6929 
3 *325:6 *2337:B 11.3893 
*END

*D_NET *326 0.0160501
*CONN
*I *2287:A1 I *D sky130_fd_sc_hd__a211o_1
*I *2235:A2 I *D sky130_fd_sc_hd__a22o_1
*I *2258:A1 I *D sky130_fd_sc_hd__a211o_1
*I *2315:A1 I *D sky130_fd_sc_hd__a211oi_1
*I *2439:B2 I *D sky130_fd_sc_hd__a32o_1
*I *2402:A1 I *D sky130_fd_sc_hd__a211o_1
*I *2359:A1 I *D sky130_fd_sc_hd__a31o_1
*I *2197:B1 I *D sky130_fd_sc_hd__o21a_1
*I *1986:X O *D sky130_fd_sc_hd__and3b_2
*CAP
1 *2287:A1 0
2 *2235:A2 0
3 *2258:A1 0
4 *2315:A1 0
5 *2439:B2 0
6 *2402:A1 0.000174687
7 *2359:A1 0.000130744
8 *2197:B1 0.000338969
9 *1986:X 0.000953161
10 *326:78 0.00089119
11 *326:61 0.00101017
12 *326:59 0.000796041
13 *326:47 0.000816484
14 *326:39 0.000246799
15 *326:26 0.000849745
16 *326:22 0.0014005
17 *2197:B1 *524:91 1.98839e-05
18 *2197:B1 *549:72 4.88546e-05
19 *2359:A1 *2359:A2 7.43578e-06
20 *2359:A1 *2359:B1 1.73088e-05
21 *2359:A1 *343:23 3.6916e-05
22 *2359:A1 *538:14 5.10282e-05
23 *2359:A1 *569:16 0
24 *2402:A1 *2439:A2 3.99614e-06
25 *2402:A1 *2439:B1 0.000358489
26 *2402:A1 *492:18 1.6345e-05
27 *2402:A1 *532:12 0.000342495
28 *326:22 *1986:A_N 0.000244346
29 *326:22 *2262:A 0.000101545
30 *326:22 *2263:A 0.000109061
31 *326:22 *2285:A2 0.000363837
32 *326:22 *530:46 5.52302e-05
33 *326:22 *551:37 0
34 *326:26 *2261:A 0.000269428
35 *326:26 *2263:A 0.000224472
36 *326:26 *2470:A 0.000183726
37 *326:26 *524:91 0.000443295
38 *326:47 *2258:A2 0.000185643
39 *326:59 *2291:A 0
40 *326:59 *2360:C 0
41 *326:59 *497:35 0.000730738
42 *326:59 *501:48 3.47797e-05
43 *326:59 *516:14 3.0285e-05
44 *326:59 *526:67 0.000899078
45 *326:59 *526:69 6.42877e-05
46 *326:59 *538:14 1.39726e-05
47 *326:61 *2360:C 0
48 *326:61 *538:14 5.4005e-05
49 *326:61 *569:16 0
50 *326:78 *492:18 7.43578e-06
51 *2185:B *326:59 0
52 *2187:B1 *326:59 5.52238e-05
53 *2203:A1 *326:22 2.59355e-05
54 *2203:B1 *326:22 5.71472e-05
55 *2203:D1 *326:22 5.52302e-05
56 *2218:A *326:22 9.41642e-05
57 *2230:A *2197:B1 0.000786348
58 *2230:A *326:39 0.000162832
59 *2230:A *326:47 0.000366401
60 *2233:A *2197:B1 9.71197e-05
61 *2233:A *326:26 5.33005e-05
62 *2233:A *326:39 0.000197984
63 *2233:A *326:47 2.48938e-05
64 *2234:A2 *2197:B1 3.9846e-05
65 *2234:A2 *326:26 4.43256e-05
66 *2235:B1 *326:39 1.08359e-05
67 *2258:B1 *326:47 5.7661e-06
68 *2258:C1 *326:59 4.1331e-06
69 *2259:B1 *326:47 5.33433e-05
70 *2263:B *326:22 0
71 *2287:A2 *326:22 3.47641e-06
72 *2287:A2 *326:26 5.52302e-05
73 *2287:A2 *326:61 0
74 *2287:B1 *326:22 0.00010096
75 *2287:C1 *326:22 2.83284e-06
76 *2288:A_N *326:22 4.1331e-06
77 *2315:C1 *326:59 1.70307e-05
78 *2315:C1 *326:61 5.80706e-06
79 *2316:B1 *326:59 9.80173e-05
80 *167:17 *326:59 0
81 *178:25 *326:47 0.00034496
82 *178:25 *326:59 4.03318e-05
83 *192:32 *326:22 0.000101545
84 *192:102 *2359:A1 2.54632e-05
85 *197:10 *326:22 0
86 *197:66 *326:22 4.29721e-05
87 *215:12 *2197:B1 0.000144951
88 *247:8 *326:26 5.56825e-05
89 *273:10 *326:59 0.000168939
90 *273:29 *326:47 3.68414e-05
91 *273:29 *326:59 0.00013966
*RES
1 *1986:X *326:22 42.7821 
2 *326:22 *326:26 12.875 
3 *326:26 *2197:B1 19.3 
4 *326:26 *326:39 7.05357 
5 *326:39 *326:47 11.7857 
6 *326:47 *326:59 30.6429 
7 *326:59 *326:61 2.55357 
8 *326:61 *2359:A1 16.7107 
9 *326:61 *326:78 15.3036 
10 *326:78 *2402:A1 24.05 
11 *326:78 *2439:B2 9.3 
12 *326:59 *2315:A1 13.8 
13 *326:47 *2258:A1 9.3 
14 *326:39 *2235:A2 13.8 
15 *326:22 *2287:A1 9.3 
*END

*D_NET *327 0.000982947
*CONN
*I *2338:B I *D sky130_fd_sc_hd__xnor2_1
*I *2368:A2 I *D sky130_fd_sc_hd__a21o_1
*I *2337:Y O *D sky130_fd_sc_hd__nor2_1
*CAP
1 *2338:B 3.00142e-05
2 *2368:A2 0.000148113
3 *2337:Y 0.000128751
4 *327:6 0.000306878
5 *2368:A2 *529:41 5.24274e-05
6 *2335:B *2368:A2 6.05161e-06
7 *2337:A *2368:A2 3.87936e-05
8 *2337:B *2338:B 0
9 *2337:B *327:6 5.04705e-05
10 *2338:A *2338:B 3.57366e-05
11 *2368:A1 *2368:A2 5.33005e-05
12 *2368:B1 *2368:A2 0.000116594
13 *325:6 *327:6 1.58163e-05
*RES
1 *2337:Y *327:6 11.4786 
2 *327:6 *2368:A2 21.9786 
3 *327:6 *2338:B 10.0321 
*END

*D_NET *328 0.00154248
*CONN
*I *2341:B I *D sky130_fd_sc_hd__nand2_1
*I *2339:B I *D sky130_fd_sc_hd__or2_1
*I *2338:Y O *D sky130_fd_sc_hd__xnor2_1
*CAP
1 *2341:B 0
2 *2339:B 9.64288e-05
3 *2338:Y 0.000608156
4 *328:12 0.000704584
5 *2339:B *2342:B 1.32552e-05
6 *328:12 *2410:A2 0
7 *328:12 *2441:B1 0
8 *328:12 *388:10 0
9 *328:12 *529:41 0
10 *2337:B *328:12 5.71472e-05
11 *2339:A *2339:B 5.71472e-05
12 *292:18 *2339:B 5.7661e-06
*RES
1 *2338:Y *328:12 27.7643 
2 *328:12 *2339:B 11.0857 
3 *328:12 *2341:B 9.3 
*END

*D_NET *329 0.0040826
*CONN
*I *2340:A I *D sky130_fd_sc_hd__inv_2
*I *2395:A I *D sky130_fd_sc_hd__xnor2_1
*I *2342:A I *D sky130_fd_sc_hd__nand2_1
*I *2339:X O *D sky130_fd_sc_hd__or2_1
*CAP
1 *2340:A 0.000632532
2 *2395:A 1.92398e-05
3 *2342:A 0.000162718
4 *2339:X 0
5 *329:23 0.00097134
6 *329:4 0.000482287
7 *2340:A *2395:B 3.8011e-05
8 *2340:A *2410:A1 0.000171808
9 *2340:A *2441:A1 5.33005e-05
10 *2340:A *2441:A2 0.000350124
11 *2340:A *2441:C1 0.0001871
12 *2342:A *2410:A2 4.88637e-05
13 *2342:A *2441:B1 0
14 *2395:A *2512:A 5.58941e-05
15 *329:23 *2396:B 0.000271345
16 *329:23 *2410:A2 5.67737e-05
17 *329:23 *2512:A 0.000128154
18 *2339:A *2342:A 5.71472e-05
19 *259:18 *2395:A 5.58941e-05
20 *259:18 *329:23 0.000142082
21 *292:18 *2342:A 0.000197984
*RES
1 *2339:X *329:4 9.3 
2 *329:4 *2342:A 22.2107 
3 *329:4 *329:23 11.5 
4 *329:23 *2395:A 14.5321 
5 *329:23 *2340:A 23.4071 
*END

*D_NET *330 0.000258821
*CONN
*I *2410:A1 I *D sky130_fd_sc_hd__o21ai_1
*I *2340:Y O *D sky130_fd_sc_hd__inv_2
*CAP
1 *2410:A1 2.60786e-05
2 *2340:Y 2.60786e-05
3 *2410:A1 *2441:C1 3.4855e-05
4 *2340:A *2410:A1 0.000171808
*RES
1 *2340:Y *2410:A1 19.975 
*END

*D_NET *331 0.000428743
*CONN
*I *2342:B I *D sky130_fd_sc_hd__nand2_1
*I *2341:Y O *D sky130_fd_sc_hd__nand2_1
*CAP
1 *2342:B 0.000127701
2 *2341:Y 0.000127701
3 *2342:B *529:41 0
4 *2339:B *2342:B 1.32552e-05
5 *292:18 *2342:B 0.000155625
6 *297:14 *2342:B 4.46186e-06
*RES
1 *2341:Y *2342:B 30.0821 
*END

*D_NET *332 0.00171829
*CONN
*I *2344:B I *D sky130_fd_sc_hd__nor2_1
*I *2343:B I *D sky130_fd_sc_hd__nand2_1
*I *2345:A2 I *D sky130_fd_sc_hd__o21a_1
*I *2342:Y O *D sky130_fd_sc_hd__nand2_1
*CAP
1 *2344:B 2.23854e-05
2 *2343:B 1.64697e-05
3 *2345:A2 9.09593e-05
4 *2342:Y 5.76198e-05
5 *332:8 0.000418798
6 *332:6 0.000391374
7 *2345:A2 *2358:B1 9.71197e-05
8 *2345:A2 *514:58 2.75524e-05
9 *332:6 *514:58 2.60984e-05
10 *332:8 *514:58 1.74352e-05
11 *2311:B1 *2345:A2 0
12 *2343:A *2343:B 5.7661e-06
13 *2343:A *2345:A2 5.31567e-06
14 *2345:A1 *2345:A2 2.89016e-05
15 *297:14 *332:8 5.52238e-05
16 *297:20 *2343:B 0
17 *297:20 *2345:A2 5.03772e-05
18 *297:20 *332:8 0.000406898
*RES
1 *2342:Y *332:6 10.2464 
2 *332:6 *332:8 5.875 
3 *332:8 *2345:A2 11.4964 
4 *332:8 *2343:B 9.72857 
5 *332:6 *2344:B 9.72857 
*END

*D_NET *333 0.00102309
*CONN
*I *2358:B1 I *D sky130_fd_sc_hd__a221o_1
*I *2343:Y O *D sky130_fd_sc_hd__nand2_1
*CAP
1 *2358:B1 0.000292463
2 *2343:Y 0.000292463
3 *2358:B1 *2345:B1 6.05161e-06
4 *2358:B1 *2358:B2 1.28809e-05
5 *2358:B1 *2358:C1 6.99255e-05
6 *2358:B1 *514:43 9.8958e-05
7 *2358:B1 *514:58 9.22103e-06
8 *2314:B1 *2358:B1 0.000100476
9 *2315:C1 *2358:B1 4.35336e-05
10 *2345:A2 *2358:B1 9.71197e-05
*RES
1 *2343:Y *2358:B1 32.8857 
*END

*D_NET *334 0.00381066
*CONN
*I *2396:A I *D sky130_fd_sc_hd__or2_1
*I *2397:A I *D sky130_fd_sc_hd__nand2_1
*I *2410:A2 I *D sky130_fd_sc_hd__o21ai_1
*I *2344:Y O *D sky130_fd_sc_hd__nor2_1
*CAP
1 *2396:A 0
2 *2397:A 0.000348836
3 *2410:A2 0.000340394
4 *2344:Y 0.000480269
5 *334:14 0.000730009
6 *334:12 0.000521048
7 *2397:A *2397:B 5.52302e-05
8 *2397:A *2403:A1 0.000314577
9 *2397:A *2403:A2 3.75052e-05
10 *2397:A *2403:A3 0
11 *2397:A *2441:A3 2.39876e-05
12 *2397:A *2513:A 0
13 *2397:A *388:10 0
14 *2397:A *397:12 0.000145753
15 *2397:A *514:58 0.000100831
16 *2410:A2 *2396:B 1.33343e-05
17 *2410:A2 *2441:B1 0
18 *2410:A2 *388:10 2.84398e-05
19 *334:12 *514:58 0.00041054
20 *334:12 *545:140 0
21 *334:14 *2396:B 9.90367e-05
22 *2339:A *2410:A2 5.52302e-05
23 *2342:A *2410:A2 4.88637e-05
24 *328:12 *2410:A2 0
25 *329:23 *2410:A2 5.67737e-05
*RES
1 *2344:Y *334:12 25.1929 
2 *334:12 *334:14 0.946429 
3 *334:14 *2410:A2 23.7464 
4 *334:14 *2397:A 26.425 
5 *334:12 *2396:A 9.3 
*END

*D_NET *335 0.000364156
*CONN
*I *2358:B2 I *D sky130_fd_sc_hd__a221o_1
*I *2345:X O *D sky130_fd_sc_hd__o21a_1
*CAP
1 *2358:B2 0.000121328
2 *2345:X 0.000121328
3 *2358:B2 *2358:C1 1.28809e-05
4 *2311:B2 *2358:B2 4.03251e-05
5 *2314:B1 *2358:B2 5.09515e-05
6 *2314:C1 *2358:B2 4.46186e-06
7 *2358:B1 *2358:B2 1.28809e-05
*RES
1 *2345:X *2358:B2 29.908 
*END

*D_NET *336 0.00174887
*CONN
*I *2353:A I *D sky130_fd_sc_hd__or2_1
*I *2352:A I *D sky130_fd_sc_hd__nand2_1
*I *2346:X O *D sky130_fd_sc_hd__a21o_1
*CAP
1 *2353:A 0.000106453
2 *2352:A 0.000192341
3 *2346:X 0.000154599
4 *336:8 0.000453393
5 *2352:A *2352:B 3.01979e-05
6 *2352:A *343:6 9.7659e-05
7 *2352:A *542:138 0.000220747
8 *2353:A *2354:C 1.07719e-05
9 *336:8 *497:35 2.34204e-05
10 *336:8 *497:41 2.0449e-05
11 *336:8 *542:138 0.000287251
12 *2289:B *2352:A 0
13 *192:91 *2352:A 5.25418e-05
14 *192:91 *336:8 0
15 *192:102 *2352:A 9.90431e-05
*RES
1 *2346:X *336:8 17.5679 
2 *336:8 *2352:A 19.2643 
3 *336:8 *2353:A 15.1571 
*END

*D_NET *337 0.00517764
*CONN
*I *1990:A4 I *D sky130_fd_sc_hd__o41ai_4
*I *1992:B1 I *D sky130_fd_sc_hd__a211o_1
*I *1989:C1 I *D sky130_fd_sc_hd__a2111oi_1
*I *2199:A I *D sky130_fd_sc_hd__or2_1
*I *2526:A I *D sky130_fd_sc_hd__dlymetal6s2s_1
*I *2032:B1 I *D sky130_fd_sc_hd__a21o_1
*I *1987:X O *D sky130_fd_sc_hd__or4_4
*CAP
1 *1990:A4 0
2 *1992:B1 0.000186759
3 *1989:C1 0
4 *2199:A 0
5 *2526:A 0
6 *2032:B1 8.96704e-05
7 *1987:X 0
8 *337:54 0.000458222
9 *337:43 0.000553529
10 *337:34 0.000618127
11 *337:12 0.00032627
12 *337:6 0.00057266
13 *1992:B1 *2424:B 0.000133954
14 *1992:B1 *532:16 0.00019254
15 *1992:B1 *547:33 8.6229e-06
16 *2032:B1 *2032:A1 2.89016e-05
17 *2032:B1 *2032:A2 3.29076e-05
18 *2032:B1 *517:95 2.58706e-05
19 *2032:B1 *524:43 6.86792e-05
20 *337:12 *1996:B1 0.000148189
21 *337:12 *1999:A1 3.34366e-05
22 *337:12 *2032:A2 0.000247564
23 *337:12 *2473:A 0
24 *337:12 *517:97 0
25 *337:12 *524:43 9.31893e-05
26 *337:12 *569:16 0.000146424
27 *337:34 *2473:A 0
28 *337:34 *546:41 0.000230482
29 *337:34 *569:16 4.66203e-05
30 *337:43 *1989:B1 4.81734e-05
31 *337:43 *2198:A 5.52302e-05
32 *337:43 *2198:C 0.00017372
33 *337:43 *348:36 1.02936e-05
34 *337:43 *549:25 2.07382e-05
35 *337:54 *1989:B1 1.21258e-05
36 *337:54 *2424:B 4.1331e-06
37 *337:54 *348:36 5.52238e-05
38 *337:54 *492:39 3.97273e-05
39 *337:54 *492:41 7.44918e-05
40 *337:54 *532:16 0.000204821
41 *337:54 *549:25 8.40933e-05
42 *1989:A2 *337:54 7.25388e-05
43 *182:6 *337:34 1.90111e-05
44 *182:6 *337:43 5.06983e-05
45 *182:8 *337:34 9.99644e-06
*RES
1 *1987:X *337:6 13.8 
2 *337:6 *337:12 11.8571 
3 *337:12 *2032:B1 11.4964 
4 *337:12 *2526:A 9.3 
5 *337:6 *337:34 9.67857 
6 *337:34 *2199:A 9.3 
7 *337:34 *337:43 5.375 
8 *337:43 *1989:C1 9.3 
9 *337:43 *337:54 11.9643 
10 *337:54 *1992:B1 18.7821 
11 *337:54 *1990:A4 13.8 
*END

*D_NET *338 0.00153592
*CONN
*I *2361:B1 I *D sky130_fd_sc_hd__a21o_1
*I *2348:B I *D sky130_fd_sc_hd__xnor2_1
*I *2347:X O *D sky130_fd_sc_hd__o21a_1
*CAP
1 *2361:B1 8.08647e-05
2 *2348:B 0.000178711
3 *2347:X 0.000152833
4 *338:10 0.000412408
5 *2348:B *2117:B 0
6 *2348:B *2348:A 7.32272e-05
7 *2348:B *2362:A 6.05161e-06
8 *2348:B *339:12 2.89967e-05
9 *2361:B1 *2362:A 1.18064e-05
10 *2361:B1 *339:12 0
11 *2361:B1 *352:12 0.000146876
12 *338:10 *2347:A1 2.65105e-05
13 *338:10 *2362:A 4.57473e-05
14 *2289:A *2361:B1 0.0002106
15 *2289:A *338:10 0.000153489
16 *191:90 *2361:B1 7.79781e-06
*RES
1 *2347:X *338:10 16.4964 
2 *338:10 *2348:B 16.8179 
3 *338:10 *2361:B1 16.6571 
*END

*D_NET *339 0.00118377
*CONN
*I *2350:B I *D sky130_fd_sc_hd__nand2_1
*I *2349:B I *D sky130_fd_sc_hd__or2_1
*I *2348:Y O *D sky130_fd_sc_hd__xnor2_1
*CAP
1 *2350:B 0
2 *2349:B 9.78301e-05
3 *2348:Y 0.00034818
4 *339:12 0.00044601
5 *2349:B *2350:A 5.71472e-05
6 *2349:B *341:12 1.74352e-05
7 *339:12 *2348:A 6.05161e-06
8 *339:12 *2362:A 4.58194e-05
9 *339:12 *2406:B1 8.43535e-06
10 *339:12 *542:138 0
11 *2348:B *339:12 2.89967e-05
12 *2361:B1 *339:12 0
13 *2406:A2 *339:12 2.89114e-05
14 *191:90 *2349:B 0
15 *191:90 *339:12 9.8958e-05
*RES
1 *2348:Y *339:12 22.9429 
2 *339:12 *2349:B 11.0857 
3 *339:12 *2350:B 9.3 
*END

*D_NET *340 0.000427654
*CONN
*I *2351:A I *D sky130_fd_sc_hd__and2_1
*I *2349:X O *D sky130_fd_sc_hd__or2_1
*CAP
1 *2351:A 7.51351e-05
2 *2349:X 7.51351e-05
3 *2351:A *341:12 0.000125724
4 *2351:A *537:18 2.59355e-05
5 *2287:A2 *2351:A 0.000125724
*RES
1 *2349:X *2351:A 29.7786 
*END

*D_NET *341 0.00229259
*CONN
*I *2365:A1 I *D sky130_fd_sc_hd__a21oi_1
*I *2366:A1 I *D sky130_fd_sc_hd__a31o_1
*I *2351:B I *D sky130_fd_sc_hd__and2_1
*I *2350:Y O *D sky130_fd_sc_hd__nand2_1
*CAP
1 *2365:A1 0.000235346
2 *2366:A1 0
3 *2351:B 0
4 *2350:Y 0.000219412
5 *341:19 0.000477128
6 *341:12 0.000461195
7 *2365:A1 *2365:A2 6.87574e-05
8 *2365:A1 *2365:B1 0
9 *2365:A1 *2367:B 9.41642e-05
10 *2365:A1 *537:18 3.61629e-06
11 *341:12 *2350:A 7.61932e-05
12 *341:12 *538:14 0.000173804
13 *341:12 *554:116 7.61932e-05
14 *341:19 *342:10 4.87953e-05
15 *341:19 *537:18 0.000189863
16 *2287:A2 *341:12 2.4958e-05
17 *2349:B *341:12 1.74352e-05
18 *2351:A *341:12 0.000125724
*RES
1 *2350:Y *341:12 23.55 
2 *341:12 *2351:B 9.3 
3 *341:12 *341:19 5.05357 
4 *341:19 *2366:A1 9.3 
5 *341:19 *2365:A1 12.6214 
*END

*D_NET *342 0.00174592
*CONN
*I *2353:B I *D sky130_fd_sc_hd__or2_1
*I *2352:B I *D sky130_fd_sc_hd__nand2_1
*I *2351:X O *D sky130_fd_sc_hd__and2_1
*CAP
1 *2353:B 9.26983e-05
2 *2352:B 0.000281622
3 *2351:X 0.000113901
4 *342:10 0.000488221
5 *2353:B *538:14 0.000266957
6 *342:10 *538:14 7.6644e-05
7 *2287:A2 *2353:B 0.00013529
8 *2287:A2 *342:10 3.92757e-05
9 *2352:A *2352:B 3.01979e-05
10 *192:102 *2352:B 0.000172315
11 *341:19 *342:10 4.87953e-05
*RES
1 *2351:X *342:10 15.7821 
2 *342:10 *2352:B 18.1929 
3 *342:10 *2353:B 17.2643 
*END

*D_NET *343 0.00272518
*CONN
*I *2365:A2 I *D sky130_fd_sc_hd__a21oi_1
*I *2366:A2 I *D sky130_fd_sc_hd__a31o_1
*I *2354:B I *D sky130_fd_sc_hd__and3b_1
*I *2352:Y O *D sky130_fd_sc_hd__nand2_1
*CAP
1 *2365:A2 4.84517e-05
2 *2366:A2 0
3 *2354:B 0
4 *2352:Y 0.000206431
5 *343:23 0.000648112
6 *343:6 0.000806092
7 *2365:A2 *2365:B1 0.000137983
8 *2365:A2 *2367:B 5.33005e-05
9 *2365:A2 *537:18 1.55885e-05
10 *343:23 *2359:A2 1.94319e-05
11 *343:23 *2359:B1 0.000138881
12 *343:23 *2360:C 0.000229456
13 *343:23 *2367:B 1.19402e-05
14 *343:23 *546:52 0
15 *343:23 *569:16 0
16 *2352:A *343:6 9.7659e-05
17 *2359:A1 *343:23 3.6916e-05
18 *2365:A1 *2365:A2 6.87574e-05
19 *2366:B1 *343:23 6.5185e-05
20 *2409:A *343:23 2.40379e-05
21 *192:102 *343:6 2.60984e-05
22 *192:102 *343:23 9.08526e-05
*RES
1 *2352:Y *343:6 11.8893 
2 *343:6 *2354:B 9.3 
3 *343:6 *343:23 19.1071 
4 *343:23 *2366:A2 9.3 
5 *343:23 *2365:A2 11.0679 
*END

*D_NET *344 0.000578726
*CONN
*I *2354:C I *D sky130_fd_sc_hd__and3b_1
*I *2353:X O *D sky130_fd_sc_hd__or2_1
*CAP
1 *2354:C 0.000114301
2 *2353:X 0.000114301
3 *2354:C *542:138 0.000169676
4 *2287:A2 *2354:C 0.000169676
5 *2353:A *2354:C 1.07719e-05
*RES
1 *2353:X *2354:C 30.3857 
*END

*D_NET *345 0.000341461
*CONN
*I *2359:B1 I *D sky130_fd_sc_hd__a31o_1
*I *2354:X O *D sky130_fd_sc_hd__and3b_1
*CAP
1 *2359:B1 5.68129e-05
2 *2354:X 5.68129e-05
3 *2359:A1 *2359:B1 1.73088e-05
4 *192:102 *2359:B1 7.16452e-05
5 *343:23 *2359:B1 0.000138881
*RES
1 *2354:X *2359:B1 20.3857 
*END

*D_NET *346 0.000669455
*CONN
*I *2356:B2 I *D sky130_fd_sc_hd__o22a_1
*I *2355:Y O *D sky130_fd_sc_hd__a21oi_1
*CAP
1 *2356:B2 0.000113287
2 *2355:Y 0.000113287
3 *2356:B2 *490:25 6.0038e-05
4 *2356:B2 *490:34 0.000167368
5 *2356:B2 *490:49 9.25014e-06
6 *2356:B2 *526:47 1.78447e-05
7 *2355:B1 *2356:B2 0.000122439
8 *2438:B1 *2356:B2 1.92905e-05
9 *190:24 *2356:B2 4.66511e-05
*RES
1 *2355:Y *2356:B2 30.9929 
*END

*D_NET *347 0.000693462
*CONN
*I *2358:C1 I *D sky130_fd_sc_hd__a221o_1
*I *2356:X O *D sky130_fd_sc_hd__o22a_1
*CAP
1 *2358:C1 0.000179838
2 *2356:X 0.000179838
3 *2358:C1 *2358:A1 2.59355e-05
4 *2358:C1 *2360:B 5.33005e-05
5 *2315:C1 *2358:C1 5.71472e-05
6 *2358:A2 *2358:C1 0.000114596
7 *2358:B1 *2358:C1 6.99255e-05
8 *2358:B2 *2358:C1 1.28809e-05
*RES
1 *2356:X *2358:C1 22.4393 
*END

*D_NET *348 0.00329963
*CONN
*I *1989:D1 I *D sky130_fd_sc_hd__a2111oi_1
*I *2198:C I *D sky130_fd_sc_hd__or3_1
*I *1990:A3 I *D sky130_fd_sc_hd__o41ai_4
*I *1992:C1 I *D sky130_fd_sc_hd__a211o_1
*I *1988:X O *D sky130_fd_sc_hd__or2_4
*CAP
1 *1989:D1 0
2 *2198:C 7.45137e-05
3 *1990:A3 0
4 *1992:C1 0.000322601
5 *1988:X 4.36033e-05
6 *348:36 0.000280207
7 *348:10 0.000372758
8 *348:8 0.000299454
9 *1992:C1 *1989:B1 9.25014e-06
10 *1992:C1 *1992:A1 5.33005e-05
11 *1992:C1 *1992:A2 5.52238e-05
12 *1992:C1 *2402:A2 0
13 *1992:C1 *2521:A 0.000125724
14 *1992:C1 *547:18 3.99189e-05
15 *1992:C1 *551:10 0.0003597
16 *1992:C1 *554:104 2.58764e-05
17 *2198:C *549:25 4.16984e-05
18 *348:8 *538:20 5.33005e-05
19 *348:10 *1989:B1 0.000138946
20 *348:10 *551:10 0.000148189
21 *348:36 *1989:B1 0.000185297
22 *348:36 *2538:A 4.75812e-05
23 *348:36 *549:25 9.71197e-05
24 *348:36 *551:10 0.000240484
25 *348:36 *551:29 4.56437e-05
26 *337:43 *2198:C 0.00017372
27 *337:43 *348:36 1.02936e-05
28 *337:54 *348:36 5.52238e-05
*RES
1 *1988:X *348:8 14.3357 
2 *348:8 *348:10 1.94643 
3 *348:10 *1992:C1 21.0857 
4 *348:10 *1990:A3 13.8 
5 *348:8 *348:36 9.21429 
6 *348:36 *2198:C 11.3893 
7 *348:36 *1989:D1 9.3 
*END

*D_NET *349 0.000467996
*CONN
*I *2360:A I *D sky130_fd_sc_hd__or3_1
*I *2357:X O *D sky130_fd_sc_hd__a32o_1
*CAP
1 *2360:A 0.000154188
2 *2357:X 0.000154188
3 *2360:A *580:14 9.71197e-05
4 *2315:B1 *2360:A 0
5 *205:67 *2360:A 6.24997e-05
*RES
1 *2357:X *2360:A 30.1893 
*END

*D_NET *350 0.00486152
*CONN
*I *2360:B I *D sky130_fd_sc_hd__or3_1
*I *2358:X O *D sky130_fd_sc_hd__a221o_1
*CAP
1 *2360:B 0.00115661
2 *2358:X 0.00115661
3 *2360:B *2356:A1 1.98839e-05
4 *2360:B *2356:A2 9.66977e-05
5 *2360:B *2401:A1 7.31843e-05
6 *2360:B *2401:B1 6.34485e-05
7 *2360:B *2440:B1 2.60344e-05
8 *2360:B *501:48 1.32552e-05
9 *2360:B *537:65 0.000532364
10 *2360:B *580:6 5.52302e-05
11 *2360:B *580:77 0.000464266
12 *2255:B2 *2360:B 0.00010096
13 *2356:B1 *2360:B 2.59355e-05
14 *2358:A2 *2360:B 2.89965e-05
15 *2358:C1 *2360:B 5.33005e-05
16 *205:57 *2360:B 0.0001399
17 *205:67 *2360:B 0.000854844
*RES
1 *2358:X *2360:B 43.0107 
*END

*D_NET *351 0.00104464
*CONN
*I *2360:C I *D sky130_fd_sc_hd__or3_1
*I *2359:X O *D sky130_fd_sc_hd__a31o_1
*CAP
1 *2360:C 0.000362407
2 *2359:X 0.000362407
3 *2360:C *546:52 0
4 *2360:C *569:16 9.03706e-05
5 *326:59 *2360:C 0
6 *326:61 *2360:C 0
7 *343:23 *2360:C 0.000229456
*RES
1 *2359:X *2360:C 33.85 
*END

*D_NET *352 0.00115047
*CONN
*I *2406:B1 I *D sky130_fd_sc_hd__a21o_1
*I *2362:B I *D sky130_fd_sc_hd__xor2_1
*I *2361:X O *D sky130_fd_sc_hd__a21o_1
*CAP
1 *2406:B1 0.000152043
2 *2362:B 0
3 *2361:X 0.000107687
4 *352:12 0.00025973
5 *2406:B1 *2362:A 5.33005e-05
6 *2406:B1 *353:12 0.00018372
7 *352:12 *2362:A 3.17148e-05
8 *2361:B1 *352:12 0.000146876
9 *2406:A2 *2406:B1 9.90431e-05
10 *191:90 *352:12 0.000107917
11 *339:12 *2406:B1 8.43535e-06
*RES
1 *2361:X *352:12 20.7821 
2 *352:12 *2362:B 9.3 
3 *352:12 *2406:B1 12.7286 
*END

*D_NET *353 0.00231115
*CONN
*I *2363:A I *D sky130_fd_sc_hd__inv_2
*I *2364:B I *D sky130_fd_sc_hd__xor2_1
*I *2362:X O *D sky130_fd_sc_hd__xor2_1
*CAP
1 *2363:A 0.000113685
2 *2364:B 0
3 *2362:X 0.000258626
4 *353:12 0.000372311
5 *2363:A *2364:A 0.000166416
6 *2363:A *554:116 0.000353079
7 *353:12 *2359:A3 0.000248486
8 *353:12 *2406:A1 0.000310298
9 *353:12 *2407:B 7.20729e-05
10 *353:12 *535:21 0.000142856
11 *353:12 *538:14 8.96049e-05
12 *2406:B1 *353:12 0.00018372
*RES
1 *2362:X *353:12 26.5143 
2 *353:12 *2364:B 9.3 
3 *353:12 *2363:A 13.1393 
*END

*D_NET *354 0.00034188
*CONN
*I *2404:A2 I *D sky130_fd_sc_hd__a21oi_1
*I *2363:Y O *D sky130_fd_sc_hd__inv_2
*CAP
1 *2404:A2 3.3755e-05
2 *2363:Y 3.3755e-05
3 *2404:A2 *2364:A 0.000186662
4 *2404:A2 *554:116 8.77073e-05
*RES
1 *2363:Y *2404:A2 20.3679 
*END

*D_NET *355 0.00133738
*CONN
*I *2365:B1 I *D sky130_fd_sc_hd__a21oi_1
*I *2366:A3 I *D sky130_fd_sc_hd__a31o_1
*I *2364:X O *D sky130_fd_sc_hd__xor2_1
*CAP
1 *2365:B1 0.000111086
2 *2366:A3 0
3 *2364:X 0.000237602
4 *355:12 0.000348688
5 *2365:B1 *2367:A 3.77609e-05
6 *2365:B1 *2367:B 8.89464e-05
7 *2365:B1 *537:18 9.46929e-05
8 *355:12 *2367:B 1.76039e-05
9 *355:12 *546:52 2.84009e-05
10 *355:12 *554:116 0.000230482
11 *355:12 *569:16 0
12 *2365:A1 *2365:B1 0
13 *2365:A2 *2365:B1 0.000137983
14 *2366:B1 *355:12 4.1331e-06
*RES
1 *2364:X *355:12 22.1214 
2 *355:12 *2366:A3 9.3 
3 *355:12 *2365:B1 12.4429 
*END

*D_NET *356 0.000563502
*CONN
*I *2367:A I *D sky130_fd_sc_hd__nor2_1
*I *2404:B1 I *D sky130_fd_sc_hd__a21oi_1
*I *2365:Y O *D sky130_fd_sc_hd__a21oi_1
*CAP
1 *2367:A 5.3313e-05
2 *2404:B1 6.01107e-05
3 *2365:Y 0
4 *356:4 0.000113424
5 *2367:A *2367:B 3.01979e-05
6 *2404:B1 *520:108 0.000177227
7 *2404:B1 *552:22 9.1469e-05
8 *2365:B1 *2367:A 3.77609e-05
*RES
1 *2365:Y *356:4 9.3 
2 *356:4 *2404:B1 20.55 
3 *356:4 *2367:A 10.6929 
*END

*D_NET *357 0.000815775
*CONN
*I *2367:B I *D sky130_fd_sc_hd__nor2_1
*I *2366:X O *D sky130_fd_sc_hd__a31o_1
*CAP
1 *2367:B 0.000206176
2 *2366:X 0.000206176
3 *2367:B *2402:B1 2.89114e-05
4 *2367:B *2402:C1 0
5 *2367:B *546:52 7.83587e-05
6 *2365:A1 *2367:B 9.41642e-05
7 *2365:A2 *2367:B 5.33005e-05
8 *2365:B1 *2367:B 8.89464e-05
9 *2366:B1 *2367:B 0
10 *2367:A *2367:B 3.01979e-05
11 *343:23 *2367:B 1.19402e-05
12 *355:12 *2367:B 1.76039e-05
*RES
1 *2366:X *2367:B 32.0643 
*END

*D_NET *358 0.000849837
*CONN
*I *2538:A I *D sky130_fd_sc_hd__clkbuf_1
*I *1989:Y O *D sky130_fd_sc_hd__a2111oi_1
*CAP
1 *2538:A 0.000230014
2 *1989:Y 0.000230014
3 *2538:A *1989:B1 1.02504e-05
4 *2538:A *2402:A2 0.000222248
5 *2538:A *551:29 0.000109728
6 *348:36 *2538:A 4.75812e-05
*RES
1 *1989:Y *2538:A 33.1893 
*END

*D_NET *359 0.000599804
*CONN
*I *2402:B1 I *D sky130_fd_sc_hd__a211o_1
*I *2367:Y O *D sky130_fd_sc_hd__nor2_1
*CAP
1 *2402:B1 0.000188972
2 *2367:Y 0.000188972
3 *2402:B1 *2402:A2 0.000153614
4 *2402:B1 *2402:C1 3.93346e-05
5 *2367:B *2402:B1 2.89114e-05
*RES
1 *2367:Y *2402:B1 22.4393 
*END

*D_NET *360 0.00225538
*CONN
*I *2394:A I *D sky130_fd_sc_hd__xnor2_1
*I *2393:A I *D sky130_fd_sc_hd__and3_1
*I *2368:X O *D sky130_fd_sc_hd__a21o_1
*CAP
1 *2394:A 0
2 *2393:A 0.000419933
3 *2368:X 0.000485417
4 *360:10 0.000905351
5 *2393:A *2392:A 9.90431e-05
6 *2393:A *2393:B 0
7 *2393:A *2393:C 0.00010615
8 *2393:A *2411:A 1.41706e-05
9 *2393:A *2411:B 3.67257e-05
10 *2393:A *384:10 0
11 *2393:A *431:10 0
12 *360:10 *388:10 0
13 *2337:A *360:10 0.000188586
14 *259:12 *2393:A 0
15 *259:12 *360:10 0
*RES
1 *2368:X *360:10 20.3893 
2 *360:10 *2393:A 21.675 
3 *360:10 *2394:A 13.8 
*END

*D_NET *361 0.00102724
*CONN
*I *2411:A I *D sky130_fd_sc_hd__xnor2_1
*I *2371:A I *D sky130_fd_sc_hd__or2_1
*I *2369:X O *D sky130_fd_sc_hd__o211a_1
*CAP
1 *2411:A 0.000164032
2 *2371:A 0
3 *2369:X 0.00017955
4 *361:12 0.000343583
5 *2411:A *363:10 3.05446e-05
6 *2411:A *384:10 0
7 *2411:A *533:16 5.10822e-05
8 *361:12 *2371:B 0.000188586
9 *361:12 *529:14 5.56943e-05
10 *2393:A *2411:A 1.41706e-05
*RES
1 *2369:X *361:12 22.2286 
2 *361:12 *2371:A 9.3 
3 *361:12 *2411:A 22.0143 
*END

*D_NET *362 0.000416861
*CONN
*I *2371:B I *D sky130_fd_sc_hd__or2_1
*I *2370:Y O *D sky130_fd_sc_hd__a211oi_1
*CAP
1 *2371:B 0.000114138
2 *2370:Y 0.000114138
3 *361:12 *2371:B 0.000188586
*RES
1 *2370:Y *2371:B 21.1893 
*END

*D_NET *363 0.00174339
*CONN
*I *2390:B1 I *D sky130_fd_sc_hd__o21ai_1
*I *2391:A I *D sky130_fd_sc_hd__or3_1
*I *2371:X O *D sky130_fd_sc_hd__or2_1
*CAP
1 *2390:B1 0
2 *2391:A 0.000165272
3 *2371:X 0.000180532
4 *363:10 0.000345804
5 *2391:A *2390:A2 7.83462e-05
6 *2391:A *2391:B 8.86413e-05
7 *2391:A *2391:C 0.000268403
8 *2391:A *2412:B 0.000185643
9 *2391:A *383:10 3.17067e-05
10 *2391:A *383:14 1.98839e-05
11 *2391:A *533:16 0.000222892
12 *363:10 *533:16 0.000125717
13 *2411:A *363:10 3.05446e-05
*RES
1 *2371:X *363:10 16.8 
2 *363:10 *2391:A 20.0679 
3 *363:10 *2390:B1 13.8 
*END

*D_NET *364 0.0010737
*CONN
*I *2376:A I *D sky130_fd_sc_hd__xnor2_1
*I *2372:Y O *D sky130_fd_sc_hd__nand2_1
*CAP
1 *2376:A 0.000108184
2 *2372:Y 0.000108184
3 *2376:A *2376:B 0.000194143
4 *2376:A *2429:A1 4.88637e-05
5 *2376:A *2429:A2 6.05161e-06
6 *2376:A *2429:B1 5.52302e-05
7 *2376:A *555:18 0.000493915
8 *311:12 *2376:A 5.91282e-05
*RES
1 *2372:Y *2376:A 23.6714 
*END

*D_NET *365 0.000586356
*CONN
*I *2375:A I *D sky130_fd_sc_hd__nor2_1
*I *2373:Y O *D sky130_fd_sc_hd__a22oi_1
*CAP
1 *2375:A 0.000141177
2 *2373:Y 0.000141177
3 *2375:A *2374:A 1.21258e-05
4 *2375:A *2375:B 5.74562e-05
5 *2375:A *366:8 5.52238e-05
6 *2375:A *497:93 0.00014576
7 *2375:A *526:22 3.34366e-05
*RES
1 *2373:Y *2375:A 30.4929 
*END

*D_NET *366 0.00125453
*CONN
*I *2375:B I *D sky130_fd_sc_hd__nor2_1
*I *2429:B1 I *D sky130_fd_sc_hd__a31o_1
*I *2374:X O *D sky130_fd_sc_hd__and4_1
*CAP
1 *2375:B 5.93416e-05
2 *2429:B1 0.000129338
3 *2374:X 5.83006e-05
4 *366:8 0.00024698
5 *2375:B *497:93 7.80714e-06
6 *2375:B *525:27 0.000166983
7 *2375:B *526:22 3.51442e-05
8 *2429:B1 *2429:A1 5.71472e-05
9 *2429:B1 *497:93 3.34672e-05
10 *2429:B1 *525:27 0.000217298
11 *366:8 *2374:A 7.48091e-05
12 *2375:A *2375:B 5.74562e-05
13 *2375:A *366:8 5.52238e-05
14 *2376:A *2429:B1 5.52302e-05
*RES
1 *2374:X *366:8 15.1571 
2 *366:8 *2429:B1 17.1929 
3 *366:8 *2375:B 16.05 
*END

*D_NET *367 0.00159577
*CONN
*I *2376:B I *D sky130_fd_sc_hd__xnor2_1
*I *2429:A3 I *D sky130_fd_sc_hd__a31o_1
*I *2375:Y O *D sky130_fd_sc_hd__nor2_1
*CAP
1 *2376:B 5.77349e-05
2 *2429:A3 0
3 *2375:Y 0.00030062
4 *367:12 0.000358355
5 *367:12 *2373:A2 4.75428e-05
6 *367:12 *497:93 0.000191403
7 *367:12 *520:162 0.000166503
8 *367:12 *540:70 0.000178847
9 *2376:A *2376:B 0.000194143
10 *311:12 *2376:B 0.000100625
*RES
1 *2375:Y *367:12 24.1393 
2 *367:12 *2429:A3 9.3 
3 *367:12 *2376:B 11.4964 
*END

*D_NET *368 0.00217495
*CONN
*I *2387:A I *D sky130_fd_sc_hd__xor2_1
*I *2430:A1 I *D sky130_fd_sc_hd__a21oi_1
*I *2376:Y O *D sky130_fd_sc_hd__xnor2_1
*CAP
1 *2387:A 8.10958e-05
2 *2430:A1 9.02914e-05
3 *2376:Y 0.00035148
4 *368:18 0.000522867
5 *2430:A1 *2387:B 0
6 *2430:A1 *2431:B 7.92879e-05
7 *2430:A1 *378:10 0
8 *2430:A1 *566:18 8.81343e-05
9 *368:18 *2431:A 0.000531706
10 *368:18 *2431:B 8.33751e-05
11 *368:18 *2432:A 1.00073e-05
12 *368:18 *381:12 0
13 *368:18 *555:18 0.000148165
14 *368:18 *566:18 9.08751e-05
15 *319:12 *2387:A 9.76689e-05
*RES
1 *2376:Y *368:18 32.0679 
2 *368:18 *2430:A1 16.6571 
3 *368:18 *2387:A 15.5679 
*END

*D_NET *369 0.00445829
*CONN
*I *2535:A I *D sky130_fd_sc_hd__dlygate4sd1_1
*I *2529:A I *D sky130_fd_sc_hd__dlygate4sd1_1
*I *1999:A2 I *D sky130_fd_sc_hd__a211o_1
*I *1995:B1_N I *D sky130_fd_sc_hd__o21bai_1
*I *1996:A2 I *D sky130_fd_sc_hd__a211oi_2
*I *1990:Y O *D sky130_fd_sc_hd__o41ai_4
*CAP
1 *2535:A 6.19284e-05
2 *2529:A 1.56658e-05
3 *1999:A2 6.7368e-05
4 *1995:B1_N 0.00010615
5 *1996:A2 5.15354e-05
6 *1990:Y 0.000207938
7 *369:27 0.000307987
8 *369:21 0.000225576
9 *369:8 0.000152275
10 *369:6 0.000295166
11 *1995:B1_N *1995:A2 5.52302e-05
12 *1995:B1_N *2007:A 8.51772e-05
13 *1995:B1_N *441:10 4.71964e-05
14 *1995:B1_N *569:16 0
15 *1996:A2 *1990:A1 5.33005e-05
16 *1996:A2 *1996:A1 9.60875e-05
17 *1996:A2 *550:85 0.00018077
18 *1999:A2 *1993:B 5.64172e-05
19 *1999:A2 *1999:B1 1.05731e-05
20 *1999:A2 *547:47 0
21 *2529:A *1999:A1 5.33005e-05
22 *2529:A *524:43 2.14658e-05
23 *2535:A *2473:A 0.000170661
24 *2535:A *520:108 0.000170661
25 *369:6 *1990:A1 4.18895e-05
26 *369:6 *1990:A2 0.000183445
27 *369:6 *524:29 7.26083e-05
28 *369:6 *545:21 6.66848e-05
29 *369:6 *545:38 0.00014961
30 *369:6 *548:109 6.12335e-05
31 *369:6 *550:85 0.00022266
32 *369:8 *1990:A1 8.36572e-05
33 *369:8 *550:85 9.41642e-05
34 *369:21 *1990:A1 0.000126439
35 *369:21 *1996:A1 1.08359e-05
36 *369:21 *2473:A 5.58941e-05
37 *369:21 *517:97 7.90803e-05
38 *369:21 *520:108 0.000149102
39 *369:27 *1999:A1 0.000333117
40 *369:27 *2007:A 1.38247e-05
41 *369:27 *517:97 9.12306e-05
42 *369:27 *524:43 7.3237e-05
43 *38:37 *1995:B1_N 5.71472e-05
*RES
1 *1990:Y *369:6 15.5857 
2 *369:6 *369:8 0.946429 
3 *369:8 *1996:A2 11.0679 
4 *369:8 *369:21 11.8571 
5 *369:21 *369:27 8.71429 
6 *369:27 *1995:B1_N 16.5857 
7 *369:27 *1999:A2 15.175 
8 *369:21 *2529:A 9.83571 
9 *369:6 *2535:A 20.55 
*END

*D_NET *370 0.000627268
*CONN
*I *2382:A I *D sky130_fd_sc_hd__xor2_1
*I *2422:A1 I *D sky130_fd_sc_hd__o21bai_1
*I *2377:Y O *D sky130_fd_sc_hd__nand2_1
*CAP
1 *2382:A 5.45125e-05
2 *2422:A1 4.52221e-05
3 *2377:Y 0
4 *370:4 9.97346e-05
5 *2382:A *2324:B 8.01726e-05
6 *2382:A *448:42 0.000216121
7 *2382:A *518:38 1.32552e-05
8 *2422:A1 *373:10 0
9 *2422:A1 *448:42 0.00010096
10 *2422:A1 *518:38 1.72894e-05
*RES
1 *2377:Y *370:4 9.3 
2 *370:4 *2422:A1 10.675 
3 *370:4 *2382:A 11.9071 
*END

*D_NET *371 0.000416492
*CONN
*I *2425:A I *D sky130_fd_sc_hd__xor2_1
*I *2378:Y O *D sky130_fd_sc_hd__nand2_1
*CAP
1 *2425:A 6.13679e-05
2 *2378:Y 6.13679e-05
3 *2425:A *2378:A 3.99614e-06
4 *2425:A *2425:B 1.04232e-05
5 *2425:A *552:53 2.89114e-05
6 *2425:A *552:74 5.33334e-05
7 *2425:A *554:25 1.04232e-05
8 *2425:A *554:29 0.000186669
*RES
1 *2378:Y *2425:A 20.7964 
*END

*D_NET *372 0.000672776
*CONN
*I *2381:A I *D sky130_fd_sc_hd__or2_1
*I *2422:B1_N I *D sky130_fd_sc_hd__o21bai_1
*I *2379:X O *D sky130_fd_sc_hd__and3_1
*CAP
1 *2381:A 0.000146295
2 *2422:B1_N 6.30367e-05
3 *2379:X 0
4 *372:4 0.000209332
5 *2381:A *548:47 0.000105163
6 *2422:B1_N *2379:C 3.92757e-05
7 *2422:B1_N *2380:A1 3.34366e-05
8 *2422:B1_N *2380:B2 1.02504e-05
9 *2422:B1_N *2381:B 4.33438e-05
10 *2422:B1_N *448:27 2.26424e-05
*RES
1 *2379:X *372:4 9.3 
2 *372:4 *2422:B1_N 19.9429 
3 *372:4 *2381:A 11.4964 
*END

*D_NET *373 0.000740774
*CONN
*I *2422:A2 I *D sky130_fd_sc_hd__o21bai_1
*I *2381:B I *D sky130_fd_sc_hd__or2_1
*I *2380:Y O *D sky130_fd_sc_hd__a22oi_1
*CAP
1 *2422:A2 1.51975e-05
2 *2381:B 0.000122063
3 *2380:Y 8.90905e-05
4 *373:10 0.000226352
5 *2381:B *2379:C 0
6 *2381:B *2380:A1 3.17148e-05
7 *2381:B *2382:B 0
8 *2422:A2 *2427:A 1.92905e-05
9 *2422:A2 *448:42 2.28598e-05
10 *373:10 *2380:A1 4.01511e-05
11 *373:10 *2380:B1 0
12 *373:10 *2427:A 0.000109246
13 *373:10 *448:42 2.14658e-05
14 *2422:A1 *373:10 0
15 *2422:B1_N *2381:B 4.33438e-05
*RES
1 *2380:Y *373:10 11.5143 
2 *373:10 *2381:B 20.2464 
3 *373:10 *2422:A2 9.83571 
*END

*D_NET *374 0.000742458
*CONN
*I *2382:B I *D sky130_fd_sc_hd__xor2_1
*I *2381:X O *D sky130_fd_sc_hd__or2_1
*CAP
1 *2382:B 0.000247944
2 *2381:X 0.000247944
3 *2382:B *2326:A1 0
4 *2382:B *2377:B 1.41706e-05
5 *2382:B *518:12 0
6 *2382:B *548:47 0.000232399
7 *2381:B *2382:B 0
*RES
1 *2381:X *2382:B 32.0286 
*END

*D_NET *375 0.00226811
*CONN
*I *2383:C I *D sky130_fd_sc_hd__nor3_1
*I *2384:B1 I *D sky130_fd_sc_hd__o21a_1
*I *2382:X O *D sky130_fd_sc_hd__xor2_1
*CAP
1 *2383:C 0.000106733
2 *2384:B1 0
3 *2382:X 0.000377205
4 *375:14 0.000483938
5 *375:14 *2324:A 1.65558e-05
6 *375:14 *2324:B 5.62995e-05
7 *375:14 *2325:B 0
8 *375:14 *448:42 9.22103e-06
9 *375:14 *518:38 0.000230475
10 *375:14 *519:8 9.25014e-06
11 *375:14 *520:12 0.000140933
12 *2328:A *375:14 6.8646e-06
13 *2383:A *2383:C 5.52302e-05
14 *2383:B *2383:C 1.74352e-05
15 *2384:A1 *2383:C 0.000211249
16 *2384:A1 *375:14 0.000144773
17 *312:6 *375:14 0.000353079
18 *314:10 *375:14 4.88637e-05
19 *317:10 *375:14 0
*RES
1 *2382:X *375:14 27.9786 
2 *375:14 *2384:B1 9.3 
3 *375:14 *2383:C 11.8893 
*END

*D_NET *376 0.000887608
*CONN
*I *2385:A I *D sky130_fd_sc_hd__or2_1
*I *2383:Y O *D sky130_fd_sc_hd__nor3_1
*CAP
1 *2385:A 0.000290578
2 *2383:Y 0.000290578
3 *2385:A *577:14 0.000101545
4 *2328:B *2385:A 5.9483e-05
5 *2383:A *2385:A 0.00010096
6 *313:10 *2385:A 2.56601e-05
7 *313:32 *2385:A 1.88048e-05
*RES
1 *2383:Y *2385:A 32.9214 
*END

*D_NET *377 0.00187866
*CONN
*I *2430:B1 I *D sky130_fd_sc_hd__a21oi_1
*I *2385:B I *D sky130_fd_sc_hd__or2_1
*I *2384:X O *D sky130_fd_sc_hd__o21a_1
*CAP
1 *2430:B1 9.48895e-05
2 *2385:B 5.43006e-05
3 *2384:X 0.000143533
4 *377:8 0.000292723
5 *2385:B *490:14 0.00018372
6 *2430:B1 *2431:B 4.0342e-06
7 *2430:B1 *493:48 9.60939e-05
8 *2430:B1 *566:18 0.000146474
9 *377:8 *566:18 0.00019384
10 *2328:B *2385:B 1.98839e-05
11 *2328:C *2385:B 9.41642e-05
12 *2328:C *377:8 7.33494e-06
13 *314:10 *377:8 6.32633e-05
14 *317:10 *377:8 0.00026467
15 *317:34 *2430:B1 0.00013966
16 *317:34 *377:8 8.00806e-05
*RES
1 *2384:X *377:8 18.175 
2 *377:8 *2385:B 15.5679 
3 *377:8 *2430:B1 16.6929 
*END

*D_NET *378 0.000712077
*CONN
*I *2387:B I *D sky130_fd_sc_hd__xor2_1
*I *2386:A I *D sky130_fd_sc_hd__inv_2
*I *2385:X O *D sky130_fd_sc_hd__or2_1
*CAP
1 *2387:B 0.000117914
2 *2386:A 2.61224e-05
3 *2385:X 0.000144039
4 *378:10 0.000288076
5 *2386:A *493:48 2.89016e-05
6 *2387:B *2431:B 4.57445e-05
7 *2387:B *381:12 4.1331e-06
8 *378:10 *490:14 5.71472e-05
9 *378:10 *566:18 0
10 *2430:A1 *2387:B 0
11 *2430:A1 *378:10 0
*RES
1 *2385:X *378:10 15.9786 
2 *378:10 *2386:A 14.3357 
3 *378:10 *2387:B 16.3536 
*END

*D_NET *379 0.000129043
*CONN
*I *2430:A2 I *D sky130_fd_sc_hd__a21oi_1
*I *2386:Y O *D sky130_fd_sc_hd__inv_2
*CAP
1 *2430:A2 2.50008e-05
2 *2386:Y 2.50008e-05
3 *2430:A2 *2431:B 2.27416e-05
4 *2430:A2 *493:48 5.62995e-05
*RES
1 *2386:Y *2430:A2 19.5464 
*END

*D_NET *380 0.00314335
*CONN
*I *1994:B I *D sky130_fd_sc_hd__or2_1
*I *1992:A2 I *D sky130_fd_sc_hd__a211o_1
*I *1993:B I *D sky130_fd_sc_hd__nor2_1
*I *1991:X O *D sky130_fd_sc_hd__and2b_1
*CAP
1 *1994:B 0.000306509
2 *1992:A2 6.47409e-05
3 *1993:B 0.00044583
4 *1991:X 0
5 *380:10 0.000568895
6 *380:4 0.000364833
7 *1992:A2 *391:12 2.89114e-05
8 *1993:B *1998:A1 1.55885e-05
9 *1993:B *1999:B1 0.000372876
10 *1993:B *2532:A 0.000228767
11 *1993:B *391:12 6.94952e-05
12 *1993:B *441:10 1.58163e-05
13 *1993:B *547:47 5.7661e-06
14 *1994:B *1991:A_N 0.000226507
15 *1994:B *2424:B 0.000100831
16 *1994:B *532:16 0
17 *380:10 *551:10 3.87299e-05
18 *380:10 *554:104 0.000125304
19 *1992:C1 *1992:A2 5.52238e-05
20 *1999:A2 *1993:B 5.64172e-05
21 *38:37 *1994:B 5.23057e-05
*RES
1 *1991:X *380:4 9.3 
2 *380:4 *380:10 10.6429 
3 *380:10 *1993:B 19.0321 
4 *380:10 *1992:A2 10.6571 
5 *380:4 *1994:B 23.05 
*END

*D_NET *381 0.00187421
*CONN
*I *2389:B1 I *D sky130_fd_sc_hd__a21oi_1
*I *2388:C I *D sky130_fd_sc_hd__and3_1
*I *2387:X O *D sky130_fd_sc_hd__xor2_1
*CAP
1 *2389:B1 0.000190696
2 *2388:C 0
3 *2387:X 0.000477063
4 *381:12 0.000667759
5 *2389:B1 *383:10 1.03968e-05
6 *381:12 *2431:A 0
7 *381:12 *2431:B 0
8 *2387:B *381:12 4.1331e-06
9 *2389:A1 *2389:B1 0.000180966
10 *2389:A1 *381:12 0.000106663
11 *319:12 *381:12 0.000236528
12 *368:18 *381:12 0
*RES
1 *2387:X *381:12 26.9429 
2 *381:12 *2388:C 9.3 
3 *381:12 *2389:B1 12.2464 
*END

*D_NET *382 0.00171681
*CONN
*I *2390:A1 I *D sky130_fd_sc_hd__o21ai_1
*I *2391:B I *D sky130_fd_sc_hd__or3_1
*I *2388:X O *D sky130_fd_sc_hd__and3_1
*CAP
1 *2390:A1 0.000167212
2 *2391:B 0.000364915
3 *2388:X 7.53769e-05
4 *382:8 0.000607505
5 *2390:A1 *2390:A2 7.252e-05
6 *2390:A1 *383:10 5.99221e-05
7 *2390:A1 *494:12 5.52302e-05
8 *2391:B *2412:B 0.00014183
9 *2391:B *383:14 2.32625e-05
10 *382:8 *383:10 3.69697e-05
11 *382:8 *533:16 0
12 *2334:B *2390:A1 0
13 *2391:A *2391:B 8.86413e-05
14 *322:25 *382:8 2.34204e-05
*RES
1 *2388:X *382:8 15.1393 
2 *382:8 *2391:B 18.4429 
3 *382:8 *2390:A1 17.4964 
*END

*D_NET *383 0.00152046
*CONN
*I *2390:A2 I *D sky130_fd_sc_hd__o21ai_1
*I *2412:A_N I *D sky130_fd_sc_hd__and2b_1
*I *2391:C I *D sky130_fd_sc_hd__or3_1
*I *2389:Y O *D sky130_fd_sc_hd__a21oi_1
*CAP
1 *2390:A2 6.09786e-05
2 *2412:A_N 0
3 *2391:C 0.000136152
4 *2389:Y 0.000157038
5 *383:14 0.000220274
6 *383:10 0.000302139
7 *383:10 *533:16 3.84385e-05
8 *2333:A *2391:C 0
9 *2389:A1 *383:10 4.0342e-06
10 *2389:B1 *383:10 1.03968e-05
11 *2390:A1 *2390:A2 7.252e-05
12 *2390:A1 *383:10 5.99221e-05
13 *2391:A *2390:A2 7.83462e-05
14 *2391:A *2391:C 0.000268403
15 *2391:A *383:10 3.17067e-05
16 *2391:A *383:14 1.98839e-05
17 *2391:B *383:14 2.32625e-05
18 *382:8 *383:10 3.69697e-05
*RES
1 *2389:Y *383:10 16.9964 
2 *383:10 *383:14 5.85714 
3 *383:14 *2391:C 12.3179 
4 *383:14 *2412:A_N 9.3 
5 *383:10 *2390:A2 15.7464 
*END

*D_NET *384 0.00145617
*CONN
*I *2393:B I *D sky130_fd_sc_hd__and3_1
*I *2392:A I *D sky130_fd_sc_hd__nand2_1
*I *2390:Y O *D sky130_fd_sc_hd__o21ai_1
*CAP
1 *2393:B 5.30958e-05
2 *2392:A 7.41107e-05
3 *2390:Y 0.000463495
4 *384:10 0.000590702
5 *2392:A *2393:C 4.58976e-05
6 *2393:B *431:10 0
7 *384:10 *2434:A 4.79842e-05
8 *384:10 *2434:B 0
9 *384:10 *385:21 0
10 *384:10 *431:10 0
11 *384:10 *494:12 8.18412e-05
12 *384:10 *533:16 0
13 *2393:A *2392:A 9.90431e-05
14 *2393:A *2393:B 0
15 *2393:A *384:10 0
16 *2411:A *384:10 0
*RES
1 *2390:Y *384:10 20.8714 
2 *384:10 *2392:A 15.5679 
3 *384:10 *2393:B 14.8357 
*END

*D_NET *385 0.00215351
*CONN
*I *2392:B I *D sky130_fd_sc_hd__nand2_1
*I *2393:C I *D sky130_fd_sc_hd__and3_1
*I *2412:B I *D sky130_fd_sc_hd__and2b_1
*I *2391:X O *D sky130_fd_sc_hd__or3_1
*CAP
1 *2392:B 8.06254e-05
2 *2393:C 0.000175302
3 *2412:B 0.000180478
4 *2391:X 0
5 *385:21 0.000561541
6 *385:6 0.000486091
7 *2412:B *2433:A 0
8 *2412:B *494:12 5.99221e-05
9 *385:21 *2434:B 0
10 *385:21 *431:10 7.6644e-05
11 *385:21 *494:12 5.33882e-05
12 *2391:A *2412:B 0.000185643
13 *2391:B *2412:B 0.00014183
14 *2392:A *2393:C 4.58976e-05
15 *2393:A *2393:C 0.00010615
16 *384:10 *385:21 0
*RES
1 *2391:X *385:6 13.8 
2 *385:6 *2412:B 18.1393 
3 *385:6 *385:21 10.3929 
4 *385:21 *2393:C 11.55 
5 *385:21 *2392:B 10.5679 
*END

*D_NET *386 0.00112295
*CONN
*I *2394:B I *D sky130_fd_sc_hd__xnor2_1
*I *2392:Y O *D sky130_fd_sc_hd__nand2_1
*CAP
1 *2394:B 0.000387803
2 *2392:Y 0.000387803
3 *2394:B *431:10 0.000347347
*RES
1 *2392:Y *2394:B 35.3857 
*END

*D_NET *387 0.000305574
*CONN
*I *2411:B I *D sky130_fd_sc_hd__xnor2_1
*I *2393:X O *D sky130_fd_sc_hd__and3_1
*CAP
1 *2411:B 0.000127409
2 *2393:X 0.000127409
3 *2411:B *533:16 1.40306e-05
4 *2393:A *2411:B 3.67257e-05
*RES
1 *2393:X *2411:B 20.7964 
*END

*D_NET *388 0.0024941
*CONN
*I *2395:B I *D sky130_fd_sc_hd__xnor2_1
*I *2410:B1 I *D sky130_fd_sc_hd__o21ai_1
*I *2394:Y O *D sky130_fd_sc_hd__xnor2_1
*CAP
1 *2395:B 0.000157517
2 *2410:B1 0
3 *2394:Y 0.000568199
4 *388:10 0.000725717
5 *2395:B *2441:A1 2.59355e-05
6 *2395:B *2441:A2 0.000157311
7 *2395:B *2441:C1 5.52302e-05
8 *2395:B *397:12 0.00022266
9 *2395:B *545:138 0.000236492
10 *388:10 *2403:A1 1.37292e-05
11 *388:10 *405:12 0.00015304
12 *388:10 *545:138 2.59093e-05
13 *2337:A *388:10 8.59039e-05
14 *2340:A *2395:B 3.8011e-05
15 *2368:B1 *388:10 0
16 *2397:A *388:10 0
17 *2410:A2 *388:10 2.84398e-05
18 *328:12 *388:10 0
19 *360:10 *388:10 0
*RES
1 *2394:Y *388:10 29.9607 
2 *388:10 *2410:B1 9.3 
3 *388:10 *2395:B 14.3536 
*END

*D_NET *389 0.00237686
*CONN
*I *2396:B I *D sky130_fd_sc_hd__or2_1
*I *2397:B I *D sky130_fd_sc_hd__nand2_1
*I *2395:Y O *D sky130_fd_sc_hd__xnor2_1
*CAP
1 *2396:B 0.000192862
2 *2397:B 0.000251361
3 *2395:Y 0
4 *389:6 0.000444223
5 *2396:B *2403:A2 8.79437e-05
6 *2396:B *514:58 0
7 *2396:B *545:140 0.000218734
8 *2397:B *2403:A3 0.00010096
9 *2397:B *2513:A 0.000343801
10 *2397:A *2397:B 5.52302e-05
11 *2410:A2 *2396:B 1.33343e-05
12 *259:12 *2397:B 0.000277839
13 *259:18 *2396:B 1.3142e-05
14 *259:18 *2397:B 7.05143e-06
15 *329:23 *2396:B 0.000271345
16 *334:14 *2396:B 9.90367e-05
*RES
1 *2395:Y *389:6 13.8 
2 *389:6 *2397:B 20.5857 
3 *389:6 *2396:B 19.55 
*END

*D_NET *390 0.000749307
*CONN
*I *2403:A2 I *D sky130_fd_sc_hd__a31o_1
*I *2396:X O *D sky130_fd_sc_hd__or2_1
*CAP
1 *2403:A2 0.00019379
2 *2396:X 0.00019379
3 *2403:A2 *2441:A3 0.00014576
4 *2403:A2 *2513:A 6.65398e-05
5 *2403:A2 *397:12 2.39779e-05
6 *2396:B *2403:A2 8.79437e-05
7 *2397:A *2403:A2 3.75052e-05
*RES
1 *2396:X *2403:A2 32.2071 
*END

*D_NET *391 0.00289207
*CONN
*I *2521:A I *D sky130_fd_sc_hd__dlymetal6s2s_1
*I *1999:B1 I *D sky130_fd_sc_hd__a211o_1
*I *2519:A I *D sky130_fd_sc_hd__dlygate4sd1_1
*I *1992:X O *D sky130_fd_sc_hd__a211o_1
*CAP
1 *2521:A 6.91924e-05
2 *1999:B1 0.000275862
3 *2519:A 0.000144242
4 *1992:X 0
5 *391:12 0.000574808
6 *391:4 0.000223896
7 *1999:B1 *1998:B1 0.000137983
8 *2519:A *1991:A_N 0.000181796
9 *2519:A *1998:B1 2.28499e-05
10 *2519:A *550:79 4.55995e-05
11 *2519:A *554:104 8.49438e-05
12 *2521:A *1995:A1 5.52238e-05
13 *2521:A *412:14 2.89016e-05
14 *2521:A *554:104 6.42338e-05
15 *391:12 *1998:A1 9.66977e-05
16 *391:12 *550:79 1.60506e-05
17 *391:12 *554:104 3.14816e-05
18 *1992:A2 *391:12 2.89114e-05
19 *1992:C1 *2521:A 0.000125724
20 *1993:B *1999:B1 0.000372876
21 *1993:B *391:12 6.94952e-05
22 *1999:A2 *1999:B1 1.05731e-05
23 *38:37 *2519:A 0.000230726
*RES
1 *1992:X *391:4 9.3 
2 *391:4 *391:12 7.73214 
3 *391:12 *2519:A 18.3357 
4 *391:12 *1999:B1 19.2821 
5 *391:4 *2521:A 20.4786 
*END

*D_NET *392 0.000509325
*CONN
*I *2403:A3 I *D sky130_fd_sc_hd__a31o_1
*I *2397:Y O *D sky130_fd_sc_hd__nand2_1
*CAP
1 *2403:A3 0.000127092
2 *2397:Y 0.000127092
3 *2403:A3 *2403:A1 2.84494e-05
4 *2403:A3 *2513:A 0.000125731
5 *2397:A *2403:A3 0
6 *2397:B *2403:A3 0.00010096
*RES
1 *2397:Y *2403:A3 30.1893 
*END

*D_NET *393 0.000865019
*CONN
*I *2399:B2 I *D sky130_fd_sc_hd__o22a_1
*I *2398:Y O *D sky130_fd_sc_hd__a21oi_1
*CAP
1 *2399:B2 0.000228198
2 *2398:Y 0.000228198
3 *2399:B2 *2398:A2 6.88458e-06
4 *2399:B2 *2399:A1 0
5 *2399:B2 *2481:A 5.64168e-05
6 *188:18 *2399:B2 0.000310816
7 *188:24 *2399:B2 3.45052e-05
*RES
1 *2398:Y *2399:B2 32.35 
*END

*D_NET *394 0.000460558
*CONN
*I *2401:B1 I *D sky130_fd_sc_hd__a211o_1
*I *2399:X O *D sky130_fd_sc_hd__o22a_1
*CAP
1 *2401:B1 0.000119914
2 *2399:X 0.000119914
3 *2401:B1 *2399:A2 9.54798e-06
4 *2401:B1 *2401:A1 1.73088e-05
5 *2401:B1 *2401:C1 9.85571e-05
6 *2401:B1 *2440:B1 3.18676e-05
7 *2401:B1 *523:76 0
8 *2360:B *2401:B1 6.34485e-05
*RES
1 *2399:X *2401:B1 30.3321 
*END

*D_NET *395 0.000514619
*CONN
*I *2401:C1 I *D sky130_fd_sc_hd__a211o_1
*I *2400:X O *D sky130_fd_sc_hd__a32o_1
*CAP
1 *2401:C1 0.000133263
2 *2400:X 0.000133263
3 *2401:C1 *2399:A2 0
4 *2401:C1 *535:66 0.000144933
5 *2401:C1 *537:65 4.6025e-06
6 *2401:B1 *2401:C1 9.85571e-05
*RES
1 *2400:X *2401:C1 30.0821 
*END

*D_NET *396 0.00173481
*CONN
*I *2402:C1 I *D sky130_fd_sc_hd__a211o_1
*I *2401:X O *D sky130_fd_sc_hd__a211o_1
*CAP
1 *2402:C1 0.000519409
2 *2401:X 0.000519409
3 *2402:C1 *2401:A1 9.99811e-05
4 *2402:C1 *2402:A2 4.20505e-05
5 *2402:C1 *2438:B2 6.8646e-06
6 *2402:C1 *2441:B1 6.53083e-05
7 *2402:C1 *397:12 5.41494e-05
8 *2402:C1 *492:37 0.000365674
9 *2402:C1 *535:66 0
10 *2367:B *2402:C1 0
11 *2402:B1 *2402:C1 3.93346e-05
12 *2439:A3 *2402:C1 2.2628e-05
*RES
1 *2401:X *2402:C1 38.0464 
*END

*D_NET *397 0.00601835
*CONN
*I *2403:B1 I *D sky130_fd_sc_hd__a31o_1
*I *2402:X O *D sky130_fd_sc_hd__a211o_1
*CAP
1 *2403:B1 0
2 *2402:X 0.00156695
3 *397:12 0.00156695
4 *397:12 *2441:A3 9.91086e-05
5 *397:12 *2441:C1 0.00210768
6 *397:12 *405:12 9.60875e-05
7 *397:12 *545:138 0.000135028
8 *2395:B *397:12 0.00022266
9 *2397:A *397:12 0.000145753
10 *2402:C1 *397:12 5.41494e-05
11 *2403:A2 *397:12 2.39779e-05
*RES
1 *2402:X *397:12 49.5321 
2 *397:12 *2403:B1 9.3 
*END

*D_NET *398 0.00231821
*CONN
*I *2408:A I *D sky130_fd_sc_hd__xnor2_1
*I *2404:Y O *D sky130_fd_sc_hd__a21oi_1
*CAP
1 *2408:A 0.000763642
2 *2404:Y 0.000763642
3 *2408:A *2253:B 0
4 *2408:A *2405:A 8.80572e-05
5 *2408:A *2407:A 0.000142856
6 *2408:A *2408:B 0.000136697
7 *2408:A *553:22 0.000153887
8 *2408:A *554:116 0.000269428
*RES
1 *2404:Y *2408:A 31.8143 
*END

*D_NET *399 0.000330556
*CONN
*I *2407:A I *D sky130_fd_sc_hd__xnor2_1
*I *2405:Y O *D sky130_fd_sc_hd__xnor2_1
*CAP
1 *2407:A 9.08241e-05
2 *2405:Y 9.08241e-05
3 *2407:A *2405:A 6.05161e-06
4 *2407:A *2408:B 0
5 *2408:A *2407:A 0.000142856
*RES
1 *2405:Y *2407:A 20.6893 
*END

*D_NET *400 0.00350987
*CONN
*I *2407:B I *D sky130_fd_sc_hd__xnor2_1
*I *2406:X O *D sky130_fd_sc_hd__a21o_1
*CAP
1 *2407:B 0.00155765
2 *2406:X 0.00155765
3 *2407:B *492:37 1.76135e-05
4 *2407:B *492:39 6.5185e-05
5 *2407:B *535:21 0.000158115
6 *2407:B *535:66 8.15939e-05
7 *353:12 *2407:B 7.20729e-05
*RES
1 *2406:X *2407:B 46.9214 
*END

*D_NET *401 0.00130076
*CONN
*I *1995:A2 I *D sky130_fd_sc_hd__o21bai_1
*I *1993:Y O *D sky130_fd_sc_hd__nor2_1
*CAP
1 *1995:A2 0.000172381
2 *1993:Y 0.000172381
3 *1995:A2 *2014:B2 9.25014e-06
4 *1995:A2 *2516:A 0.000226507
5 *1995:A2 *423:8 0.000392026
6 *1995:A2 *434:8 9.25014e-06
7 *1995:A2 *434:10 0.000121573
8 *1995:A2 *569:16 6.09572e-05
9 *1995:B1_N *1995:A2 5.52302e-05
10 *38:37 *1995:A2 8.12055e-05
*RES
1 *1993:Y *1995:A2 33.475 
*END

*D_NET *402 0.000226494
*CONN
*I *2408:B I *D sky130_fd_sc_hd__xnor2_1
*I *2407:Y O *D sky130_fd_sc_hd__xnor2_1
*CAP
1 *2408:B 4.48987e-05
2 *2407:Y 4.48987e-05
3 *2407:A *2408:B 0
4 *2408:A *2408:B 0.000136697
*RES
1 *2407:Y *2408:B 19.975 
*END

*D_NET *403 0.000363868
*CONN
*I *2409:B I *D sky130_fd_sc_hd__nor2_1
*I *2408:Y O *D sky130_fd_sc_hd__xnor2_1
*CAP
1 *2409:B 9.16281e-05
2 *2408:Y 9.16281e-05
3 *2409:B *523:76 0.000174805
4 *2409:B *535:66 0
5 *2409:A *2409:B 5.80706e-06
*RES
1 *2408:Y *2409:B 29.85 
*END

*D_NET *404 0.00402513
*CONN
*I *2441:C1 I *D sky130_fd_sc_hd__a311o_1
*I *2409:Y O *D sky130_fd_sc_hd__nor2_1
*CAP
1 *2441:C1 0.000820132
2 *2409:Y 0.000820132
3 *2340:A *2441:C1 0.0001871
4 *2395:B *2441:C1 5.52302e-05
5 *2410:A1 *2441:C1 3.4855e-05
6 *397:12 *2441:C1 0.00210768
*RES
1 *2409:Y *2441:C1 40.225 
*END

*D_NET *405 0.00167973
*CONN
*I *2436:A I *D sky130_fd_sc_hd__nand2_1
*I *2435:A I *D sky130_fd_sc_hd__or2_1
*I *2410:Y O *D sky130_fd_sc_hd__o21ai_1
*CAP
1 *2436:A 0
2 *2435:A 0.000326055
3 *2410:Y 0.000118044
4 *405:12 0.000444099
5 *2435:A *2403:A1 0.000137983
6 *2435:A *2436:B 0.000154866
7 *2435:A *2441:A3 8.25843e-06
8 *2435:A *2512:A 3.30352e-05
9 *2435:A *545:138 5.52238e-05
10 *405:12 *545:138 0.00015304
11 *388:10 *405:12 0.00015304
12 *397:12 *405:12 9.60875e-05
*RES
1 *2410:Y *405:12 21.1929 
2 *405:12 *2435:A 15.7464 
3 *405:12 *2436:A 9.3 
*END

*D_NET *406 0.000214876
*CONN
*I *2434:A I *D sky130_fd_sc_hd__xnor2_1
*I *2411:Y O *D sky130_fd_sc_hd__xnor2_1
*CAP
1 *2434:A 4.9705e-05
2 *2411:Y 4.9705e-05
3 *2434:A *533:16 6.74815e-05
4 *384:10 *2434:A 4.79842e-05
*RES
1 *2411:Y *2434:A 29.2429 
*END

*D_NET *407 0.000489891
*CONN
*I *2433:A I *D sky130_fd_sc_hd__xnor2_1
*I *2412:X O *D sky130_fd_sc_hd__and2b_1
*CAP
1 *2433:A 0.000234991
2 *2412:X 0.000234991
3 *2433:A *2433:B 1.99099e-05
4 *2433:A *2434:B 0
5 *2433:A *494:12 0
6 *2433:A *533:16 0
7 *2412:B *2433:A 0
*RES
1 *2412:X *2433:A 31.6 
*END

*D_NET *408 0.00040961
*CONN
*I *2421:A I *D sky130_fd_sc_hd__xnor2_1
*I *2413:Y O *D sky130_fd_sc_hd__nand2_1
*CAP
1 *2421:A 6.53597e-05
2 *2413:Y 6.53597e-05
3 *2421:A *2413:A 8.57732e-05
4 *2421:A *2413:B 0.000193117
*RES
1 *2413:Y *2421:A 20.7964 
*END

*D_NET *409 0.000923751
*CONN
*I *2418:A I *D sky130_fd_sc_hd__and4_1
*I *2419:A1 I *D sky130_fd_sc_hd__a22o_1
*I *2414:X O *D sky130_fd_sc_hd__a22o_1
*CAP
1 *2418:A 2.84912e-05
2 *2419:A1 0.000144189
3 *2414:X 4.90305e-05
4 *409:8 0.00022171
5 *2418:A *2416:A2 5.52302e-05
6 *2419:A1 *2419:A2 9.49076e-05
7 *2419:A1 *2419:B1 0.000173083
8 *2419:A1 *551:10 2.89623e-05
9 *409:8 *2416:A1 7.5779e-05
10 *409:8 *2419:A2 1.55485e-05
11 *409:8 *410:8 3.25145e-05
12 *409:8 *551:10 4.30584e-06
*RES
1 *2414:X *409:8 15.1393 
2 *409:8 *2419:A1 17.6214 
3 *409:8 *2418:A 14.3357 
*END

*D_NET *410 0.00108544
*CONN
*I *2418:B I *D sky130_fd_sc_hd__and4_1
*I *2419:A2 I *D sky130_fd_sc_hd__a22o_1
*I *2415:Y O *D sky130_fd_sc_hd__nand4_1
*CAP
1 *2418:B 4.62786e-05
2 *2419:A2 0.000153377
3 *2415:Y 3.67127e-05
4 *410:8 0.000236368
5 *2418:B *2416:A2 3.23206e-05
6 *2419:A2 *2418:D 9.90367e-05
7 *2419:A2 *2424:B 0.000262595
8 *410:8 *2424:B 7.5779e-05
9 *2419:A1 *2419:A2 9.49076e-05
10 *409:8 *2419:A2 1.55485e-05
11 *409:8 *410:8 3.25145e-05
*RES
1 *2415:Y *410:8 14.8357 
2 *410:8 *2419:A2 18.2107 
3 *410:8 *2418:B 14.3357 
*END

*D_NET *411 0.00109184
*CONN
*I *2418:C I *D sky130_fd_sc_hd__and4_1
*I *2419:B1 I *D sky130_fd_sc_hd__a22o_1
*I *2416:X O *D sky130_fd_sc_hd__a22o_1
*CAP
1 *2418:C 7.8986e-05
2 *2419:B1 8.33624e-05
3 *2416:X 0
4 *411:4 0.000162348
5 *2418:C *2416:A2 0.000105007
6 *2418:C *520:58 0.000169359
7 *2419:B1 *2416:A2 4.87953e-05
8 *2419:B1 *520:58 9.60939e-05
9 *2419:B1 *551:10 0.000174805
10 *2419:A1 *2419:B1 0.000173083
*RES
1 *2416:X *411:4 9.3 
2 *411:4 *2419:B1 21.4964 
3 *411:4 *2418:C 11.8 
*END

*D_NET *412 0.00311277
*CONN
*I *1998:A2 I *D sky130_fd_sc_hd__a21oi_1
*I *1999:A1 I *D sky130_fd_sc_hd__a211o_1
*I *1994:X O *D sky130_fd_sc_hd__or2_1
*CAP
1 *1998:A2 0
2 *1999:A1 0.000322329
3 *1994:X 0.000539185
4 *412:14 0.000861513
5 *1999:A1 *1998:B1 0.00026546
6 *1999:A1 *2032:A2 5.52302e-05
7 *1999:A1 *517:95 4.58976e-05
8 *1999:A1 *517:97 7.79781e-06
9 *1999:A1 *524:43 2.05612e-05
10 *1999:A1 *569:16 5.90111e-05
11 *412:14 *1995:A1 4.80001e-05
12 *412:14 *1998:B1 9.89844e-05
13 *412:14 *2402:A2 5.80636e-05
14 *412:14 *535:23 0.000175512
15 *412:14 *547:12 1.07719e-05
16 *412:14 *549:12 9.56968e-05
17 *2521:A *412:14 2.89016e-05
18 *2529:A *1999:A1 5.33005e-05
19 *337:12 *1999:A1 3.34366e-05
20 *369:27 *1999:A1 0.000333117
*RES
1 *1994:X *412:14 28.0857 
2 *412:14 *1999:A1 26.2107 
3 *412:14 *1998:A2 9.3 
*END

*D_NET *413 0.00593715
*CONN
*I *2418:D I *D sky130_fd_sc_hd__and4_1
*I *2419:B2 I *D sky130_fd_sc_hd__a22o_1
*I *2417:X O *D sky130_fd_sc_hd__or4b_1
*CAP
1 *2418:D 0.000321949
2 *2419:B2 2.23854e-05
3 *2417:X 0.00177264
4 *413:12 0.00211697
5 *2418:D *2298:A 0
6 *2418:D *2420:A_N 6.26559e-05
7 *2418:D *2420:B 9.60939e-05
8 *2418:D *2421:B 1.58163e-05
9 *2418:D *2424:B 9.77024e-05
10 *413:12 *2002:A2 1.54142e-05
11 *413:12 *2007:B 1.39726e-05
12 *413:12 *2011:A1 0.000316579
13 *413:12 *2011:B1 2.89114e-05
14 *413:12 *2015:A2 0.000315158
15 *413:12 *2015:B1 3.40043e-05
16 *413:12 *2015:C1 2.59355e-05
17 *413:12 *2016:B 0.000114655
18 *413:12 *552:32 0.000393943
19 *413:12 *554:104 5.75147e-05
20 *2419:A2 *2418:D 9.90367e-05
21 *241:12 *413:12 1.58163e-05
*RES
1 *2417:X *413:12 34.2286 
2 *413:12 *2419:B2 9.72857 
3 *413:12 *2418:D 24.675 
*END

*D_NET *414 0.000391337
*CONN
*I *2420:A_N I *D sky130_fd_sc_hd__and2b_1
*I *2418:X O *D sky130_fd_sc_hd__and4_1
*CAP
1 *2420:A_N 9.94105e-05
2 *2418:X 9.94105e-05
3 *2420:A_N *2298:A 0
4 *2420:A_N *2416:A2 5.52238e-05
5 *2420:A_N *520:58 7.46367e-05
6 *2418:D *2420:A_N 6.26559e-05
*RES
1 *2418:X *2420:A_N 30.3857 
*END

*D_NET *415 0.000204306
*CONN
*I *2420:B I *D sky130_fd_sc_hd__and2b_1
*I *2419:X O *D sky130_fd_sc_hd__a22o_1
*CAP
1 *2420:B 5.41058e-05
2 *2419:X 5.41058e-05
3 *2418:D *2420:B 9.60939e-05
*RES
1 *2419:X *2420:B 19.5464 
*END

*D_NET *416 0.000475817
*CONN
*I *2421:B I *D sky130_fd_sc_hd__xnor2_1
*I *2420:X O *D sky130_fd_sc_hd__and2b_1
*CAP
1 *2421:B 0.000147169
2 *2420:X 0.000147169
3 *2421:B *2299:A1 1.99099e-05
4 *2421:B *2424:B 0.000145753
5 *2421:B *520:58 0
6 *2418:D *2421:B 1.58163e-05
*RES
1 *2420:X *2421:B 30.0821 
*END

*D_NET *417 0.00117758
*CONN
*I *2428:A I *D sky130_fd_sc_hd__xnor2_1
*I *2421:Y O *D sky130_fd_sc_hd__xnor2_1
*CAP
1 *2428:A 0.000231476
2 *2421:Y 0.000231476
3 *2428:A *2270:A 3.07555e-05
4 *2428:A *2298:A 0
5 *2428:A *2299:A1 6.07532e-05
6 *2428:A *2479:A 0.000186662
7 *2428:A *518:53 2.44318e-05
8 *2428:A *518:57 0.000126639
9 *2428:A *520:58 7.33494e-06
10 *2428:A *548:32 0.000177227
11 *2299:A2 *2428:A 0.000100831
*RES
1 *2421:Y *2428:A 34.5643 
*END

*D_NET *418 0.00111843
*CONN
*I *2427:A I *D sky130_fd_sc_hd__xnor2_1
*I *2422:Y O *D sky130_fd_sc_hd__o21bai_1
*CAP
1 *2427:A 0.000345939
2 *2422:Y 0.000345939
3 *2427:A *2380:A1 7.49387e-06
4 *2427:A *448:27 0.000139907
5 *2427:A *548:32 0.000150618
6 *2422:A2 *2427:A 1.92905e-05
7 *373:10 *2427:A 0.000109246
*RES
1 *2422:Y *2427:A 32.9571 
*END

*D_NET *419 0.000755952
*CONN
*I *2426:A I *D sky130_fd_sc_hd__xnor2_1
*I *2423:Y O *D sky130_fd_sc_hd__nand2_1
*CAP
1 *2426:A 0.000260363
2 *2423:Y 0.000260363
3 *2426:A *2423:B 0
4 *2426:A *2425:B 2.8266e-06
5 *2426:A *448:27 0.000232399
6 *2426:A *554:49 0
*RES
1 *2423:Y *2426:A 31.725 
*END

*D_NET *420 0.000826262
*CONN
*I *2425:B I *D sky130_fd_sc_hd__xor2_1
*I *2424:Y O *D sky130_fd_sc_hd__nand2_1
*CAP
1 *2425:B 0.000197934
2 *2424:Y 0.000197934
3 *2425:B *2378:A 0
4 *2425:B *2426:B 0.000144773
5 *2425:B *554:25 0.000272371
6 *2425:B *554:75 0
7 *2425:A *2425:B 1.04232e-05
8 *2426:A *2425:B 2.8266e-06
*RES
1 *2424:Y *2425:B 32.2607 
*END

*D_NET *421 0.000394304
*CONN
*I *2426:B I *D sky130_fd_sc_hd__xnor2_1
*I *2425:X O *D sky130_fd_sc_hd__xor2_1
*CAP
1 *2426:B 3.70145e-05
2 *2425:X 3.70145e-05
3 *2426:B *2423:B 0.000126639
4 *2426:B *554:25 4.88637e-05
5 *2425:B *2426:B 0.000144773
*RES
1 *2425:X *2426:B 20.7786 
*END

*D_NET *422 0.000440281
*CONN
*I *2427:B I *D sky130_fd_sc_hd__xnor2_1
*I *2426:Y O *D sky130_fd_sc_hd__xnor2_1
*CAP
1 *2427:B 6.61137e-05
2 *2426:Y 6.61137e-05
3 *2427:B *2423:B 0.000154027
4 *2427:B *554:25 0.000154027
*RES
1 *2426:Y *2427:B 21.6179 
*END

*D_NET *423 0.00262371
*CONN
*I *2010:B I *D sky130_fd_sc_hd__or2_1
*I *2028:B1 I *D sky130_fd_sc_hd__a21o_1
*I *2009:B I *D sky130_fd_sc_hd__nor2_1
*I *1995:Y O *D sky130_fd_sc_hd__o21bai_1
*CAP
1 *2010:B 2.30855e-05
2 *2028:B1 0.000144827
3 *2009:B 1.53865e-05
4 *1995:Y 0.000309818
5 *423:19 0.000497222
6 *423:8 0.000654514
7 *2009:B *2009:A 1.97695e-05
8 *2010:B *2059:A 0
9 *2028:B1 *470:12 0
10 *2028:B1 *543:94 3.87377e-05
11 *2028:B1 *550:97 0
12 *423:8 *1997:A 5.52238e-05
13 *423:8 *2359:A3 9.60875e-05
14 *423:8 *2516:A 8.41815e-05
15 *423:19 *2009:A 0.000271352
16 *423:19 *2516:A 1.39841e-05
17 *423:19 *439:10 7.49387e-06
18 *1995:A2 *423:8 0.000392026
*RES
1 *1995:Y *423:8 15.6036 
2 *423:8 *2009:B 9.72857 
3 *423:8 *423:19 4.66071 
4 *423:19 *2028:B1 20.4786 
5 *423:19 *2010:B 9.72857 
*END

*D_NET *424 0.000939627
*CONN
*I *2428:B I *D sky130_fd_sc_hd__xnor2_1
*I *2427:Y O *D sky130_fd_sc_hd__xnor2_1
*CAP
1 *2428:B 0.000268339
2 *2427:Y 0.000268339
3 *2428:B *2380:A1 7.6644e-05
4 *2428:B *2479:A 0.000250915
5 *2428:B *2482:A 5.17614e-05
6 *2428:B *518:53 0
7 *2428:B *554:8 1.02936e-05
8 *2428:B *554:25 1.33343e-05
*RES
1 *2427:Y *2428:B 33.0286 
*END

*D_NET *425 0.00311909
*CONN
*I *2432:A I *D sky130_fd_sc_hd__xnor2_1
*I *2428:Y O *D sky130_fd_sc_hd__xnor2_1
*CAP
1 *2432:A 0.00117265
2 *2428:Y 0.00117265
3 *2432:A *2298:A 0
4 *2432:A *2431:A 9.80173e-05
5 *2432:A *2432:B 9.9322e-05
6 *2432:A *518:53 9.25014e-06
7 *2432:A *520:35 0.000270212
8 *2432:A *545:52 0.00010326
9 *2330:A *2432:A 0.00018372
10 *368:18 *2432:A 1.00073e-05
*RES
1 *2428:Y *2432:A 47.975 
*END

*D_NET *426 0.0020226
*CONN
*I *2431:A I *D sky130_fd_sc_hd__xnor2_1
*I *2429:X O *D sky130_fd_sc_hd__a31o_1
*CAP
1 *2431:A 0.000555581
2 *2429:X 0.000555581
3 *2431:A *2431:B 3.34366e-05
4 *2431:A *555:18 2.07491e-05
5 *2431:A *566:18 0
6 *2432:A *2431:A 9.80173e-05
7 *311:12 *2431:A 0.000227526
8 *368:18 *2431:A 0.000531706
9 *381:12 *2431:A 0
*RES
1 *2429:X *2431:A 36.7786 
*END

*D_NET *427 0.0009307
*CONN
*I *2431:B I *D sky130_fd_sc_hd__xnor2_1
*I *2430:Y O *D sky130_fd_sc_hd__a21oi_1
*CAP
1 *2431:B 0.000324033
2 *2430:Y 0.000324033
3 *2431:B *493:48 1.40131e-05
4 *2387:B *2431:B 4.57445e-05
5 *2430:A1 *2431:B 7.92879e-05
6 *2430:A2 *2431:B 2.27416e-05
7 *2430:B1 *2431:B 4.0342e-06
8 *2431:A *2431:B 3.34366e-05
9 *368:18 *2431:B 8.33751e-05
10 *381:12 *2431:B 0
*RES
1 *2430:Y *2431:B 33.7429 
*END

*D_NET *428 0.000434903
*CONN
*I *2432:B I *D sky130_fd_sc_hd__xnor2_1
*I *2431:Y O *D sky130_fd_sc_hd__xnor2_1
*CAP
1 *2432:B 0.00016779
2 *2431:Y 0.00016779
3 *2432:A *2432:B 9.9322e-05
*RES
1 *2431:Y *2432:B 21.6179 
*END

*D_NET *429 0.000814113
*CONN
*I *2433:B I *D sky130_fd_sc_hd__xnor2_1
*I *2432:Y O *D sky130_fd_sc_hd__xnor2_1
*CAP
1 *2433:B 0.000330374
2 *2432:Y 0.000330374
3 *2433:B *533:16 0.000133456
4 *2433:B *544:16 0
5 *2433:A *2433:B 1.99099e-05
*RES
1 *2432:Y *2433:B 34.0464 
*END

*D_NET *430 0.0010442
*CONN
*I *2434:B I *D sky130_fd_sc_hd__xnor2_1
*I *2433:Y O *D sky130_fd_sc_hd__xnor2_1
*CAP
1 *2434:B 0.000270148
2 *2433:Y 0.000270148
3 *2434:B *533:16 0.000503906
4 *2433:A *2434:B 0
5 *384:10 *2434:B 0
6 *385:21 *2434:B 0
*RES
1 *2433:Y *2434:B 34.1 
*END

*D_NET *431 0.00387608
*CONN
*I *2436:B I *D sky130_fd_sc_hd__nand2_1
*I *2435:B I *D sky130_fd_sc_hd__or2_1
*I *2434:Y O *D sky130_fd_sc_hd__xnor2_1
*CAP
1 *2436:B 0.000259259
2 *2435:B 0
3 *2434:Y 0.000733156
4 *431:10 0.000992416
5 *2436:B *2441:A3 0.000136958
6 *2436:B *2512:A 9.41642e-05
7 *431:10 *493:26 0.000135118
8 op_out[7] *431:10 0
9 *2393:A *431:10 0
10 *2393:B *431:10 0
11 *2394:B *431:10 0.000347347
12 *2435:A *2436:B 0.000154866
13 *259:12 *2436:B 7.05447e-05
14 *259:12 *431:10 0.000875613
15 *384:10 *431:10 0
16 *385:21 *431:10 7.6644e-05
*RES
1 *2434:Y *431:10 31.0679 
2 *431:10 *2435:B 13.8 
3 *431:10 *2436:B 19.3893 
*END

*D_NET *432 0.00125074
*CONN
*I *2441:A2 I *D sky130_fd_sc_hd__a311o_1
*I *2435:X O *D sky130_fd_sc_hd__or2_1
*CAP
1 *2441:A2 0.000264927
2 *2435:X 0.000264927
3 *2441:A2 *2512:A 9.33907e-05
4 op_out[6] *2441:A2 0.000120065
5 *2340:A *2441:A2 0.000350124
6 *2395:B *2441:A2 0.000157311
*RES
1 *2435:X *2441:A2 34.4929 
*END

*D_NET *433 0.000866157
*CONN
*I *2441:A3 I *D sky130_fd_sc_hd__a311o_1
*I *2436:Y O *D sky130_fd_sc_hd__nand2_1
*CAP
1 *2441:A3 0.000226043
2 *2436:Y 0.000226043
3 *2397:A *2441:A3 2.39876e-05
4 *2403:A2 *2441:A3 0.00014576
5 *2435:A *2441:A3 8.25843e-06
6 *2436:B *2441:A3 0.000136958
7 *397:12 *2441:A3 9.91086e-05
*RES
1 *2436:Y *2441:A3 31.3143 
*END

*D_NET *434 0.00718193
*CONN
*I *2359:A2 I *D sky130_fd_sc_hd__a31o_1
*I *2028:A1 I *D sky130_fd_sc_hd__a21o_1
*I *1997:A I *D sky130_fd_sc_hd__inv_2
*I *2014:B2 I *D sky130_fd_sc_hd__a22o_1
*I *1996:Y O *D sky130_fd_sc_hd__a211oi_2
*CAP
1 *2359:A2 0.000518271
2 *2028:A1 0.00039348
3 *1997:A 1.1624e-05
4 *2014:B2 0.000476669
5 *1996:Y 0
6 *434:10 0.000539399
7 *434:8 0.000625304
8 *434:6 0.000698989
9 *1997:A *2516:A 5.52238e-05
10 *2014:B2 *2028:A2 4.15914e-05
11 *2014:B2 *2516:A 4.43256e-05
12 *2014:B2 *520:108 0.000145753
13 *2014:B2 *547:110 9.17088e-05
14 *2014:B2 *569:16 1.18358e-05
15 *2028:A1 *547:47 0.000566245
16 *2359:A2 *2359:A3 0.00114954
17 *2359:A2 *569:16 0.000400503
18 *434:8 *2359:A3 0.000372346
19 *434:8 *547:43 2.04825e-05
20 *434:8 *569:16 0.00011541
21 *434:10 *2028:A2 1.91414e-05
22 *434:10 *2359:A3 7.6644e-05
23 *1995:A2 *2014:B2 9.25014e-06
24 *1995:A2 *434:8 9.25014e-06
25 *1995:A2 *434:10 0.000121573
26 *2359:A1 *2359:A2 7.43578e-06
27 *38:37 *2014:B2 0.000453446
28 *192:102 *2359:A2 0.000131824
29 *343:23 *2359:A2 1.94319e-05
30 *423:8 *1997:A 5.52238e-05
*RES
1 *1996:Y *434:6 13.8 
2 *434:6 *434:8 4.98214 
3 *434:8 *434:10 1.64286 
4 *434:10 *2014:B2 30.8357 
5 *434:10 *1997:A 14.3357 
6 *434:8 *2028:A1 19.2643 
7 *434:6 *2359:A2 30.175 
*END

*D_NET *435 0.00148095
*CONN
*I *2438:B2 I *D sky130_fd_sc_hd__o22a_1
*I *2437:Y O *D sky130_fd_sc_hd__a21oi_1
*CAP
1 *2438:B2 0.000353091
2 *2437:Y 0.000353091
3 *2438:B2 *2401:A1 6.39163e-05
4 *2438:B2 *535:66 0.000302636
5 *2401:A2 *2438:B2 0.000138854
6 *2402:C1 *2438:B2 6.8646e-06
7 *199:54 *2438:B2 4.08637e-05
8 *199:64 *2438:B2 0.000221634
*RES
1 *2437:Y *2438:B2 34.2607 
*END

*D_NET *436 0.00113393
*CONN
*I *2440:B1 I *D sky130_fd_sc_hd__a211o_1
*I *2438:X O *D sky130_fd_sc_hd__o22a_1
*CAP
1 *2440:B1 0.000395298
2 *2438:X 0.000395298
3 *2440:B1 *2401:A1 5.03772e-05
4 *2440:B1 *523:76 0
5 *2440:B1 *532:8 5.49489e-05
6 *2440:B1 *535:66 3.7117e-05
7 *2254:A_N *2440:B1 0
8 *2360:B *2440:B1 2.60344e-05
9 *2401:B1 *2440:B1 3.18676e-05
10 *2440:A2 *2440:B1 3.08382e-06
11 *205:57 *2440:B1 6.87574e-05
12 *205:67 *2440:B1 7.11463e-05
*RES
1 *2438:X *2440:B1 34.5464 
*END

*D_NET *437 0.000960715
*CONN
*I *2440:C1 I *D sky130_fd_sc_hd__a211o_1
*I *2439:X O *D sky130_fd_sc_hd__a32o_1
*CAP
1 *2440:C1 0.00024878
2 *2439:X 0.00024878
3 *2440:C1 *2437:A2 2.22641e-05
4 *2440:C1 *492:18 0.000223144
5 *2440:C1 *492:25 0.000180777
6 *2440:C1 *532:10 3.69697e-05
*RES
1 *2439:X *2440:C1 31.8321 
*END

*D_NET *438 0.00595995
*CONN
*I *2441:B1 I *D sky130_fd_sc_hd__a311o_1
*I *2440:X O *D sky130_fd_sc_hd__a211o_1
*CAP
1 *2441:B1 0.00241725
2 *2440:X 0.00241725
3 *2441:B1 *2403:A1 3.51442e-05
4 *2441:B1 *514:58 0.000302493
5 *2441:B1 *537:65 0.00021186
6 *2441:B1 *545:140 0
7 *2315:C1 *2441:B1 0.000443511
8 *2342:A *2441:B1 0
9 *2402:C1 *2441:B1 6.53083e-05
10 *2410:A2 *2441:B1 0
11 *2439:A3 *2441:B1 6.71336e-05
12 *292:18 *2441:B1 0
13 *328:12 *2441:B1 0
*RES
1 *2440:X *2441:B1 45.8484 
*END

*D_NET *439 0.00469691
*CONN
*I *2029:C1 I *D sky130_fd_sc_hd__a211o_2
*I *2015:C1 I *D sky130_fd_sc_hd__a211o_1
*I *2020:A1 I *D sky130_fd_sc_hd__o21ai_1
*I *2021:A I *D sky130_fd_sc_hd__or4_4
*I *1997:Y O *D sky130_fd_sc_hd__inv_2
*CAP
1 *2029:C1 0
2 *2015:C1 5.45558e-05
3 *2020:A1 0.000186744
4 *2021:A 0
5 *1997:Y 0.000217795
6 *439:18 0.000740363
7 *439:12 0.000811338
8 *439:10 0.000420958
9 *2015:C1 *2015:A2 1.3701e-05
10 *2015:C1 *2015:B1 3.63587e-05
11 *2020:A1 *2006:A 0
12 *2020:A1 *2021:B 0.00010096
13 *2020:A1 *2048:C1 2.44318e-05
14 *2020:A1 *453:12 0.000108916
15 *2020:A1 *550:24 0
16 *439:10 *2009:A 2.79421e-05
17 *439:10 *2029:B1 0.000137931
18 *439:10 *2516:A 0.00014285
19 *439:10 *474:10 0.000173083
20 *439:12 *2000:A 0
21 *439:12 *2000:C 0
22 *439:12 *2008:A 0
23 *439:12 *2008:C 7.69776e-06
24 *439:12 *2029:A2 0
25 *439:12 *2029:B1 1.02504e-05
26 *439:12 *449:33 3.59402e-05
27 *439:12 *474:10 0.000327971
28 *439:18 *2015:A1 6.74911e-05
29 *439:18 *2027:A2 6.95112e-05
30 *439:18 *2047:A1 0.000219791
31 *439:18 *2048:A2 0
32 *439:18 *2048:B1 0.000120236
33 *439:18 *2048:C1 7.77751e-05
34 *439:18 *453:12 0
35 *439:18 *463:10 7.43578e-06
36 *439:18 *474:10 0.000209491
37 *439:18 *474:16 0.000160634
38 *439:18 *475:12 0.000151333
39 *413:12 *2015:C1 2.59355e-05
40 *423:19 *439:10 7.49387e-06
*RES
1 *1997:Y *439:10 18.6393 
2 *439:10 *439:12 4.375 
3 *439:12 *439:18 18.7321 
4 *439:18 *2021:A 9.3 
5 *439:18 *2020:A1 21.4607 
6 *439:12 *2015:C1 15.1929 
7 *439:10 *2029:C1 13.8 
*END

*D_NET *440 0.00294904
*CONN
*I *2402:A2 I *D sky130_fd_sc_hd__a211o_1
*I *1998:Y O *D sky130_fd_sc_hd__a21oi_1
*CAP
1 *2402:A2 0.000676515
2 *1998:Y 0.000676515
3 *2402:A2 *1988:B 0.000146474
4 *2402:A2 *1989:B1 0.000106594
5 *2402:A2 *551:29 7.12852e-05
6 *2402:A2 *554:104 0.00069242
7 *2402:A2 *554:130 0.00010326
8 *1992:C1 *2402:A2 0
9 *2402:B1 *2402:A2 0.000153614
10 *2402:C1 *2402:A2 4.20505e-05
11 *2538:A *2402:A2 0.000222248
12 *412:14 *2402:A2 5.80636e-05
*RES
1 *1998:Y *2402:A2 44.9705 
*END

*D_NET *441 0.00626798
*CONN
*I *2001:C I *D sky130_fd_sc_hd__nand3_1
*I *2000:C I *D sky130_fd_sc_hd__and3_1
*I *2517:A I *D sky130_fd_sc_hd__dlygate4sd1_1
*I *2002:A1 I *D sky130_fd_sc_hd__a21o_1
*I *1999:X O *D sky130_fd_sc_hd__a211o_1
*CAP
1 *2001:C 0.000495489
2 *2000:C 0.000662725
3 *2517:A 3.04135e-05
4 *2002:A1 0.000146869
5 *1999:X 0.000195712
6 *441:14 0.000232479
7 *441:12 0.000760111
8 *441:10 0.000733391
9 *2000:C *2000:B 5.30637e-06
10 *2000:C *2008:A 0.000288015
11 *2000:C *2008:C 1.95435e-05
12 *2000:C *2014:B1 0.000399835
13 *2000:C *443:10 5.05103e-05
14 *2000:C *454:12 2.14757e-05
15 *2001:C *443:6 0.000608147
16 *2001:C *443:10 5.33005e-05
17 *2001:C *550:73 7.83587e-05
18 *2001:C *552:24 2.56601e-05
19 *2001:C *552:32 4.1331e-06
20 *2002:A1 *2013:A2 0.000243635
21 *2002:A1 *449:8 9.60939e-05
22 *2002:A1 *569:16 0.000244628
23 *2517:A *444:33 5.33005e-05
24 *441:10 *569:16 0.000250262
25 *441:12 *2013:A2 0.000103974
26 *441:12 *569:16 0.00011891
27 *441:14 *2013:A2 0.000145618
28 *441:14 *569:16 0.000137075
29 *1993:B *441:10 1.58163e-05
30 *1995:B1_N *441:10 4.71964e-05
31 *439:12 *2000:C 0
*RES
1 *1999:X *441:10 17.8 
2 *441:10 *441:12 1.64286 
3 *441:12 *441:14 1.94643 
4 *441:14 *2002:A1 17.9071 
5 *441:14 *2517:A 14.3357 
6 *441:12 *2000:C 32.2643 
7 *441:10 *2001:C 30.1214 
*END

*D_NET *442 0.00155553
*CONN
*I *2011:C1 I *D sky130_fd_sc_hd__a211oi_2
*I *2012:C1 I *D sky130_fd_sc_hd__a211o_1
*I *2000:X O *D sky130_fd_sc_hd__and3_1
*CAP
1 *2011:C1 0.000349055
2 *2012:C1 2.36416e-05
3 *2000:X 4.52395e-05
4 *442:6 0.000417936
5 *2011:C1 *2011:B1 0.000212054
6 *2011:C1 *2012:B1 0.000262498
7 *2011:C1 *451:8 2.20282e-05
8 *2011:C1 *454:8 7.6298e-05
9 *2011:C1 *474:10 7.68201e-05
10 *2012:C1 *2008:C 3.08047e-05
11 *2012:C1 *2012:B1 3.31052e-05
12 *442:6 *2008:C 6.05161e-06
*RES
1 *2000:X *442:6 9.83571 
2 *442:6 *2012:C1 10.0321 
3 *442:6 *2011:C1 24.4607 
*END

*D_NET *443 0.00537273
*CONN
*I *2013:A2 I *D sky130_fd_sc_hd__a21o_1
*I *2029:A1 I *D sky130_fd_sc_hd__a211o_2
*I *2008:A I *D sky130_fd_sc_hd__nand3_1
*I *2001:Y O *D sky130_fd_sc_hd__nand3_1
*CAP
1 *2013:A2 0.000293364
2 *2029:A1 0
3 *2008:A 0.000182119
4 *2001:Y 0.000154784
5 *443:10 0.000427687
6 *443:6 0.000693716
7 *2008:A *2000:A 3.10885e-05
8 *2008:A *2000:B 4.87953e-05
9 *2008:A *2008:C 5.04709e-05
10 *2008:A *2014:B1 0
11 *2008:A *2029:A2 0.00024654
12 *2013:A2 *2000:A 5.52302e-05
13 *2013:A2 *2001:B 0.000116033
14 *2013:A2 *2007:A 0
15 *2013:A2 *2011:A1 5.41794e-05
16 *2013:A2 *2047:C1 5.71472e-05
17 *2013:A2 *552:43 6.50156e-05
18 *2013:A2 *552:53 1.52978e-05
19 *2013:A2 *569:16 5.84267e-05
20 *443:6 *2001:B 0.000517566
21 *443:6 *2014:B1 4.33174e-05
22 *443:10 *2014:B1 0.000154973
23 *443:10 *454:12 2.89114e-05
24 *2000:C *2008:A 0.000288015
25 *2000:C *443:10 5.05103e-05
26 *2001:C *443:6 0.000608147
27 *2001:C *443:10 5.33005e-05
28 *2002:A1 *2013:A2 0.000243635
29 *38:37 *2008:A 9.22103e-06
30 *38:37 *443:10 0.000575649
31 *439:12 *2008:A 0
32 *441:12 *2013:A2 0.000103974
33 *441:14 *2013:A2 0.000145618
*RES
1 *2001:Y *443:6 15.5857 
2 *443:6 *443:10 7.42857 
3 *443:10 *2008:A 23.8 
4 *443:10 *2029:A1 9.3 
5 *443:6 *2013:A2 26.55 
*END

*D_NET *444 0.00306869
*CONN
*I *2523:A I *D sky130_fd_sc_hd__clkbuf_1
*I *2522:A I *D sky130_fd_sc_hd__dlymetal6s2s_1
*I *2012:A2 I *D sky130_fd_sc_hd__a211o_1
*I *2011:A1 I *D sky130_fd_sc_hd__a211oi_2
*I *2002:X O *D sky130_fd_sc_hd__a21o_1
*CAP
1 *2523:A 0.000118464
2 *2522:A 0
3 *2012:A2 8.90943e-05
4 *2011:A1 0.00026674
5 *2002:X 0
6 *444:33 0.00046701
7 *444:27 0.000543303
8 *444:4 0.000313663
9 *2011:A1 *2001:B 2.61337e-05
10 *2011:A1 *2002:A2 5.52302e-05
11 *2011:A1 *449:8 3.94822e-05
12 *2011:A1 *449:12 5.33005e-05
13 *2011:A1 *552:32 0
14 *2012:A2 *2012:B1 7.56292e-05
15 *2012:A2 *449:33 0.000108191
16 *444:27 *2007:A 0.000150257
17 *444:27 *547:110 0.000150257
18 *444:33 *2012:B1 2.59355e-05
19 *444:33 *449:33 0.000161937
20 *2013:A2 *2011:A1 5.41794e-05
21 *2517:A *444:33 5.33005e-05
22 *413:12 *2011:A1 0.000316579
*RES
1 *2002:X *444:4 9.3 
2 *444:4 *2011:A1 23.4071 
3 *444:4 *444:27 10.9464 
4 *444:27 *444:33 6.83929 
5 *444:33 *2012:A2 11.9071 
6 *444:33 *2522:A 9.3 
7 *444:27 *2523:A 11.0679 
*END

*D_NET *445 0.000678483
*CONN
*I *2045:A I *D sky130_fd_sc_hd__and2_1
*I *2046:A I *D sky130_fd_sc_hd__nand2_1
*I *2003:X O *D sky130_fd_sc_hd__or2_1
*CAP
1 *2045:A 0
2 *2046:A 0.000141236
3 *2003:X 1.60925e-05
4 *445:6 0.000157328
5 *2046:A *2018:A2 4.83217e-05
6 *2046:A *2046:B 0.00014183
7 *2046:A *2048:C1 2.89016e-05
8 *2046:A *486:18 8.76257e-05
9 *445:6 *486:18 5.71472e-05
*RES
1 *2003:X *445:6 9.83571 
2 *445:6 *2046:A 12.7286 
3 *445:6 *2045:A 9.3 
*END

*D_NET *446 0.00282054
*CONN
*I *2025:B1 I *D sky130_fd_sc_hd__a31o_1
*I *2040:A I *D sky130_fd_sc_hd__xor2_1
*I *2039:A I *D sky130_fd_sc_hd__xnor2_1
*I *2004:Y O *D sky130_fd_sc_hd__nor2_1
*CAP
1 *2025:B1 0.000281168
2 *2040:A 0
3 *2039:A 0.000143952
4 *2004:Y 0.000119061
5 *446:12 0.000329273
6 *446:10 0.00058555
7 *2025:B1 *2019:B 9.90431e-05
8 *2025:B1 *464:6 0.000601004
9 *2039:A *2038:B 2.44318e-05
10 *2039:A *2040:B 0.00030669
11 *2039:A *480:8 5.71472e-05
12 *446:10 *2019:B 0
13 *446:10 *464:25 0
14 *446:12 *2038:B 5.62995e-05
15 *446:12 *464:6 0.00021692
*RES
1 *2004:Y *446:10 20.2464 
2 *446:10 *446:12 4.64286 
3 *446:12 *2039:A 13.1214 
4 *446:12 *2040:A 9.3 
5 *446:10 *2025:B1 16.9607 
*END

*D_NET *447 0.000662793
*CONN
*I *2021:B I *D sky130_fd_sc_hd__or4_4
*I *2005:Y O *D sky130_fd_sc_hd__nor2_1
*CAP
1 *2021:B 0.000123627
2 *2005:Y 0.000123627
3 *2021:B *2020:A2 0.00010096
4 *2021:B *2020:B1 3.18676e-05
5 *2021:B *2021:C 0.000164756
6 *2021:B *453:12 1.69961e-05
7 *2020:A1 *2021:B 0.00010096
*RES
1 *2005:Y *2021:B 22.0107 
*END

*D_NET *448 0.00694712
*CONN
*I *2325:C I *D sky130_fd_sc_hd__and3_1
*I *2326:B1 I *D sky130_fd_sc_hd__a21oi_1
*I *2379:C I *D sky130_fd_sc_hd__and3_1
*I *2021:C I *D sky130_fd_sc_hd__or4_4
*I *2006:X O *D sky130_fd_sc_hd__and2_1
*CAP
1 *2325:C 4.71378e-05
2 *2326:B1 0.000137076
3 *2379:C 5.79482e-05
4 *2021:C 0.000383419
5 *2006:X 0
6 *448:42 0.00090315
7 *448:27 0.00136843
8 *448:4 0.000974967
9 *2021:C *2006:A 2.14757e-05
10 *2021:C *462:12 9.5923e-05
11 *2021:C *547:129 6.22419e-05
12 *2325:C *2324:A 3.04742e-05
13 *2326:B1 *2325:B 0.000101545
14 *2326:B1 *2326:A1 0.000127684
15 *2326:B1 *548:47 5.52238e-05
16 *2379:C *2379:A 0.000101545
17 *2379:C *548:47 2.0954e-05
18 *448:27 *2006:A 0.000185643
19 *448:27 *2006:B 4.14279e-05
20 *448:27 *2379:A 2.44791e-05
21 *448:27 *2380:A1 1.39726e-05
22 *448:27 *2380:B1 5.52302e-05
23 *448:27 *2380:B2 5.83233e-05
24 *448:27 *548:32 1.52978e-05
25 *448:27 *548:38 3.57844e-05
26 *448:27 *552:74 0.000707901
27 *448:42 *2324:A 4.87854e-05
28 *448:42 *2324:B 0.000138816
29 *448:42 *2380:A1 0.000139913
30 *2021:B *2021:C 0.000164756
31 *2381:B *2379:C 0
32 *2382:A *448:42 0.000216121
33 *2422:A1 *448:42 0.00010096
34 *2422:A2 *448:42 2.28598e-05
35 *2422:B1_N *2379:C 3.92757e-05
36 *2422:B1_N *448:27 2.26424e-05
37 *2426:A *448:27 0.000232399
38 *2427:A *448:27 0.000139907
39 *312:6 *448:42 1.74352e-05
40 *314:10 *2326:B1 5.30637e-06
41 *373:10 *448:42 2.14658e-05
42 *375:14 *448:42 9.22103e-06
*RES
1 *2006:X *448:4 9.3 
2 *448:4 *2021:C 23.8982 
3 *448:4 *448:27 19.125 
4 *448:27 *2379:C 15.3357 
5 *448:27 *448:42 14.4821 
6 *448:42 *2326:B1 21.4071 
7 *448:42 *2325:C 9.92946 
*END

*D_NET *449 0.00409003
*CONN
*I *2011:A2 I *D sky130_fd_sc_hd__a211oi_2
*I *2008:C I *D sky130_fd_sc_hd__nand3_1
*I *2012:A1 I *D sky130_fd_sc_hd__a211o_1
*I *2013:B1 I *D sky130_fd_sc_hd__a21o_1
*I *2007:X O *D sky130_fd_sc_hd__or2_1
*CAP
1 *2011:A2 0
2 *2008:C 0.000473818
3 *2012:A1 9.29861e-06
4 *2013:B1 0.000116842
5 *2007:X 0.000168979
6 *449:33 0.00101925
7 *449:12 0.000679255
8 *449:8 0.000195263
9 *2008:C *2000:B 4.72487e-05
10 *2012:A1 *2012:B1 5.52302e-05
11 *2013:B1 *2000:A 5.33005e-05
12 *2013:B1 *2047:C1 5.52238e-05
13 *2013:B1 *453:12 0
14 *2013:B1 *474:10 0
15 *2013:B1 *569:16 0.000173804
16 *449:8 *2002:A2 9.71197e-05
17 *449:8 *2007:A 9.71197e-05
18 *449:8 *2015:B1 0
19 *449:8 *552:32 8.40933e-05
20 *449:33 *2000:A 0
21 *449:33 *2011:B1 0
22 *449:33 *2012:B1 8.20113e-06
23 *449:33 *474:10 0
24 *449:33 *569:16 0.000146474
25 *2000:C *2008:C 1.95435e-05
26 *2002:A1 *449:8 9.60939e-05
27 *2008:A *2008:C 5.04709e-05
28 *2011:A1 *449:8 3.94822e-05
29 *2011:A1 *449:12 5.33005e-05
30 *2012:A2 *449:33 0.000108191
31 *2012:C1 *2008:C 3.08047e-05
32 *439:12 *2008:C 7.69776e-06
33 *439:12 *449:33 3.59402e-05
34 *442:6 *2008:C 6.05161e-06
35 *444:33 *449:33 0.000161937
*RES
1 *2007:X *449:8 13.1393 
2 *449:8 *449:12 5.03571 
3 *449:12 *2013:B1 16.5857 
4 *449:12 *449:33 17.0357 
5 *449:33 *2012:A1 14.3357 
6 *449:33 *2008:C 20.4071 
7 *449:8 *2011:A2 9.3 
*END

*D_NET *450 0.00194441
*CONN
*I *2029:A2 I *D sky130_fd_sc_hd__a211o_2
*I *2015:A2 I *D sky130_fd_sc_hd__a211o_1
*I *2008:Y O *D sky130_fd_sc_hd__nand3_1
*CAP
1 *2029:A2 0.000204423
2 *2015:A2 0.000161348
3 *2008:Y 0
4 *450:6 0.000365771
5 *2015:A2 *2000:A 0.000100831
6 *2015:A2 *2015:B1 3.99614e-06
7 *2015:A2 *2016:B 9.60875e-05
8 *2015:A2 *2031:A2 0
9 *2015:A2 *457:6 0.000142856
10 *2029:A2 *2000:A 9.88193e-05
11 *2029:A2 *2008:B 4.38058e-05
12 *2029:A2 *2031:A2 0
13 *2008:A *2029:A2 0.00024654
14 *2015:C1 *2015:A2 1.3701e-05
15 *38:37 *2029:A2 0.000151071
16 *413:12 *2015:A2 0.000315158
17 *439:12 *2029:A2 0
*RES
1 *2008:Y *450:6 13.8 
2 *450:6 *2015:A2 18.8714 
3 *450:6 *2029:A2 19.55 
*END

*D_NET *451 0.00186892
*CONN
*I *2012:B1 I *D sky130_fd_sc_hd__a211o_1
*I *2011:B1 I *D sky130_fd_sc_hd__a211oi_2
*I *2009:Y O *D sky130_fd_sc_hd__nor2_1
*CAP
1 *2012:B1 0.000129206
2 *2011:B1 0.000157702
3 *2009:Y 0.000174854
4 *451:8 0.000461762
5 *2011:B1 *2008:B 1.85762e-05
6 *2011:B1 *2015:B1 7.43578e-06
7 *2011:B1 *569:16 0
8 *451:8 *2028:A2 6.32633e-05
9 *451:8 *2516:A 7.50697e-05
10 *451:8 *454:8 5.74562e-05
11 *451:8 *569:16 0
12 *2011:C1 *2011:B1 0.000212054
13 *2011:C1 *2012:B1 0.000262498
14 *2011:C1 *451:8 2.20282e-05
15 *2012:A1 *2012:B1 5.52302e-05
16 *2012:A2 *2012:B1 7.56292e-05
17 *2012:C1 *2012:B1 3.31052e-05
18 *413:12 *2011:B1 2.89114e-05
19 *444:33 *2012:B1 2.59355e-05
20 *449:33 *2011:B1 0
21 *449:33 *2012:B1 8.20113e-06
*RES
1 *2009:Y *451:8 17.5679 
2 *451:8 *2011:B1 17.1929 
3 *451:8 *2012:B1 17.2286 
*END

*D_NET *452 0.000487495
*CONN
*I *2029:B1 I *D sky130_fd_sc_hd__a211o_2
*I *2010:X O *D sky130_fd_sc_hd__or2_1
*CAP
1 *2029:B1 0.000162641
2 *2010:X 0.000162641
3 *2029:B1 *2009:A 1.40306e-05
4 *439:10 *2029:B1 0.000137931
5 *439:12 *2029:B1 1.02504e-05
*RES
1 *2010:X *2029:B1 30.0821 
*END

*D_NET *453 0.00270746
*CONN
*I *2015:B1 I *D sky130_fd_sc_hd__a211o_1
*I *2021:D I *D sky130_fd_sc_hd__or4_4
*I *2020:A2 I *D sky130_fd_sc_hd__o21ai_1
*I *2011:Y O *D sky130_fd_sc_hd__a211oi_2
*CAP
1 *2015:B1 0.000141277
2 *2021:D 0
3 *2020:A2 3.73132e-05
4 *2011:Y 0
5 *453:12 0.000590914
6 *453:4 0.000694878
7 *2020:A2 *2020:B1 0
8 *2020:A2 *2048:C1 4.88637e-05
9 *453:12 *2018:A1 0
10 *453:12 *2048:B1 0.000340066
11 *453:12 *2048:C1 0.000139913
12 *453:12 *474:10 4.16383e-05
13 *453:12 *474:16 0.000363926
14 *453:12 *569:16 0
15 *2011:B1 *2015:B1 7.43578e-06
16 *2013:B1 *453:12 0
17 *2015:A2 *2015:B1 3.99614e-06
18 *2015:C1 *2015:B1 3.63587e-05
19 *2020:A1 *453:12 0.000108916
20 *2021:B *2020:A2 0.00010096
21 *2021:B *453:12 1.69961e-05
22 *413:12 *2015:B1 3.40043e-05
23 *439:18 *453:12 0
24 *449:8 *2015:B1 0
*RES
1 *2011:Y *453:4 9.3 
2 *453:4 *453:12 21.7143 
3 *453:12 *2020:A2 10.675 
4 *453:12 *2021:D 9.3 
5 *453:4 *2015:B1 11.925 
*END

*D_NET *454 0.00370087
*CONN
*I *2516:A I *D sky130_fd_sc_hd__dlygate4sd1_1
*I *2515:A I *D sky130_fd_sc_hd__dlymetal6s2s_1
*I *2014:B1 I *D sky130_fd_sc_hd__a22o_1
*I *2012:X O *D sky130_fd_sc_hd__a211o_1
*CAP
1 *2516:A 0.000246059
2 *2515:A 0
3 *2014:B1 0.000258243
4 *2012:X 8.42516e-05
5 *454:12 0.000273653
6 *454:8 0.00034572
7 *2014:B1 *2001:B 0.000106953
8 *2014:B1 *2014:A1 0.000349104
9 *2014:B1 *2531:A 5.33005e-05
10 *2516:A *2028:A2 6.2589e-06
11 *2516:A *474:10 0.000181623
12 *454:8 *474:10 0.000190526
13 *1995:A2 *2516:A 0.000226507
14 *1997:A *2516:A 5.52238e-05
15 *2000:C *2014:B1 0.000399835
16 *2000:C *454:12 2.14757e-05
17 *2008:A *2014:B1 0
18 *2011:C1 *454:8 7.6298e-05
19 *2014:B2 *2516:A 4.43256e-05
20 *38:37 *2516:A 0.00018077
21 *423:8 *2516:A 8.41815e-05
22 *423:19 *2516:A 1.39841e-05
23 *439:10 *2516:A 0.00014285
24 *443:6 *2014:B1 4.33174e-05
25 *443:10 *2014:B1 0.000154973
26 *443:10 *454:12 2.89114e-05
27 *451:8 *2516:A 7.50697e-05
28 *451:8 *454:8 5.74562e-05
*RES
1 *2012:X *454:8 16.3536 
2 *454:8 *454:12 5.03571 
3 *454:12 *2014:B1 17.6571 
4 *454:12 *2515:A 9.3 
5 *454:8 *2516:A 21.6571 
*END

*D_NET *455 0.0013684
*CONN
*I *2015:A1 I *D sky130_fd_sc_hd__a211o_1
*I *2013:X O *D sky130_fd_sc_hd__a21o_1
*CAP
1 *2015:A1 0.000407232
2 *2013:X 0.000407232
3 *2015:A1 *2000:A 0.000486441
4 *2015:A1 *2016:A 0
5 *439:18 *2015:A1 6.74911e-05
*RES
1 *2013:X *2015:A1 33.8857 
*END

*D_NET *456 0.00701399
*CONN
*I *2016:A I *D sky130_fd_sc_hd__nand2_1
*I *2017:A I *D sky130_fd_sc_hd__and3_1
*I *2018:A2 I *D sky130_fd_sc_hd__a21oi_2
*I *2014:X O *D sky130_fd_sc_hd__a22o_1
*CAP
1 *2016:A 0.000194806
2 *2017:A 9.15477e-05
3 *2018:A2 0.00039162
4 *2014:X 0.000231448
5 *456:27 0.00113525
6 *456:8 0.00147196
7 *2016:A *2016:B 0.000227526
8 *2016:A *2035:A0 0.000425663
9 *2016:A *457:6 4.08637e-05
10 *2016:A *457:23 0.000314224
11 *2017:A *2035:A0 2.49484e-05
12 *2017:A *2035:A1 0.000104974
13 *2017:A *2524:A 3.34295e-05
14 *2017:A *457:23 0.000187514
15 *2017:A *473:10 0
16 *2018:A2 *2046:B 0.00014183
17 *2018:A2 *2048:C1 3.97657e-05
18 *2018:A2 *486:18 0.000200495
19 *2018:A2 *550:12 5.52302e-05
20 *2018:A2 *550:73 0.000107503
21 *2018:A2 *554:75 0.000107503
22 *456:8 *2013:A1 0
23 *456:8 *550:73 0.000362522
24 *456:8 *552:32 0.000167275
25 *456:8 *554:75 0.000303317
26 *456:27 *2518:A 0.000181796
27 *456:27 *475:14 5.33005e-05
28 *456:27 *475:16 0.00022459
29 *456:27 *569:8 0.000144773
30 *2015:A1 *2016:A 0
31 *2046:A *2018:A2 4.83217e-05
*RES
1 *2014:X *456:8 22.425 
2 *456:8 *2018:A2 22.6571 
3 *456:8 *456:27 22.6786 
4 *456:27 *2017:A 16.8893 
5 *456:27 *2016:A 20.7643 
*END

*D_NET *457 0.00291747
*CONN
*I *2017:C I *D sky130_fd_sc_hd__and3_1
*I *2524:A I *D sky130_fd_sc_hd__dlygate4sd1_1
*I *2016:B I *D sky130_fd_sc_hd__nand2_1
*I *2015:X O *D sky130_fd_sc_hd__a211o_1
*CAP
1 *2017:C 5.21005e-05
2 *2524:A 0.000120403
3 *2016:B 0.000111288
4 *2015:X 4.09068e-05
5 *457:23 0.000433987
6 *457:6 0.000413678
7 *2524:A *2019:A 2.21972e-05
8 *2524:A *2027:A2 5.71472e-05
9 *2524:A *2031:B1_N 4.1331e-06
10 *2524:A *2035:A1 0.000108295
11 *2524:A *459:8 8.01638e-05
12 *2524:A *460:18 5.52302e-05
13 *457:6 *2035:A0 1.21258e-05
14 *457:23 *2000:A 0.000168939
15 *457:23 *2031:A2 0
16 *457:23 *2031:B1_N 6.95699e-05
17 *2015:A2 *2016:B 9.60875e-05
18 *2015:A2 *457:6 0.000142856
19 *2016:A *2016:B 0.000227526
20 *2016:A *457:6 4.08637e-05
21 *2016:A *457:23 0.000314224
22 *2017:A *2524:A 3.34295e-05
23 *2017:A *457:23 0.000187514
24 *2018:B1 *2017:C 3.80953e-06
25 *294:46 *2017:C 6.33946e-06
26 *413:12 *2016:B 0.000114655
*RES
1 *2015:X *457:6 10.6571 
2 *457:6 *2016:B 12.7286 
3 *457:6 *457:23 11.9643 
4 *457:23 *2524:A 17.4964 
5 *457:23 *2017:C 14.4071 
*END

*D_NET *458 0.00148678
*CONN
*I *2035:A0 I *D sky130_fd_sc_hd__mux2_2
*I *2016:Y O *D sky130_fd_sc_hd__nand2_1
*CAP
1 *2035:A0 0.000419623
2 *2016:Y 0.000419623
3 *2035:A0 *2035:A1 3.18676e-05
4 *2035:A0 *473:10 9.77024e-05
5 *2035:A0 *475:16 5.52302e-05
6 *2016:A *2035:A0 0.000425663
7 *2017:A *2035:A0 2.49484e-05
8 *457:6 *2035:A0 1.21258e-05
*RES
1 *2016:Y *2035:A0 35.5107 
*END

*D_NET *459 0.00304712
*CONN
*I *2031:B1_N I *D sky130_fd_sc_hd__o21ba_4
*I *2019:A I *D sky130_fd_sc_hd__nor2_1
*I *2027:C1 I *D sky130_fd_sc_hd__a211o_4
*I *2017:X O *D sky130_fd_sc_hd__and3_1
*CAP
1 *2031:B1_N 0.000223037
2 *2019:A 0.000247048
3 *2027:C1 6.4826e-05
4 *2017:X 0
5 *459:8 0.000435831
6 *459:6 0.000346994
7 *2019:A *2024:A1 0
8 *2019:A *2024:B1 0
9 *2019:A *2026:B 0.00015234
10 *2019:A *2027:A1 0.000172375
11 *2019:A *2035:A1 4.53124e-05
12 *2019:A *2048:A1 0
13 *2019:A *460:18 0
14 *2019:A *463:10 0
15 *2019:A *466:10 0.00022217
16 *2027:C1 *460:18 0.000107
17 *2027:C1 *469:8 2.28499e-05
18 *2027:C1 *518:76 7.61932e-05
19 *2031:B1_N *2000:A 0.000136951
20 *2031:B1_N *2031:A2 5.80706e-06
21 *2031:B1_N *2059:B 0.000169063
22 *2031:B1_N *2533:A 0.000142797
23 *2031:B1_N *473:6 5.33005e-05
24 *2031:B1_N *516:99 0.000113073
25 *459:8 *2533:A 5.83304e-05
26 *459:8 *460:18 5.41797e-06
27 *2524:A *2019:A 2.21972e-05
28 *2524:A *2031:B1_N 4.1331e-06
29 *2524:A *459:8 8.01638e-05
30 *31:10 *2031:B1_N 7.03393e-05
31 *294:12 *459:8 0
32 *457:23 *2031:B1_N 6.95699e-05
*RES
1 *2017:X *459:6 13.8 
2 *459:6 *459:8 3.00893 
3 *459:8 *2027:C1 15.8625 
4 *459:8 *2019:A 20.1839 
5 *459:6 *2031:B1_N 20.7643 
*END

*D_NET *460 0.00323005
*CONN
*I *2027:B1 I *D sky130_fd_sc_hd__a211o_4
*I *2019:B I *D sky130_fd_sc_hd__nor2_1
*I *2018:Y O *D sky130_fd_sc_hd__a21oi_2
*CAP
1 *2027:B1 0
2 *2019:B 0.000300734
3 *2018:Y 0.000496702
4 *460:18 0.000797437
5 *2019:B *2027:A1 5.66657e-05
6 *2019:B *2034:A 7.8327e-05
7 *2019:B *466:10 2.15363e-05
8 *460:18 *2027:A1 4.1331e-06
9 *460:18 *2027:A2 6.58013e-05
10 *460:18 *2033:A1 5.52302e-05
11 *460:18 *2033:A2 1.58163e-05
12 *460:18 *2035:A1 0.000197977
13 *460:18 *2047:A1 2.60984e-05
14 *460:18 *2048:A1 3.17148e-05
15 *460:18 *2048:A2 2.72545e-05
16 *460:18 *469:8 0.000348213
17 *460:18 *469:21 8.98585e-05
18 *460:18 *473:10 1.17968e-05
19 *460:18 *475:12 0.000224583
20 *460:18 *518:76 2.24079e-05
21 *2018:B1 *460:18 9.10731e-05
22 *2019:A *460:18 0
23 *2025:B1 *2019:B 9.90431e-05
24 *2027:C1 *460:18 0.000107
25 *2524:A *460:18 5.52302e-05
26 *446:10 *2019:B 0
27 *459:8 *460:18 5.41797e-06
*RES
1 *2018:Y *460:18 34.9607 
2 *460:18 *2019:B 19.7286 
3 *460:18 *2027:B1 13.8 
*END

*D_NET *461 0.000844612
*CONN
*I *2034:A I *D sky130_fd_sc_hd__xnor2_1
*I *2019:Y O *D sky130_fd_sc_hd__nor2_1
*CAP
1 *2034:A 0.000102207
2 *2019:Y 0.000102207
3 *2034:A *2034:B 0.00018372
4 *2034:A *466:10 0.000150618
5 *2019:B *2034:A 7.8327e-05
6 *2051:B1 *2034:A 0.000227532
*RES
1 *2019:Y *2034:A 31.725 
*END

*D_NET *462 0.00201072
*CONN
*I *2024:A1 I *D sky130_fd_sc_hd__a21o_1
*I *2025:A2 I *D sky130_fd_sc_hd__a31o_1
*I *2022:A I *D sky130_fd_sc_hd__nand2_1
*I *2020:Y O *D sky130_fd_sc_hd__o21ai_1
*CAP
1 *2024:A1 0.000111551
2 *2025:A2 1.7184e-05
3 *2022:A 0
4 *2020:Y 0.000167485
5 *462:21 0.000211441
6 *462:12 0.000250191
7 *2024:A1 *2024:A2 0.000131445
8 *2024:A1 *2024:B1 4.57445e-05
9 *2024:A1 *463:10 2.24646e-05
10 *2025:A2 *2025:A3 5.52238e-05
11 *2025:A2 *464:6 9.90367e-05
12 *2025:A2 *547:129 3.03304e-05
13 *462:12 *2006:A 0
14 *462:12 *547:129 0.000232399
15 *462:21 *2022:B 0.000186669
16 *462:21 *2025:A3 4.08637e-05
17 *462:21 *464:6 0.000271345
18 *462:21 *547:129 4.14279e-05
19 *2019:A *2024:A1 0
20 *2021:C *462:12 9.5923e-05
*RES
1 *2020:Y *462:12 22.425 
2 *462:12 *2022:A 9.3 
3 *462:12 *462:21 3.42857 
4 *462:21 *2025:A2 10.2464 
5 *462:21 *2024:A1 20.7821 
*END

*D_NET *463 0.00144398
*CONN
*I *2022:B I *D sky130_fd_sc_hd__nand2_1
*I *2025:A3 I *D sky130_fd_sc_hd__a31o_1
*I *2024:A2 I *D sky130_fd_sc_hd__a21o_1
*I *2021:X O *D sky130_fd_sc_hd__or4_4
*CAP
1 *2022:B 2.41066e-05
2 *2025:A3 2.46213e-05
3 *2024:A2 0.000138979
4 *2021:X 0.000152426
5 *463:23 4.87279e-05
6 *463:10 0.000291405
7 *2022:B *547:129 0.000174232
8 *2024:A2 *2024:B1 0
9 *2025:A3 *547:129 9.60875e-05
10 *463:10 *2027:A2 3.92854e-05
11 *463:10 *2048:C1 1.00073e-05
12 *2019:A *463:10 0
13 *2024:A1 *2024:A2 0.000131445
14 *2024:A1 *463:10 2.24646e-05
15 *2025:A2 *2025:A3 5.52238e-05
16 *439:18 *463:10 7.43578e-06
17 *462:21 *2022:B 0.000186669
18 *462:21 *2025:A3 4.08637e-05
*RES
1 *2021:X *463:10 16.2821 
2 *463:10 *2024:A2 16.5857 
3 *463:10 *463:23 4.5 
4 *463:23 *2025:A3 10.2464 
5 *463:23 *2022:B 11.0679 
*END

*D_NET *464 0.00521037
*CONN
*I *2042:A0 I *D sky130_fd_sc_hd__mux2_4
*I *2023:A I *D sky130_fd_sc_hd__inv_2
*I *2038:B I *D sky130_fd_sc_hd__xnor2_1
*I *2022:Y O *D sky130_fd_sc_hd__nand2_1
*CAP
1 *2042:A0 0.000159952
2 *2023:A 0
3 *2038:B 0.000401443
4 *2022:Y 0.000626138
5 *464:25 0.000290663
6 *464:6 0.00115829
7 *2038:B *2040:B 0.000320024
8 *2038:B *480:8 0.000215365
9 *2042:A0 *2004:B 0
10 *2042:A0 *2038:A 0.000122091
11 *2042:A0 *2041:S 0
12 *2042:A0 *2042:S 5.52238e-05
13 *2042:A0 *560:14 0.000130419
14 *464:6 *2026:B 0.000276211
15 *464:6 *467:6 8.57023e-05
16 *464:6 *547:129 2.14757e-05
17 *464:25 *2004:B 0
18 *464:25 *2041:S 0
19 *464:25 *2042:A1 0
20 *2025:A2 *464:6 9.90367e-05
21 *2025:B1 *464:6 0.000601004
22 *2039:A *2038:B 2.44318e-05
23 *2051:B1 *2042:A0 7.8327e-05
24 *446:10 *464:25 0
25 *446:12 *2038:B 5.62995e-05
26 *446:12 *464:6 0.00021692
27 *462:21 *464:6 0.000271345
*RES
1 *2022:Y *464:6 24.2107 
2 *464:6 *2038:B 17.8179 
3 *464:6 *464:25 6.75 
4 *464:25 *2023:A 13.8 
5 *464:25 *2042:A0 18.2286 
*END

*D_NET *465 0.000363535
*CONN
*I *2041:A0 I *D sky130_fd_sc_hd__mux2_1
*I *2023:Y O *D sky130_fd_sc_hd__inv_2
*CAP
1 *2041:A0 0.000154156
2 *2023:Y 0.000154156
3 *2041:A0 *2041:A1 5.52238e-05
*RES
1 *2023:Y *2041:A0 21.1893 
*END

*D_NET *466 0.00140983
*CONN
*I *2027:A1 I *D sky130_fd_sc_hd__a211o_4
*I *2026:A I *D sky130_fd_sc_hd__nand2_1
*I *2024:X O *D sky130_fd_sc_hd__a21o_1
*CAP
1 *2027:A1 7.03122e-05
2 *2026:A 0
3 *2024:X 0.000320851
4 *466:10 0.000391164
5 *466:10 *2024:B1 0
6 *2019:A *2027:A1 0.000172375
7 *2019:A *466:10 0.00022217
8 *2019:B *2027:A1 5.66657e-05
9 *2019:B *466:10 2.15363e-05
10 *2034:A *466:10 0.000150618
11 *460:18 *2027:A1 4.1331e-06
*RES
1 *2024:X *466:10 19.9429 
2 *466:10 *2026:A 13.8 
3 *466:10 *2027:A1 16.05 
*END

*D_NET *467 0.0023321
*CONN
*I *2027:A2 I *D sky130_fd_sc_hd__a211o_4
*I *2026:B I *D sky130_fd_sc_hd__nand2_1
*I *2025:X O *D sky130_fd_sc_hd__a31o_1
*CAP
1 *2027:A2 0.000247864
2 *2026:B 0.000234724
3 *2025:X 6.69312e-05
4 *467:6 0.00054952
5 *2026:B *2048:A1 0
6 *2027:A2 *2018:A1 3.69047e-06
7 *2027:A2 *2048:A1 1.3142e-05
8 *2027:A2 *2048:A2 0.000148911
9 *2027:A2 *469:8 1.39726e-05
10 *2027:A2 *518:76 0.000307343
11 *2019:A *2026:B 0.00015234
12 *2524:A *2027:A2 5.71472e-05
13 *439:18 *2027:A2 6.95112e-05
14 *460:18 *2027:A2 6.58013e-05
15 *463:10 *2027:A2 3.92854e-05
16 *464:6 *2026:B 0.000276211
17 *464:6 *467:6 8.57023e-05
*RES
1 *2025:X *467:6 10.2464 
2 *467:6 *2026:B 22.8357 
3 *467:6 *2027:A2 25.3714 
*END

*D_NET *468 0.000485934
*CONN
*I *2034:B I *D sky130_fd_sc_hd__xnor2_1
*I *2026:Y O *D sky130_fd_sc_hd__nand2_1
*CAP
1 *2034:B 0.000131223
2 *2026:Y 0.000131223
3 *2034:A *2034:B 0.00018372
4 *2051:B1 *2034:B 3.97677e-05
*RES
1 *2026:Y *2034:B 21.1893 
*END

*D_NET *469 0.00373626
*CONN
*I *2047:A1 I *D sky130_fd_sc_hd__a211o_1
*I *2033:A2 I *D sky130_fd_sc_hd__a21oi_4
*I *2048:A1 I *D sky130_fd_sc_hd__a211o_1
*I *2027:X O *D sky130_fd_sc_hd__a211o_4
*CAP
1 *2047:A1 0.000262615
2 *2033:A2 4.48907e-05
3 *2048:A1 0.000116157
4 *2027:X 0.000493475
5 *469:21 0.000348594
6 *469:8 0.000650721
7 *2047:A1 *2033:A1 2.89114e-05
8 *2047:A1 *2048:A2 2.94103e-05
9 *2047:A1 *473:10 0.000163993
10 *2047:A1 *475:12 0.000153047
11 *2048:A1 *2035:A1 8.24047e-05
12 *2048:A1 *2048:A2 0.00022117
13 *469:8 *518:76 7.95313e-05
14 *469:21 *2048:A2 9.91086e-05
15 *2018:B1 *2033:A2 5.33005e-05
16 *2018:B1 *2047:A1 0.00012747
17 *2019:A *2048:A1 0
18 *2026:B *2048:A1 0
19 *2027:A2 *2048:A1 1.3142e-05
20 *2027:A2 *469:8 1.39726e-05
21 *2027:C1 *469:8 2.28499e-05
22 *294:46 *2033:A2 0
23 *439:18 *2047:A1 0.000219791
24 *460:18 *2033:A2 1.58163e-05
25 *460:18 *2047:A1 2.60984e-05
26 *460:18 *2048:A1 3.17148e-05
27 *460:18 *469:8 0.000348213
28 *460:18 *469:21 8.98585e-05
*RES
1 *2027:X *469:8 20.4964 
2 *469:8 *2048:A1 16.9607 
3 *469:8 *469:21 5.83929 
4 *469:21 *2033:A2 10.2643 
5 *469:21 *2047:A1 25.9071 
*END

*D_NET *470 0.00143948
*CONN
*I *2059:A I *D sky130_fd_sc_hd__or2_4
*I *2030:A I *D sky130_fd_sc_hd__and2_1
*I *2028:X O *D sky130_fd_sc_hd__a21o_1
*CAP
1 *2059:A 0.000219627
2 *2030:A 0
3 *2028:X 0.000186157
4 *470:12 0.000405785
5 *2059:A *2031:A2 8.25843e-06
6 *2059:A *2059:B 0.000180764
7 *2059:A *550:97 0.000312215
8 *470:12 *2030:B 5.80706e-06
9 *470:12 *543:94 0
10 *470:12 *547:47 9.90431e-05
11 *470:12 *550:97 2.18262e-05
12 *2010:B *2059:A 0
13 *2028:B1 *470:12 0
14 *294:12 *470:12 0
*RES
1 *2028:X *470:12 20.8893 
2 *470:12 *2030:A 9.3 
3 *470:12 *2059:A 14.3893 
*END

*D_NET *471 0.0233723
*CONN
*I *2030:B I *D sky130_fd_sc_hd__and2_1
*I *2060:A1 I *D sky130_fd_sc_hd__a21oi_1
*I *2063:B I *D sky130_fd_sc_hd__and3_1
*I *2153:A1 I *D sky130_fd_sc_hd__a21oi_1
*I *2154:B I *D sky130_fd_sc_hd__and3_1
*I *2129:B1 I *D sky130_fd_sc_hd__o21ai_1
*I *2085:A1 I *D sky130_fd_sc_hd__a21o_1
*I *2084:B I *D sky130_fd_sc_hd__and3_1
*I *2029:X O *D sky130_fd_sc_hd__a211o_2
*CAP
1 *2030:B 8.25001e-05
2 *2060:A1 0
3 *2063:B 0
4 *2153:A1 7.62293e-05
5 *2154:B 0.000127574
6 *2129:B1 0.000637707
7 *2085:A1 5.53523e-05
8 *2084:B 0.000371924
9 *2029:X 0.000196226
10 *471:99 0.000203804
11 *471:97 0.0017969
12 *471:44 0.000668574
13 *471:42 0.00296159
14 *471:28 0.00394805
15 *471:24 0.000697721
16 *471:16 0.00173367
17 *471:6 0.00138324
18 *2030:B *2031:A2 7.6644e-05
19 *2030:B *2059:B 3.90513e-05
20 *2129:B1 *2081:A 0.00038571
21 *2129:B1 *2108:B1 0.000411604
22 *2129:B1 *2147:B 0.000197984
23 *2129:B1 *534:24 0.000186989
24 *2153:A1 *2154:A 1.90213e-05
25 *471:16 *2054:A 2.32625e-05
26 *471:16 *2417:D_N 0.000599462
27 *471:24 *2083:A1 0
28 *471:24 *534:56 0.000433262
29 *471:24 *534:77 1.19191e-05
30 *471:24 *539:58 0
31 *471:24 *539:71 0
32 *471:28 *534:56 9.90431e-05
33 *471:42 *2108:B1 2.27416e-05
34 *471:42 *2317:B 0.000356011
35 *471:97 *2146:B1 0
36 *471:97 *2152:B 6.5185e-05
37 *471:97 *2461:A 0.000352807
38 *471:97 *496:12 0.000137666
39 *471:97 *497:29 0.000105132
40 *471:97 *499:38 0.000106141
41 *471:97 *534:45 0
42 *471:97 *539:58 0
43 *471:97 *542:75 0.000300275
44 *471:97 *543:69 4.43256e-05
45 *471:97 *543:81 0
46 *471:97 *584:8 0
47 *471:97 *584:47 0
48 *2063:C *471:24 0
49 *2080:A2 *471:16 0
50 *2084:C *2084:B 0.0001119
51 *2084:C *2085:A1 0.000151333
52 *2086:B *2084:B 6.26774e-06
53 *2107:A1 *2129:B1 0
54 *2111:A0 *2129:B1 7.79334e-05
55 *2126:A1 *471:97 5.83233e-05
56 *2128:B *2129:B1 9.74588e-05
57 *2129:A2 *2129:B1 0.000185427
58 *2138:A *471:97 3.75052e-05
59 *2146:A1 *471:97 1.46717e-05
60 *2152:A *471:97 0
61 *2153:A2 *2153:A1 4.18395e-05
62 *2153:A2 *2154:B 5.70363e-05
63 *2162:A *471:97 0
64 *38:37 *471:6 0.00030669
65 *38:37 *471:16 0.000647992
66 *44:14 *471:16 0.000103267
67 *45:42 *471:16 1.82657e-05
68 *52:10 *471:16 0.000353079
69 *61:18 *471:42 1.19191e-05
70 *61:18 *471:97 1.76821e-05
71 *64:28 *2085:A1 0.000175512
72 *67:12 *471:42 0
73 *67:48 *2129:B1 0
74 *67:48 *471:42 5.4115e-05
75 *70:22 *2084:B 9.31011e-05
76 *70:22 *471:44 6.05161e-06
77 *79:10 *471:42 0
78 *92:10 *471:42 0.000141815
79 *95:10 *2129:B1 0.000367389
80 *95:19 *2129:B1 7.83587e-05
81 *97:28 *471:97 0.000431857
82 *99:10 *471:97 2.59355e-05
83 *100:10 *471:97 0
84 *100:19 *471:97 0
85 *107:27 *471:97 0.000125724
86 *130:8 *471:97 0.00014661
87 *130:27 *471:97 0.000108538
88 *136:14 *2154:B 5.7993e-06
89 *136:14 *471:97 0
90 *137:16 *2153:A1 9.90431e-05
91 *137:16 *471:97 3.34295e-05
92 *138:8 *471:97 1.76039e-05
93 *283:79 *471:97 0.000241743
94 *470:12 *2030:B 5.80706e-06
*RES
1 *2029:X *471:6 12.3 
2 *471:6 *471:16 22.625 
3 *471:16 *471:24 13.25 
4 *471:24 *471:28 5.44643 
5 *471:28 *471:42 21.5182 
6 *471:42 *471:44 2.58929 
7 *471:44 *2084:B 15.3357 
8 *471:44 *2085:A1 20.55 
9 *471:42 *2129:B1 37.4071 
10 *471:28 *471:97 48.1964 
11 *471:97 *471:99 4.5 
12 *471:99 *2154:B 11.4964 
13 *471:99 *2153:A1 11.3893 
14 *471:24 *2063:B 9.3 
15 *471:16 *2060:A1 13.8 
16 *471:6 *2030:B 20.2464 
*END

*D_NET *472 0.00162503
*CONN
*I *2031:A2 I *D sky130_fd_sc_hd__o21ba_4
*I *2030:X O *D sky130_fd_sc_hd__and2_1
*CAP
1 *2031:A2 0.000411833
2 *2030:X 0.000411833
3 *2031:A2 *2000:A 0
4 *2031:A2 *2008:B 1.63165e-05
5 *2031:A2 *2059:B 0.000694338
6 *2015:A2 *2031:A2 0
7 *2029:A2 *2031:A2 0
8 *2030:B *2031:A2 7.6644e-05
9 *2031:B1_N *2031:A2 5.80706e-06
10 *2059:A *2031:A2 8.25843e-06
11 *457:23 *2031:A2 0
*RES
1 *2030:X *2031:A2 37.0643 
*END

*D_NET *473 0.0023202
*CONN
*I *2047:A2 I *D sky130_fd_sc_hd__a211o_1
*I *2033:A1 I *D sky130_fd_sc_hd__a21oi_4
*I *2048:A2 I *D sky130_fd_sc_hd__a211o_1
*I *2031:X O *D sky130_fd_sc_hd__o21ba_4
*CAP
1 *2047:A2 4.03242e-05
2 *2033:A1 1.40355e-05
3 *2048:A2 0.000242117
4 *2031:X 3.84855e-05
5 *473:10 0.000429135
6 *473:6 0.000251793
7 *2047:A2 *2000:A 5.33433e-05
8 *2047:A2 *2047:C1 0
9 *2047:A2 *516:99 8.66063e-05
10 *2048:A2 *2048:B1 1.3701e-05
11 *473:6 *2000:A 4.43256e-05
12 *473:6 *516:99 0.000137983
13 *473:10 *2035:A1 3.15645e-05
14 *2017:A *473:10 0
15 *2027:A2 *2048:A2 0.000148911
16 *2031:B1_N *473:6 5.33005e-05
17 *2035:A0 *473:10 9.77024e-05
18 *2047:A1 *2033:A1 2.89114e-05
19 *2047:A1 *2048:A2 2.94103e-05
20 *2047:A1 *473:10 0.000163993
21 *2048:A1 *2048:A2 0.00022117
22 *439:18 *2048:A2 0
23 *460:18 *2033:A1 5.52302e-05
24 *460:18 *2048:A2 2.72545e-05
25 *460:18 *473:10 1.17968e-05
26 *469:21 *2048:A2 9.91086e-05
*RES
1 *2031:X *473:6 10.6571 
2 *473:6 *473:10 9.17857 
3 *473:10 *2048:A2 19.8536 
4 *473:10 *2033:A1 14.3357 
5 *473:6 *2047:A2 10.675 
*END

*D_NET *474 0.00525189
*CONN
*I *2047:B1 I *D sky130_fd_sc_hd__a211o_1
*I *2033:B1 I *D sky130_fd_sc_hd__a21oi_4
*I *2048:B1 I *D sky130_fd_sc_hd__a211o_1
*I *2032:X O *D sky130_fd_sc_hd__a21o_1
*CAP
1 *2047:B1 0
2 *2033:B1 0
3 *2048:B1 0.000341728
4 *2032:X 0.000668945
5 *474:16 0.000565024
6 *474:10 0.00089224
7 *2048:B1 *2048:C1 0.000265192
8 *474:10 *1987:C 6.57026e-05
9 *474:10 *2028:A2 0
10 *474:10 *517:95 8.46507e-06
11 *474:10 *543:94 0
12 *2011:C1 *474:10 7.68201e-05
13 *2013:B1 *474:10 0
14 *2048:A2 *2048:B1 1.3701e-05
15 *2516:A *474:10 0.000181623
16 *50:33 *474:10 0.000244883
17 *439:10 *474:10 0.000173083
18 *439:12 *474:10 0.000327971
19 *439:18 *2048:B1 0.000120236
20 *439:18 *474:10 0.000209491
21 *439:18 *474:16 0.000160634
22 *449:33 *474:10 0
23 *453:12 *2048:B1 0.000340066
24 *453:12 *474:10 4.16383e-05
25 *453:12 *474:16 0.000363926
26 *454:8 *474:10 0.000190526
*RES
1 *2032:X *474:10 28.5321 
2 *474:10 *474:16 6.05357 
3 *474:16 *2048:B1 21.4964 
4 *474:16 *2033:B1 13.8 
5 *474:10 *2047:B1 13.8 
*END

*D_NET *475 0.00552777
*CONN
*I *2518:A I *D sky130_fd_sc_hd__dlygate4sd1_1
*I *2035:S I *D sky130_fd_sc_hd__mux2_2
*I *2527:A I *D sky130_fd_sc_hd__dlymetal6s4s_1
*I *2059:B I *D sky130_fd_sc_hd__or2_4
*I *2533:A I *D sky130_fd_sc_hd__buf_6
*I *2033:Y O *D sky130_fd_sc_hd__a21oi_4
*CAP
1 *2518:A 7.46072e-05
2 *2035:S 0
3 *2527:A 0
4 *2059:B 0.00043629
5 *2533:A 8.84255e-05
6 *2033:Y 0.000203341
7 *475:20 0.00059087
8 *475:16 0.000202525
9 *475:14 0.000160764
10 *475:12 0.000302342
11 *2059:B *477:16 3.69697e-05
12 *475:16 *2035:A1 4.35567e-05
13 *475:16 *477:16 4.87854e-05
14 *475:20 *477:16 7.32272e-05
15 *2030:B *2059:B 3.90513e-05
16 *2031:A2 *2059:B 0.000694338
17 *2031:B1_N *2059:B 0.000169063
18 *2031:B1_N *2533:A 0.000142797
19 *2035:A0 *475:16 5.52302e-05
20 *2047:A1 *475:12 0.000153047
21 *2059:A *2059:B 0.000180764
22 *294:12 *2059:B 0.000831054
23 *294:12 *2533:A 7.49239e-05
24 *294:46 *2533:A 3.18676e-05
25 *439:18 *475:12 0.000151333
26 *456:27 *2518:A 0.000181796
27 *456:27 *475:14 5.33005e-05
28 *456:27 *475:16 0.00022459
29 *459:8 *2533:A 5.83304e-05
30 *460:18 *475:12 0.000224583
*RES
1 *2033:Y *475:12 22.425 
2 *475:12 *475:14 0.535714 
3 *475:14 *475:16 3.41071 
4 *475:16 *475:20 5.85714 
5 *475:20 *2533:A 16.8893 
6 *475:20 *2059:B 28.9071 
7 *475:16 *2527:A 9.3 
8 *475:14 *2035:S 9.3 
9 *475:12 *2518:A 11.0679 
*END

*D_NET *476 0.00191117
*CONN
*I *2035:A1 I *D sky130_fd_sc_hd__mux2_2
*I *2034:Y O *D sky130_fd_sc_hd__xnor2_1
*CAP
1 *2035:A1 0.000519356
2 *2034:Y 0.000519356
3 *2017:A *2035:A1 0.000104974
4 *2019:A *2035:A1 4.53124e-05
5 *2035:A0 *2035:A1 3.18676e-05
6 *2048:A1 *2035:A1 8.24047e-05
7 *2051:B1 *2035:A1 0.000226507
8 *2524:A *2035:A1 0.000108295
9 *460:18 *2035:A1 0.000197977
10 *473:10 *2035:A1 3.15645e-05
11 *475:16 *2035:A1 4.35567e-05
*RES
1 *2034:Y *2035:A1 37.85 
*END

*D_NET *477 0.00539763
*CONN
*I *2036:B I *D sky130_fd_sc_hd__nor2_1
*I *2037:B I *D sky130_fd_sc_hd__xnor2_2
*I *2079:B1 I *D sky130_fd_sc_hd__a21oi_1
*I *2035:X O *D sky130_fd_sc_hd__mux2_2
*CAP
1 *2036:B 0
2 *2037:B 0
3 *2079:B1 0.000367425
4 *2035:X 0.00116283
5 *477:18 0.000390136
6 *477:16 0.00118555
7 *2079:B1 *2061:C1 5.33005e-05
8 *2079:B1 *2062:C1 3.17148e-05
9 *2079:B1 *478:6 4.27935e-05
10 *2079:B1 *542:92 0
11 *477:16 *2049:A2 0.0004776
12 *477:16 *478:6 1.32552e-05
13 *477:16 *516:99 0.00013152
14 *477:16 *542:115 0.000418732
15 *477:18 *478:6 9.80173e-05
16 *2037:A *477:16 0
17 *2059:B *477:16 3.69697e-05
18 *2062:B1 *2079:B1 2.21972e-05
19 *2097:B1 *2079:B1 0.000454953
20 *2097:B1 *477:16 3.61629e-06
21 *2417:C *2079:B1 0.000137762
22 *2417:C *477:18 4.18895e-05
23 *44:14 *2079:B1 3.33613e-05
24 *49:20 *2079:B1 9.36353e-05
25 *283:18 *477:16 0
26 *294:12 *477:16 7.83587e-05
27 *475:16 *477:16 4.87854e-05
28 *475:20 *477:16 7.32272e-05
*RES
1 *2035:X *477:16 34.9964 
2 *477:16 *477:18 0.946429 
3 *477:18 *2079:B1 27.6393 
4 *477:18 *2037:B 9.3 
5 *477:16 *2036:B 9.3 
*END

*D_NET *478 0.0025285
*CONN
*I *2062:C1 I *D sky130_fd_sc_hd__a311o_1
*I *2061:C1 I *D sky130_fd_sc_hd__a311oi_2
*I *2036:Y O *D sky130_fd_sc_hd__nor2_1
*CAP
1 *2062:C1 0.000135335
2 *2061:C1 0.000486803
3 *2036:Y 3.54489e-05
4 *478:6 0.000657588
5 *2061:C1 *2061:A1 5.33005e-05
6 *2061:C1 *2062:A1 0.000225609
7 *2061:B1 *2061:C1 0.000167703
8 *2062:B1 *2062:C1 0.000114848
9 *2079:B1 *2061:C1 5.33005e-05
10 *2079:B1 *2062:C1 3.17148e-05
11 *2079:B1 *478:6 4.27935e-05
12 *2097:B1 *2061:C1 9.41642e-05
13 *2097:B1 *478:6 0.000183726
14 *2417:C *2061:C1 4.43256e-05
15 *2417:C *2062:C1 2.61337e-05
16 *283:18 *2061:C1 6.44345e-05
17 *477:16 *478:6 1.32552e-05
18 *477:18 *478:6 9.80173e-05
*RES
1 *2036:Y *478:6 11.0679 
2 *478:6 *2061:C1 18.4786 
3 *478:6 *2062:C1 21.4607 
*END

*D_NET *479 0.00244
*CONN
*I *2062:A1 I *D sky130_fd_sc_hd__a311o_1
*I *2078:A I *D sky130_fd_sc_hd__xnor2_1
*I *2061:A1 I *D sky130_fd_sc_hd__a311oi_2
*I *2037:Y O *D sky130_fd_sc_hd__xnor2_2
*CAP
1 *2062:A1 0.000228192
2 *2078:A 0
3 *2061:A1 9.76983e-05
4 *2037:Y 0
5 *479:12 0.00021118
6 *479:4 0.000341673
7 *2061:A1 *2061:A2 9.25014e-06
8 *2061:A1 *2089:A1 6.8646e-06
9 *2061:A1 *2089:B1 0.000146474
10 *2062:A1 *2061:A2 0
11 *2062:A1 *485:10 0
12 *2061:B1 *2061:A1 5.52302e-05
13 *2061:B1 *2062:A1 0.000259247
14 *2061:C1 *2061:A1 5.33005e-05
15 *2061:C1 *2062:A1 0.000225609
16 *2062:B1 *2062:A1 0.000186562
17 *2078:B *2061:A1 5.44167e-05
18 *2078:B *479:12 0.000272127
19 *2089:A2 *479:12 3.69047e-06
20 *39:14 *479:12 9.46929e-05
21 *46:14 *2062:A1 0
22 *46:14 *479:12 0.000193795
*RES
1 *2037:Y *479:4 9.3 
2 *479:4 *479:12 13.0179 
3 *479:12 *2061:A1 21.0857 
4 *479:12 *2078:A 9.3 
5 *479:4 *2062:A1 24.4071 
*END

*D_NET *480 0.00108992
*CONN
*I *2040:B I *D sky130_fd_sc_hd__xor2_1
*I *2039:B I *D sky130_fd_sc_hd__xnor2_1
*I *2038:Y O *D sky130_fd_sc_hd__xnor2_1
*CAP
1 *2040:B 3.45169e-05
2 *2039:B 0
3 *2038:Y 6.08325e-05
4 *480:8 9.53495e-05
5 *2038:B *2040:B 0.000320024
6 *2038:B *480:8 0.000215365
7 *2039:A *2040:B 0.00030669
8 *2039:A *480:8 5.71472e-05
*RES
1 *2038:Y *480:8 11.4964 
2 *480:8 *2039:B 9.3 
3 *480:8 *2040:B 12.3 
*END

*D_NET *481 0.000375015
*CONN
*I *2041:A1 I *D sky130_fd_sc_hd__mux2_1
*I *2039:Y O *D sky130_fd_sc_hd__xnor2_1
*CAP
1 *2041:A1 0.00012615
2 *2039:Y 0.00012615
3 *2041:A1 *2038:A 0
4 *2041:A1 *2042:A1 6.74911e-05
5 *2041:A0 *2041:A1 5.52238e-05
*RES
1 *2039:Y *2041:A1 30.1893 
*END

*D_NET *482 0.000541672
*CONN
*I *2042:A1 I *D sky130_fd_sc_hd__mux2_4
*I *2040:X O *D sky130_fd_sc_hd__xor2_1
*CAP
1 *2042:A1 0.000185453
2 *2040:X 0.000185453
3 *2042:A1 *2041:S 0.000103275
4 *2041:A1 *2042:A1 6.74911e-05
5 *464:25 *2042:A1 0
*RES
1 *2040:X *2042:A1 31.6714 
*END

*D_NET *483 0.00200465
*CONN
*I *2087:B I *D sky130_fd_sc_hd__xnor2_1
*I *2043:B I *D sky130_fd_sc_hd__nand2_1
*I *2041:X O *D sky130_fd_sc_hd__mux2_1
*CAP
1 *2087:B 0.000167726
2 *2043:B 0
3 *2041:X 0.000692008
4 *483:12 0.000859734
5 *2087:B *2043:A 0.000184225
6 *2087:B *484:12 0.00010096
7 *483:12 *2038:A 0
8 *2087:A *483:12 0
*RES
1 *2041:X *483:12 26.6393 
2 *483:12 *2043:B 9.3 
3 *483:12 *2087:B 13.55 
*END

*D_NET *484 0.00297188
*CONN
*I *2089:B1 I *D sky130_fd_sc_hd__a21o_1
*I *2057:A1 I *D sky130_fd_sc_hd__a221o_1
*I *2042:X O *D sky130_fd_sc_hd__mux2_4
*CAP
1 *2089:B1 0.000293764
2 *2057:A1 0
3 *2042:X 0.000642266
4 *484:12 0.00093603
5 *2089:B1 *2061:A2 0.00011061
6 *2089:B1 *2089:A1 6.60598e-05
7 *2089:B1 *485:10 0
8 *484:12 *2038:A 6.70624e-05
9 *484:12 *2042:S 0
10 *484:12 *485:10 0.000144773
11 *2056:A2 *2089:B1 0
12 *2057:A2 *484:12 0
13 *2057:C1 *2089:B1 0
14 *2061:A1 *2089:B1 0.000146474
15 *2087:A *484:12 0
16 *2087:B *484:12 0.00010096
17 *2089:A2 *2089:B1 9.71197e-05
18 *39:14 *2089:B1 0.000366765
*RES
1 *2042:X *484:12 24.9964 
2 *484:12 *2057:A1 13.8 
3 *484:12 *2089:B1 21.3893 
*END

*D_NET *485 0.00204587
*CONN
*I *2058:A I *D sky130_fd_sc_hd__nand2_1
*I *2062:A3 I *D sky130_fd_sc_hd__a311o_1
*I *2061:A2 I *D sky130_fd_sc_hd__a311oi_2
*I *2043:Y O *D sky130_fd_sc_hd__nand2_1
*CAP
1 *2058:A 0
2 *2062:A3 7.84098e-05
3 *2061:A2 0.000169501
4 *2043:Y 0.000347764
5 *485:23 7.84098e-05
6 *485:10 0.000517265
7 *2057:A2 *2062:A3 0
8 *2057:B1 *2062:A3 0
9 *2058:B *2062:A3 4.1896e-06
10 *2061:A1 *2061:A2 9.25014e-06
11 *2061:A3 *2061:A2 0.000149911
12 *2062:A1 *2061:A2 0
13 *2062:A1 *485:10 0
14 *2062:A2 *2062:A3 0.000108151
15 *2089:B1 *2061:A2 0.00011061
16 *2089:B1 *485:10 0
17 *35:8 *2062:A3 0.000274294
18 *41:8 *2062:A3 5.33433e-05
19 *484:12 *485:10 0.000144773
*RES
1 *2043:Y *485:10 19.2286 
2 *485:10 *2061:A2 17.6036 
3 *485:10 *485:23 4.5 
4 *485:23 *2062:A3 12.7464 
5 *485:23 *2058:A 9.3 
*END

*D_NET *486 0.00411591
*CONN
*I *2299:A1 I *D sky130_fd_sc_hd__a21oi_2
*I *2045:B I *D sky130_fd_sc_hd__and2_1
*I *2046:B I *D sky130_fd_sc_hd__nand2_1
*I *2044:Y O *D sky130_fd_sc_hd__nand2_1
*CAP
1 *2299:A1 0.000727851
2 *2045:B 0
3 *2046:B 2.41005e-05
4 *2044:Y 7.40396e-05
5 *486:18 0.000275696
6 *486:6 0.00105349
7 *2299:A1 *2413:A 9.05499e-05
8 *2299:A1 *2413:B 0.000271352
9 *2299:A1 *2424:B 0.000318173
10 *2299:A1 *520:58 0
11 *2299:A1 *548:32 0.000167266
12 *486:6 *2424:A 5.17614e-05
13 *486:18 *2424:B 0
14 *486:18 *518:70 0.000126439
15 *486:18 *550:10 8.27532e-05
16 *486:18 *550:12 0.000142856
17 *2018:A2 *2046:B 0.00014183
18 *2018:A2 *486:18 0.000200495
19 *2046:A *2046:B 0.00014183
20 *2046:A *486:18 8.76257e-05
21 *2299:A2 *2299:A1 0
22 *2421:B *2299:A1 1.99099e-05
23 *2428:A *2299:A1 6.07532e-05
24 *445:6 *486:18 5.71472e-05
*RES
1 *2044:Y *486:6 10.2464 
2 *486:6 *486:18 15.4286 
3 *486:18 *2046:B 10.6571 
4 *486:18 *2045:B 9.3 
5 *486:6 *2299:A1 33.1571 
*END

*D_NET *487 0.00208561
*CONN
*I *2047:C1 I *D sky130_fd_sc_hd__a211o_1
*I *2045:X O *D sky130_fd_sc_hd__and2_1
*CAP
1 *2047:C1 0.000298661
2 *2045:X 0.000298661
3 *2047:C1 *2000:A 0.00024769
4 *2047:C1 *2013:A1 4.16984e-05
5 *2047:C1 *516:99 0.000628305
6 *2047:C1 *547:110 0.000320031
7 *2047:C1 *552:53 0.000138194
8 *2013:A2 *2047:C1 5.71472e-05
9 *2013:B1 *2047:C1 5.52238e-05
10 *2047:A2 *2047:C1 0
*RES
1 *2045:X *2047:C1 38.7964 
*END

*D_NET *488 0.00201579
*CONN
*I *2048:C1 I *D sky130_fd_sc_hd__a211o_1
*I *2046:Y O *D sky130_fd_sc_hd__nand2_1
*CAP
1 *2048:C1 0.000652146
2 *2046:Y 0.000652146
3 *2048:C1 *2018:A1 7.6644e-05
4 *2048:C1 *550:24 0
5 *2048:C1 *552:53 0
6 *2018:A2 *2048:C1 3.97657e-05
7 *2020:A1 *2048:C1 2.44318e-05
8 *2020:A2 *2048:C1 4.88637e-05
9 *2046:A *2048:C1 2.89016e-05
10 *2048:B1 *2048:C1 0.000265192
11 *439:18 *2048:C1 7.77751e-05
12 *453:12 *2048:C1 0.000139913
13 *463:10 *2048:C1 1.00073e-05
*RES
1 *2046:Y *2048:C1 39.4393 
*END

*D_NET *489 0.00543587
*CONN
*I *2222:A_N I *D sky130_fd_sc_hd__and4bb_2
*I *2205:A I *D sky130_fd_sc_hd__nand2_1
*I *2207:A I *D sky130_fd_sc_hd__or4b_4
*I *1985:A I *D sky130_fd_sc_hd__nor2_1
*I *2213:D I *D sky130_fd_sc_hd__and4b_2
*I *2204:A_N I *D sky130_fd_sc_hd__and4b_2
*I *2215:D I *D sky130_fd_sc_hd__and4bb_2
*I *2483:X O *D sky130_fd_sc_hd__dlymetal6s2s_1
*CAP
1 *2222:A_N 0.000203962
2 *2205:A 2.23854e-05
3 *2207:A 0
4 *1985:A 0.000214212
5 *2213:D 8.6482e-05
6 *2204:A_N 0
7 *2215:D 8.65211e-05
8 *2483:X 0
9 *489:46 0.000300694
10 *489:44 0.000167706
11 *489:35 0.000395299
12 *489:12 0.000488641
13 *489:6 0.00039022
14 *489:4 0.00039727
15 *1985:A *1985:B 0
16 *1985:A *2207:B 3.17148e-05
17 *1985:A *2506:A 9.90431e-05
18 *1985:A *2511:A 0
19 *2213:D *2207:B 0.000177941
20 *2213:D *2506:A 0
21 *2215:D *2215:C 6.05161e-06
22 *2215:D *2460:A 1.19402e-05
23 *2215:D *522:8 1.18358e-05
24 *2222:A_N *2219:A 1.02504e-05
25 *2222:A_N *511:10 0.000173328
26 *489:6 *2205:B 5.52302e-05
27 *489:6 *511:10 9.90431e-05
28 *489:12 *2205:B 0
29 *489:12 *522:8 3.31397e-05
30 *489:35 *2204:B 0
31 *489:35 *2215:B_N 0.000311494
32 *489:35 *2215:C 5.52302e-05
33 *489:35 *500:6 0.000408744
34 *489:35 *500:8 6.57914e-05
35 *489:35 *500:46 0.000298868
36 *489:35 *522:8 9.87983e-06
37 *489:44 *2204:B 3.99614e-06
38 *489:44 *500:8 4.38128e-05
39 *489:44 *500:12 5.52302e-05
40 *2204:C *489:35 0.000162763
41 *2204:C *489:44 1.39841e-05
42 *2228:B *2222:A_N 0
43 *2494:A *2215:D 5.03829e-05
44 *2494:A *489:12 0.0001526
45 *2494:A *489:35 0.00014285
46 *2497:A *489:12 5.52302e-05
47 *189:12 *489:6 2.59355e-05
48 *205:16 *2222:A_N 5.80706e-06
49 *211:14 *489:44 0.000110362
50 *315:8 *1985:A 0
*RES
1 *2483:X *489:4 9.3 
2 *489:4 *489:6 3.82143 
3 *489:6 *489:12 8.36607 
4 *489:12 *2215:D 15.5232 
5 *489:12 *489:35 14.6161 
6 *489:35 *2204:A_N 9.3 
7 *489:35 *489:44 3.42857 
8 *489:44 *489:46 4.5 
9 *489:46 *2213:D 16.05 
10 *489:46 *1985:A 17.3 
11 *489:44 *2207:A 9.3 
12 *489:6 *2205:A 9.72857 
13 *489:4 *2222:A_N 22.3179 
*END

*D_NET *490 0.0167086
*CONN
*I *2400:B2 I *D sky130_fd_sc_hd__a32o_1
*I *2357:A1 I *D sky130_fd_sc_hd__a32o_1
*I *2356:A1 I *D sky130_fd_sc_hd__o22a_1
*I *2355:A1 I *D sky130_fd_sc_hd__a21oi_1
*I *2482:A I *D sky130_fd_sc_hd__buf_2
*I *2484:X O *D sky130_fd_sc_hd__clkbuf_2
*CAP
1 *2400:B2 3.33775e-05
2 *2357:A1 0.000360224
3 *2356:A1 2.782e-05
4 *2355:A1 0
5 *2482:A 0.000315864
6 *2484:X 0.00175339
7 *490:49 0.000927927
8 *490:34 0.000646023
9 *490:25 0.00207186
10 *490:14 0.00405724
11 *2356:A1 *2356:A2 5.49489e-05
12 *2357:A1 *519:98 0.000244894
13 *2357:A1 *519:104 0.000106485
14 *2357:A1 *520:108 1.08359e-05
15 *2357:A1 *529:57 1.39841e-05
16 *2357:A1 *537:8 1.98839e-05
17 *2357:A1 *552:22 6.60156e-05
18 *2357:A1 *580:14 9.62476e-05
19 *2400:B2 *553:14 3.69573e-05
20 *2482:A *2423:B 9.58508e-05
21 *2482:A *554:8 9.80173e-05
22 *490:14 *2449:A 5.52302e-05
23 *490:14 *518:10 7.53317e-05
24 *490:25 *2374:C 0.000222878
25 *490:25 *2429:A2 2.04825e-05
26 *490:25 *2453:A 0
27 *490:25 *520:27 0
28 *490:25 *520:35 0
29 *490:25 *520:162 0
30 *490:25 *523:12 4.57445e-05
31 *490:25 *525:27 0.000143128
32 *490:25 *526:22 3.06406e-05
33 *490:25 *526:47 0.000145581
34 *490:25 *537:69 2.8266e-06
35 *490:25 *537:73 0.000603551
36 *490:25 *545:52 0
37 *490:25 *555:18 0.000125731
38 *490:25 *555:43 0.000555063
39 *490:34 *537:69 3.70615e-05
40 *490:49 *519:98 0.00034724
41 *490:49 *555:43 4.79414e-05
42 *2254:A_N *2356:A1 2.36643e-05
43 *2256:B1 *2357:A1 1.89596e-05
44 *2315:C1 *2357:A1 0.000375871
45 *2315:C1 *490:49 0.000635947
46 *2328:B *490:14 1.21258e-05
47 *2328:C *490:14 1.98839e-05
48 *2356:B2 *490:25 6.0038e-05
49 *2356:B2 *490:34 0.000167368
50 *2356:B2 *490:49 9.25014e-06
51 *2357:A3 *2357:A1 1.85392e-05
52 *2358:A2 *2356:A1 5.33005e-05
53 *2358:A2 *490:34 3.17148e-05
54 *2358:A2 *490:49 0.000121528
55 *2360:B *2356:A1 1.98839e-05
56 *2385:B *490:14 0.00018372
57 *2428:B *2482:A 5.17614e-05
58 *2439:A3 *2400:B2 6.53083e-05
59 *2487:A *490:14 7.68486e-05
60 *2501:A *490:14 6.30405e-05
61 *190:24 *490:49 5.84682e-05
62 *199:64 *2357:A1 9.94194e-06
63 *205:51 *490:49 0.000471738
64 *254:12 *490:25 2.49484e-05
65 *284:12 *490:25 0.000505342
66 *287:12 *490:25 7.60306e-05
67 *378:10 *490:14 5.71472e-05
*RES
1 *2484:X *490:14 48.0321 
2 *490:14 *2482:A 15.5857 
3 *490:14 *490:25 48.3393 
4 *490:25 *2355:A1 13.8 
5 *490:25 *490:34 2.25 
6 *490:34 *2356:A1 14.7464 
7 *490:34 *490:49 7.12538 
8 *490:49 *2357:A1 20.5969 
9 *490:49 *2400:B2 18.0939 
*END

*D_NET *491 0.00537258
*CONN
*I *2481:A I *D sky130_fd_sc_hd__clkbuf_2
*I *2480:A I *D sky130_fd_sc_hd__buf_2
*I *2485:X O *D sky130_fd_sc_hd__buf_1
*CAP
1 *2481:A 0.000264158
2 *2480:A 0
3 *2485:X 0.00105685
4 *491:12 0.00132101
5 *2481:A *523:76 0
6 *2481:A *526:55 0.000528934
7 *2481:A *529:47 0.000197988
8 *2481:A *580:77 5.61827e-05
9 *491:12 *1985:B 0
10 *491:12 *2506:A 0.000616988
11 *491:12 *2511:A 2.89114e-05
12 *491:12 *492:10 0.000413054
13 *491:12 *530:68 7.60306e-05
14 *2203:A1 *491:12 0.000183215
15 *2217:A3 *491:12 0.000327558
16 *2399:B2 *2481:A 5.64168e-05
17 *183:24 *491:12 4.6387e-05
18 *188:18 *2481:A 8.66228e-05
19 *190:57 *2481:A 5.80996e-05
20 *192:12 *491:12 5.41797e-05
21 *197:72 *491:12 0
*RES
1 *2485:X *491:12 40.7286 
2 *491:12 *2480:A 9.3 
3 *491:12 *2481:A 26.7554 
*END

*D_NET *492 0.0137276
*CONN
*I *2200:C I *D sky130_fd_sc_hd__or4_1
*I *2437:A1 I *D sky130_fd_sc_hd__a21oi_1
*I *2401:A1 I *D sky130_fd_sc_hd__a211o_1
*I *2438:A1 I *D sky130_fd_sc_hd__o22a_1
*I *2405:A I *D sky130_fd_sc_hd__xnor2_1
*I *1980:A I *D sky130_fd_sc_hd__inv_2
*I *1990:B1 I *D sky130_fd_sc_hd__o41ai_4
*I *2424:B I *D sky130_fd_sc_hd__nand2_1
*I *2439:A1 I *D sky130_fd_sc_hd__a32o_1
*I *2486:X O *D sky130_fd_sc_hd__clkbuf_4
*CAP
1 *2200:C 0.000153158
2 *2437:A1 0.000100448
3 *2401:A1 0.000169533
4 *2438:A1 0
5 *2405:A 8.02703e-05
6 *1980:A 0
7 *1990:B1 0
8 *2424:B 0.00127497
9 *2439:A1 0
10 *2486:X 0.000681418
11 *492:41 0.00136818
12 *492:39 0.000381426
13 *492:37 0.000712408
14 *492:27 0.000366302
15 *492:25 0.000256377
16 *492:18 0.000284768
17 *492:12 0.000377809
18 *492:10 0.000891627
19 *2401:A1 *2438:A2 2.28598e-05
20 *2405:A *553:22 6.05161e-06
21 *2424:B *2415:D 3.69697e-05
22 *2424:B *2416:A1 0
23 *2424:B *520:58 0
24 *2424:B *532:16 0
25 *2424:B *535:23 0.000165526
26 *2424:B *535:25 9.88136e-05
27 *2424:B *547:12 0.000176249
28 *2424:B *548:32 0
29 *2424:B *551:10 0
30 *492:10 *1985:B 3.2534e-05
31 *492:10 *2213:A_N 3.47375e-05
32 *492:10 *551:29 0.000401117
33 *492:10 *580:77 9.25014e-06
34 *492:12 *551:29 0.000136099
35 *492:12 *580:77 0.000144635
36 *492:18 *2437:A2 1.32429e-05
37 *492:18 *2439:A2 1.24368e-05
38 *492:18 *2439:B1 3.32595e-05
39 *492:18 *532:10 7.80714e-06
40 *492:18 *551:29 0.00039851
41 *492:18 *580:77 0.00019212
42 *492:25 *2438:A2 3.08382e-05
43 *492:25 *2439:A2 4.08637e-05
44 *492:27 *2439:A2 0
45 *492:37 *2438:A2 5.33005e-05
46 *492:37 *535:66 0
47 *492:37 *553:22 0.000152541
48 *492:39 *532:16 0
49 *492:39 *535:23 0.000167256
50 *492:39 *535:66 4.84088e-05
51 *492:39 *553:22 0
52 *492:41 *535:23 0.000116417
53 *1989:A2 *492:39 7.83587e-05
54 *1992:B1 *2424:B 0.000133954
55 *1994:B *2424:B 0.000100831
56 *2203:A2 *492:10 0.000144696
57 *2203:B1 *492:10 7.91281e-05
58 *2204:C *492:10 5.10822e-05
59 *2217:A3 *492:10 0.000329273
60 *2299:A1 *2424:B 0.000318173
61 *2360:B *2401:A1 7.31843e-05
62 *2401:A2 *2401:A1 3.10819e-05
63 *2401:B1 *2401:A1 1.73088e-05
64 *2402:A1 *492:18 1.6345e-05
65 *2402:C1 *2401:A1 9.99811e-05
66 *2402:C1 *492:37 0.000365674
67 *2407:A *2405:A 6.05161e-06
68 *2407:B *492:37 1.76135e-05
69 *2407:B *492:39 6.5185e-05
70 *2408:A *2405:A 8.80572e-05
71 *2418:D *2424:B 9.77024e-05
72 *2419:A2 *2424:B 0.000262595
73 *2421:B *2424:B 0.000145753
74 *2438:B2 *2401:A1 6.39163e-05
75 *2439:A3 *2401:A1 2.19481e-05
76 *2439:A3 *492:25 5.52238e-05
77 *2439:A3 *492:37 9.25014e-06
78 *2440:B1 *2401:A1 5.03772e-05
79 *2440:C1 *492:18 0.000223144
80 *2440:C1 *492:25 0.000180777
81 *186:10 *492:10 0.000167669
82 *199:64 *2437:A1 0.000139208
83 *205:57 *2401:A1 8.6229e-06
84 *230:30 *492:10 4.02462e-05
85 *326:78 *492:18 7.43578e-06
86 *337:54 *2424:B 4.1331e-06
87 *337:54 *492:39 3.97273e-05
88 *337:54 *492:41 7.44918e-05
89 *410:8 *2424:B 7.5779e-05
90 *486:18 *2424:B 0
91 *491:12 *492:10 0.000413054
*RES
1 *2486:X *492:10 30.55 
2 *492:10 *492:12 1.94643 
3 *492:12 *492:18 11.1429 
4 *492:18 *2439:A1 9.3 
5 *492:18 *492:25 2.17857 
6 *492:25 *492:27 0.428571 
7 *492:27 *492:37 13.4107 
8 *492:37 *492:39 7.10714 
9 *492:39 *492:41 2.85714 
10 *492:41 *2424:B 41.6214 
11 *492:41 *1990:B1 13.8 
12 *492:39 *1980:A 13.8 
13 *492:37 *2405:A 15.5679 
14 *492:27 *2438:A1 9.3 
15 *492:25 *2401:A1 22.4607 
16 *492:12 *2437:A1 15.1571 
17 *492:10 *2200:C 15.9786 
*END

*D_NET *493 0.0169385
*CONN
*I *2479:A I *D sky130_fd_sc_hd__buf_4
*I *2380:A1 I *D sky130_fd_sc_hd__a22oi_1
*I *2246:A I *D sky130_fd_sc_hd__and3_1
*I *2244:A1 I *D sky130_fd_sc_hd__a21o_1
*I *2487:X O *D sky130_fd_sc_hd__clkbuf_2
*CAP
1 *2479:A 0.000357733
2 *2380:A1 0.00035773
3 *2246:A 0.000261847
4 *2244:A1 0
5 *2487:X 1.84473e-05
6 *493:48 0.00321007
7 *493:26 0.0040594
8 *493:8 0.00631061
9 *2246:A *2246:B 1.40415e-05
10 *2380:A1 *2377:A 0
11 *2380:A1 *2379:A 5.33005e-05
12 *2380:A1 *2380:B1 2.89114e-05
13 *2380:A1 *2380:B2 9.41918e-05
14 *2380:A1 *518:53 0
15 *2380:A1 *548:32 0
16 *2479:A *2478:A 0.000264311
17 *2479:A *518:57 5.38388e-05
18 *2479:A *548:32 0
19 *2479:A *550:10 0.000144773
20 *493:26 *2244:A2 2.22043e-05
21 *493:26 *545:140 0.000123067
22 *2246:C *2246:A 0.000105637
23 *2268:A *2246:A 8.07313e-05
24 *2381:B *2380:A1 3.17148e-05
25 *2386:A *493:48 2.89016e-05
26 *2422:B1_N *2380:A1 3.34366e-05
27 *2427:A *2380:A1 7.49387e-06
28 *2428:A *2479:A 0.000186662
29 *2428:B *2380:A1 7.6644e-05
30 *2428:B *2479:A 0.000250915
31 *2430:A2 *493:48 5.62995e-05
32 *2430:B1 *493:48 9.60939e-05
33 *2431:B *493:48 1.40131e-05
34 *2487:A *493:26 2.07074e-06
35 *2499:A *493:48 9.87983e-06
36 *259:12 *493:26 0.000138255
37 *259:18 *493:26 0.00011617
38 *373:10 *2380:A1 4.01511e-05
39 *431:10 *493:26 0.000135118
40 *448:27 *2380:A1 1.39726e-05
41 *448:42 *2380:A1 0.000139913
*RES
1 *2487:X *493:8 14.0768 
2 *493:8 *493:26 29.1077 
3 *493:26 *2244:A1 9.3 
4 *493:26 *2246:A 13.9607 
5 *493:8 *493:48 37.9375 
6 *493:48 *2380:A1 20.6571 
7 *493:48 *2479:A 23.3893 
*END

*D_NET *494 0.00409973
*CONN
*I *2477:A I *D sky130_fd_sc_hd__clkbuf_4
*I *2488:X O *D sky130_fd_sc_hd__clkbuf_1
*CAP
1 *2477:A 0
2 *2488:X 0.00144856
3 *494:12 0.00144856
4 *494:12 *2415:B 0.000139632
5 *494:12 *525:14 0.000137983
6 *494:12 *529:14 0.000674608
7 *2390:A1 *494:12 5.52302e-05
8 *2412:B *494:12 5.99221e-05
9 *2433:A *494:12 0
10 *384:10 *494:12 8.18412e-05
11 *385:21 *494:12 5.33882e-05
*RES
1 *2488:X *494:12 44.7821 
2 *494:12 *2477:A 9.3 
*END

*D_NET *495 0.00632902
*CONN
*I *2474:A I *D sky130_fd_sc_hd__clkbuf_2
*I *2489:X O *D sky130_fd_sc_hd__clkbuf_1
*CAP
1 *2474:A 0
2 *2489:X 0.00199382
3 *495:12 0.00199382
4 *495:12 *2472:A 4.48583e-05
5 *495:12 *496:12 0.00034008
6 *495:12 *536:44 0.00176736
7 *495:12 *543:58 1.69115e-05
8 *495:12 *546:8 4.98872e-05
9 *2110:B *495:12 2.77143e-05
10 *2137:A0 *495:12 0
11 *2173:A *495:12 0
12 *2173:B *495:12 9.45855e-05
*RES
1 *2489:X *495:12 48.925 
2 *495:12 *2474:A 9.3 
*END

*D_NET *496 0.00617135
*CONN
*I *2471:A I *D sky130_fd_sc_hd__clkbuf_4
*I *2490:X O *D sky130_fd_sc_hd__clkbuf_1
*CAP
1 *2471:A 0
2 *2490:X 0.00202851
3 *496:12 0.00202851
4 *496:12 *2146:B1 0.000114121
5 *496:12 *543:14 0
6 *2111:A1 *496:12 0.000140933
7 *2111:S *496:12 9.71197e-05
8 *2173:B *496:12 3.69697e-05
9 *2503:A *496:12 0.000218246
10 *92:12 *496:12 0.000266473
11 *92:36 *496:12 0.000746212
12 *95:10 *496:12 1.65169e-05
13 *100:10 *496:12 0
14 *110:10 *496:12 0
15 *471:97 *496:12 0.000137666
16 *495:12 *496:12 0.00034008
*RES
1 *2490:X *496:12 49.425 
2 *496:12 *2471:A 9.3 
*END

*D_NET *497 0.0258423
*CONN
*I *2467:A I *D sky130_fd_sc_hd__buf_8
*I *2373:B1 I *D sky130_fd_sc_hd__a22oi_1
*I *2374:D I *D sky130_fd_sc_hd__and4_1
*I *2416:B1 I *D sky130_fd_sc_hd__a22o_1
*I *2443:A I *D sky130_fd_sc_hd__clkbuf_1
*I *2468:A I *D sky130_fd_sc_hd__buf_2
*I *2491:X O *D sky130_fd_sc_hd__buf_8
*CAP
1 *2467:A 3.61152e-05
2 *2373:B1 0.000123651
3 *2374:D 6.42655e-05
4 *2416:B1 2.37399e-05
5 *2443:A 2.68788e-05
6 *2468:A 0
7 *2491:X 0.000559427
8 *497:93 0.00146642
9 *497:62 0.00411398
10 *497:41 0.00371853
11 *497:35 0.00199131
12 *497:29 0.00262413
13 *497:12 0.00210827
14 *2373:B1 *2373:A1 2.28598e-05
15 *2373:B1 *2373:B2 5.33005e-05
16 *2373:B1 *2374:A 1.98839e-05
17 *2374:D *2373:B2 9.90367e-05
18 *2416:B1 *551:10 4.50033e-05
19 *2416:B1 *554:104 0
20 *2443:A *520:108 3.37e-05
21 *2443:A *552:22 6.74867e-05
22 *2467:A *501:48 4.58194e-05
23 *2467:A *526:67 9.41642e-05
24 *497:12 *2465:A 1.5942e-05
25 *497:12 *510:14 0
26 *497:12 *534:138 0
27 *497:12 *539:8 3.92854e-05
28 *497:12 *539:10 0.000424187
29 *497:12 *539:103 2.22999e-05
30 *497:29 *2152:B 8.50152e-05
31 *497:29 *501:14 6.09773e-05
32 *497:29 *501:27 0.000101169
33 *497:29 *501:48 0.000588702
34 *497:29 *510:14 0.000139913
35 *497:29 *510:25 0.000781634
36 *497:35 *516:14 0.000438794
37 *497:35 *516:20 0.000135028
38 *497:41 *2466:A 0
39 *497:62 *2466:A 0
40 *497:62 *537:65 9.15296e-05
41 *497:62 *547:33 0
42 *497:62 *551:10 0.000112793
43 *497:62 *554:130 0.000117648
44 *497:93 *2416:A2 0.000596946
45 *497:93 *525:10 5.52238e-05
46 *497:93 *526:22 5.76162e-05
47 *497:93 *540:53 0
48 *497:93 *540:70 3.82357e-05
49 *497:93 *547:33 0
50 *2140:A *497:12 7.83462e-05
51 *2140:C *497:12 0
52 *2158:B *497:12 0.000538516
53 *2159:A0 *497:29 9.83442e-05
54 *2187:B1 *497:29 1.33343e-05
55 *2187:B1 *497:35 8.12739e-05
56 *2189:A1 *497:29 0.000396892
57 *2298:C *497:93 2.0954e-05
58 *2315:C1 *497:41 0.000467556
59 *2315:C1 *497:62 9.37043e-05
60 *2375:A *497:93 0.00014576
61 *2375:B *497:93 7.80714e-06
62 *2429:B1 *497:93 3.34672e-05
63 *136:14 *497:29 0.000333493
64 *143:10 *497:29 0.0006599
65 *183:24 *497:62 0.000425653
66 *192:91 *497:35 6.73939e-05
67 *192:91 *497:41 6.7848e-05
68 *326:59 *497:35 0.000730738
69 *336:8 *497:35 2.34204e-05
70 *336:8 *497:41 2.0449e-05
71 *367:12 *497:93 0.000191403
72 *471:97 *497:29 0.000105132
*RES
1 *2491:X *497:12 32.9607 
2 *497:12 *2468:A 9.3 
3 *497:12 *497:29 46.5 
4 *497:29 *497:35 19.625 
5 *497:35 *497:41 6.43086 
6 *497:41 *2443:A 18.0939 
7 *497:41 *497:62 12.9018 
8 *497:62 *2416:B1 17.7904 
9 *497:62 *497:93 33.1515 
10 *497:93 *2374:D 10.2464 
11 *497:93 *2373:B1 11.0857 
12 *497:35 *2467:A 14.7464 
*END

*D_NET *498 0.0145408
*CONN
*I *2466:A I *D sky130_fd_sc_hd__buf_2
*I *2444:A I *D sky130_fd_sc_hd__clkbuf_1
*I *2465:A I *D sky130_fd_sc_hd__buf_6
*I *2492:X O *D sky130_fd_sc_hd__clkbuf_2
*CAP
1 *2466:A 0.00361939
2 *2444:A 5.23208e-05
3 *2465:A 0.000127366
4 *2492:X 0.000543534
5 *498:31 0.00491181
6 *498:10 0.001911
7 *2444:A *584:25 2.59355e-05
8 *2466:A *537:65 6.93292e-05
9 *2466:A *552:12 3.39401e-05
10 *2466:A *552:22 0.000529839
11 *2466:A *554:130 0.000139247
12 *498:10 *2135:A 1.00073e-05
13 *498:31 *2152:C 2.88018e-06
14 *498:31 *2157:A2 0.000308844
15 *2127:B *2444:A 1.24368e-05
16 *2135:B *498:10 4.70078e-05
17 *2138:A *498:31 1.55885e-05
18 *2140:A *2465:A 0.000177234
19 *2140:C *2465:A 9.24395e-05
20 *2140:C *498:10 0.000274754
21 *2142:D_N *2465:A 0.000104974
22 *2150:A1 *498:31 0.000119279
23 *2150:A2 *2465:A 0
24 *2150:A2 *498:31 7.27266e-05
25 *2150:B1_N *498:31 9.41642e-05
26 *2152:A *498:31 7.51077e-05
27 *2158:B *2465:A 6.75007e-05
28 *2158:B *498:10 0.000207034
29 *2175:A2 *2444:A 4.46186e-06
30 *2178:B1 *498:31 3.69697e-05
31 *2536:A *2444:A 4.53834e-05
32 *2536:A *498:31 0.000103527
33 *97:28 *2444:A 0
34 *117:49 *498:31 5.12758e-05
35 *119:8 *498:10 7.32272e-05
36 *130:27 *498:31 0.000564328
37 *497:12 *2465:A 1.5942e-05
38 *497:41 *2466:A 0
39 *497:62 *2466:A 0
*RES
1 *2492:X *498:10 25.4786 
2 *498:10 *2465:A 18.175 
3 *498:10 *498:31 29.2411 
4 *498:31 *2444:A 14.9161 
5 *498:31 *2466:A 34.9164 
*END

*D_NET *499 0.0137403
*CONN
*I *2463:A I *D sky130_fd_sc_hd__buf_4
*I *2464:A I *D sky130_fd_sc_hd__clkbuf_2
*I *2493:X O *D sky130_fd_sc_hd__buf_1
*CAP
1 *2463:A 0
2 *2464:A 0
3 *2493:X 0.000713383
4 *499:38 0.00282643
5 *499:22 0.00384532
6 *499:10 0.00173227
7 *499:10 *534:138 0.000255896
8 *499:10 *539:10 0
9 *499:22 *2134:A 2.70242e-05
10 *499:22 *534:24 0.000608141
11 *499:22 *539:10 0
12 *499:22 *539:14 0
13 *499:38 *1981:A 2.04825e-05
14 *499:38 *2117:A 2.89114e-05
15 *499:38 *2119:S 5.03772e-05
16 *499:38 *2122:B 2.14658e-05
17 *499:38 *524:64 1.92175e-05
18 *499:38 *524:68 1.57523e-05
19 *499:38 *538:14 4.28249e-05
20 *499:38 *543:69 0.000688836
21 *499:38 *549:37 0.000354536
22 *2118:B *499:38 5.04589e-05
23 *2119:A1 *499:38 0.000276211
24 *2122:A *499:38 5.52238e-05
25 *2130:B *499:10 1.08359e-05
26 *2130:B *499:22 0.00023875
27 *2143:A2 *499:22 0
28 *2144:B1 *499:22 4.48113e-05
29 *2148:A3 *499:22 5.52302e-05
30 *2148:B1 *499:22 0.000141099
31 *2149:C_N *499:22 0.000187041
32 *2150:A2 *499:22 9.60939e-05
33 *2151:A2 *499:22 1.40306e-05
34 *2287:A2 *499:38 2.01359e-05
35 *2495:A *499:10 0
36 *103:6 *499:38 0.00040381
37 *106:8 *499:38 8.25843e-06
38 *117:16 *499:22 9.71197e-05
39 *117:24 *499:22 2.2351e-05
40 *132:6 *499:22 0.000656658
41 *132:6 *499:38 5.19842e-06
42 *471:97 *499:38 0.000106141
*RES
1 *2493:X *499:10 26.0321 
2 *499:10 *499:22 29.125 
3 *499:22 *499:38 46.4352 
4 *499:38 *2464:A 9.3 
5 *499:10 *2463:A 13.8 
*END

*D_NET *500 0.00452735
*CONN
*I *2222:D I *D sky130_fd_sc_hd__and4bb_2
*I *2215:A_N I *D sky130_fd_sc_hd__and4bb_2
*I *2205:B I *D sky130_fd_sc_hd__nand2_1
*I *2204:B I *D sky130_fd_sc_hd__and4b_2
*I *2207:D_N I *D sky130_fd_sc_hd__or4b_4
*I *1985:B I *D sky130_fd_sc_hd__nor2_1
*I *2213:A_N I *D sky130_fd_sc_hd__and4b_2
*I *2494:X O *D sky130_fd_sc_hd__buf_1
*CAP
1 *2222:D 5.27186e-05
2 *2215:A_N 0
3 *2205:B 0.000128315
4 *2204:B 2.06112e-05
5 *2207:D_N 0
6 *1985:B 0.000119973
7 *2213:A_N 5.83389e-05
8 *2494:X 0
9 *500:63 8.89667e-05
10 *500:46 0.000258123
11 *500:12 0.000189918
12 *500:8 5.09661e-05
13 *500:6 0.000122319
14 *500:4 0.000155908
15 *1985:B *2506:A 5.52238e-05
16 *2205:B *511:10 0
17 *2205:B *522:8 5.01213e-05
18 *2222:D *2215:C 9.71197e-05
19 *2222:D *2222:B_N 2.44318e-05
20 *500:46 *2215:C 9.31893e-05
21 *500:63 *2215:C 1.54142e-05
22 *1985:A *1985:B 0
23 *2204:C *2213:A_N 9.4724e-05
24 *2227:B1 *2222:D 0
25 *2486:A *1985:B 5.52238e-05
26 *2494:A *2205:B 0
27 *189:12 *2205:B 9.91086e-05
28 *199:18 *2222:D 2.96895e-05
29 *211:14 *2222:D 9.61553e-05
30 *211:14 *500:6 0.000493359
31 *211:14 *500:8 0.00018372
32 *211:14 *500:12 5.52302e-05
33 *211:14 *500:46 0.000481568
34 *211:14 *500:63 5.33005e-05
35 *230:30 *2213:A_N 1.02504e-05
36 *315:8 *1985:B 9.22948e-05
37 *315:8 *2213:A_N 0.000202128
38 *489:6 *2205:B 5.52302e-05
39 *489:12 *2205:B 0
40 *489:35 *2204:B 0
41 *489:35 *500:6 0.000408744
42 *489:35 *500:8 6.57914e-05
43 *489:35 *500:46 0.000298868
44 *489:44 *2204:B 3.99614e-06
45 *489:44 *500:8 4.38128e-05
46 *489:44 *500:12 5.52302e-05
47 *491:12 *1985:B 0
48 *492:10 *1985:B 3.2534e-05
49 *492:10 *2213:A_N 3.47375e-05
*RES
1 *2494:X *500:4 9.3 
2 *500:4 *500:6 4.64286 
3 *500:6 *500:8 1.76786 
4 *500:8 *500:12 5.03571 
5 *500:12 *2213:A_N 16.3536 
6 *500:12 *1985:B 16.5857 
7 *500:8 *2207:D_N 9.3 
8 *500:6 *2204:B 9.72857 
9 *500:4 *500:46 4.64286 
10 *500:46 *2205:B 21.0857 
11 *500:46 *500:63 0.964286 
12 *500:63 *2215:A_N 9.3 
13 *500:63 *2222:D 11.4964 
*END

*D_NET *501 0.0132822
*CONN
*I *2462:A I *D sky130_fd_sc_hd__clkbuf_2
*I *2445:A I *D sky130_fd_sc_hd__clkbuf_1
*I *2461:A I *D sky130_fd_sc_hd__buf_6
*I *2495:X O *D sky130_fd_sc_hd__clkbuf_1
*CAP
1 *2462:A 0
2 *2445:A 2.23854e-05
3 *2461:A 0.00022236
4 *2495:X 0.00135943
5 *501:48 0.0022892
6 *501:27 0.00236897
7 *501:14 0.00163916
8 *2461:A *2146:B1 0
9 *2461:A *584:8 0
10 *501:14 *2152:B 0.000145477
11 *501:14 *2152:C 4.77728e-05
12 *501:27 *2152:B 0.000258915
13 *501:48 *2152:B 0.0016394
14 *501:48 *2187:A1 5.52238e-05
15 *501:48 *526:67 0.000238157
16 *501:48 *526:69 0.000166485
17 *501:48 *526:73 0.000171289
18 *501:48 *526:81 9.90367e-05
19 *501:48 *538:14 0.00018372
20 *501:48 *569:16 0.000169031
21 *2138:A *501:14 0.000242213
22 *2187:A2 *501:48 0.000142856
23 *2187:B1 *501:48 3.53079e-05
24 *2360:B *501:48 1.32552e-05
25 *2467:A *501:48 4.58194e-05
26 *121:37 *501:14 0.000126395
27 *122:8 *501:14 1.28171e-05
28 *136:14 *501:14 9.69903e-05
29 *167:17 *501:48 5.88855e-05
30 *205:67 *501:48 0.000293244
31 *326:59 *501:48 3.47797e-05
32 *471:97 *2461:A 0.000352807
33 *497:29 *501:14 6.09773e-05
34 *497:29 *501:27 0.000101169
35 *497:29 *501:48 0.000588702
*RES
1 *2495:X *501:14 31.7821 
2 *501:14 *2461:A 22.9786 
3 *501:14 *501:27 2.58929 
4 *501:27 *2445:A 9.72857 
5 *501:27 *501:48 45.625 
6 *501:48 *2462:A 9.3 
*END

*D_NET *502 0.00271963
*CONN
*I *2506:A I *D sky130_fd_sc_hd__buf_8
*I *2218:X O *D sky130_fd_sc_hd__or3_4
*CAP
1 *2506:A 0.000669609
2 *2218:X 0.000669609
3 *2506:A *2207:B 0
4 *2506:A *2260:A3 0.000262234
5 *2506:A *2262:A 1.19309e-05
6 *2506:A *2511:A 0.000188723
7 *2506:A *511:75 0
8 *1985:A *2506:A 9.90431e-05
9 *1985:B *2506:A 5.52238e-05
10 *2213:D *2506:A 0
11 *2486:A *2506:A 9.61554e-05
12 *192:32 *2506:A 0
13 *197:66 *2506:A 5.01117e-05
14 *491:12 *2506:A 0.000616988
*RES
1 *2218:X *2506:A 44.3857 
*END

*D_NET *503 0.000311306
*CONN
*I *2507:A I *D sky130_fd_sc_hd__buf_8
*I *2236:X O *D sky130_fd_sc_hd__or2_4
*CAP
1 *2507:A 0.000135862
2 *2236:X 0.000135862
3 *2507:A *2508:A 0
4 *2507:A *2510:A 0
5 op_out[1] *2507:A 1.76135e-05
6 *2265:B *2507:A 2.19684e-05
*RES
1 *2236:X *2507:A 30.1536 
*END

*D_NET *504 0.000446491
*CONN
*I *2508:A I *D sky130_fd_sc_hd__buf_6
*I *2259:X O *D sky130_fd_sc_hd__a21o_1
*CAP
1 *2508:A 0.000223245
2 *2259:X 0.000223245
3 op_out[1] *2508:A 0
4 *2265:B *2508:A 0
5 *2507:A *2508:A 0
*RES
1 *2259:X *2508:A 31.3143 
*END

*D_NET *505 0.000348571
*CONN
*I *2509:A I *D sky130_fd_sc_hd__buf_2
*I *2288:Y O *D sky130_fd_sc_hd__nand2b_1
*CAP
1 *2509:A 0.000123798
2 *2288:Y 0.000123798
3 *2509:A *2510:A 0.000100975
*RES
1 *2288:Y *2509:A 30.0821 
*END

*D_NET *506 0.00310873
*CONN
*I *2510:A I *D sky130_fd_sc_hd__buf_2
*I *2316:Y O *D sky130_fd_sc_hd__o31ai_1
*CAP
1 *2510:A 0.00090871
2 *2316:Y 0.00090871
3 *2510:A *2261:A 8.2395e-05
4 *2510:A *542:138 0
5 *2510:A *551:37 0
6 op_out[3] *2510:A 2.27416e-05
7 *2261:B *2510:A 2.26424e-05
8 *2263:B *2510:A 0.000127446
9 *2265:A *2510:A 0
10 *2267:B *2510:A 7.06079e-05
11 *2287:A2 *2510:A 0
12 *2288:A_N *2510:A 0
13 *2288:B *2510:A 0.000129868
14 *2292:C *2510:A 9.90431e-05
15 *2507:A *2510:A 0
16 *2509:A *2510:A 0.000100975
17 *191:28 *2510:A 0.000241205
18 *191:60 *2510:A 6.57338e-05
19 *192:32 *2510:A 0.000148189
20 *192:74 *2510:A 6.9253e-05
21 *192:91 *2510:A 1.02504e-05
22 *242:12 *2510:A 0.00010096
*RES
1 *2316:Y *2510:A 48.0107 
*END

*D_NET *507 0.00376808
*CONN
*I *2511:A I *D sky130_fd_sc_hd__buf_2
*I *2360:X O *D sky130_fd_sc_hd__or3_1
*CAP
1 *2511:A 0.000795038
2 *2360:X 0.000795038
3 *2511:A *2256:A2 9.60337e-06
4 *2511:A *2260:A3 0.00101082
5 *2511:A *2285:B2 6.20091e-06
6 *2511:A *2313:B2 0.00015893
7 *2511:A *520:135 9.11899e-05
8 *2511:A *521:47 4.00121e-05
9 *2511:A *541:12 0.000174663
10 *2511:A *546:52 0.00024931
11 *1985:A *2511:A 0
12 *2485:A *2511:A 0
13 *2506:A *2511:A 0.000188723
14 *191:14 *2511:A 5.35516e-05
15 *197:10 *2511:A 0
16 *205:67 *2511:A 0.00016609
17 *491:12 *2511:A 2.89114e-05
*RES
1 *2360:X *2511:A 49.5107 
*END

*D_NET *508 0.00103204
*CONN
*I *2512:A I *D sky130_fd_sc_hd__buf_2
*I *2403:X O *D sky130_fd_sc_hd__a31o_1
*CAP
1 *2512:A 0.000265956
2 *2403:X 0.000265956
3 op_out[6] *2512:A 3.28897e-05
4 *2395:A *2512:A 5.58941e-05
5 *2435:A *2512:A 3.30352e-05
6 *2436:B *2512:A 9.41642e-05
7 *2441:A2 *2512:A 9.33907e-05
8 *259:12 *2512:A 1.71615e-05
9 *259:18 *2512:A 4.54397e-05
10 *329:23 *2512:A 0.000128154
*RES
1 *2403:X *2512:A 33.4393 
*END

*D_NET *509 0.00123555
*CONN
*I *2513:A I *D sky130_fd_sc_hd__buf_2
*I *2441:X O *D sky130_fd_sc_hd__a311o_1
*CAP
1 *2513:A 0.000316707
2 *2441:X 0.000316707
3 *2513:A *545:138 5.52238e-05
4 *2397:A *2513:A 0
5 *2397:B *2513:A 0.000343801
6 *2403:A2 *2513:A 6.65398e-05
7 *2403:A3 *2513:A 0.000125731
8 *259:12 *2513:A 1.08359e-05
*RES
1 *2441:X *2513:A 34.3857 
*END

*D_NET *510 0.0119196
*CONN
*I *2151:A1 I *D sky130_fd_sc_hd__a31o_1
*I *2147:B I *D sky130_fd_sc_hd__nor2_1
*I *2163:S I *D sky130_fd_sc_hd__mux2_1
*I *2183:S I *D sky130_fd_sc_hd__mux2_4
*I *2159:S I *D sky130_fd_sc_hd__mux2_1
*I *2446:X O *D sky130_fd_sc_hd__buf_6
*CAP
1 *2151:A1 2.23854e-05
2 *2147:B 0.000217938
3 *2163:S 0
4 *2183:S 0
5 *2159:S 0
6 *2446:X 0
7 *510:59 0.000669711
8 *510:37 0.00208399
9 *510:25 0.00252048
10 *510:14 0.00102499
11 *510:4 0.0010179
12 *2147:B *534:24 5.52238e-05
13 *2147:B *536:8 0
14 *2147:B *539:103 0.000139913
15 *510:37 *2165:A 2.65105e-05
16 *510:37 *516:14 3.0285e-05
17 *510:37 *539:144 4.05247e-05
18 *510:59 *539:103 0.0002083
19 *2129:A2 *2147:B 0.000170661
20 *2129:B1 *2147:B 0.000197984
21 *2140:A *2147:B 3.2534e-05
22 *2140:C *510:14 0
23 *2140:D *510:14 0.000135028
24 *2140:D *510:59 0.000224341
25 *2142:C_N *510:59 9.83442e-05
26 *2142:D_N *2147:B 4.50408e-05
27 *2142:D_N *510:59 3.86431e-05
28 *2145:B1 *510:59 2.93304e-05
29 *2150:A1 *510:59 5.19554e-05
30 *2150:A2 *510:14 0.000218019
31 *2151:A2 *510:59 1.68785e-05
32 *2151:A3 *510:59 4.43256e-05
33 *2151:B1 *2147:B 0.000118896
34 *2162:A *510:25 3.34295e-05
35 *2162:A *510:37 5.59013e-05
36 *2163:A0 *510:37 9.41642e-05
37 *2165:B *510:37 5.23057e-05
38 *2180:A_N *510:37 8.25843e-06
39 *2183:A1 *510:37 5.80706e-06
40 *2189:B1 *510:37 0.000285329
41 *2190:B2 *510:37 2.23758e-05
42 *2195:B1 *510:37 0.00022459
43 *2195:D1 *510:37 2.32625e-05
44 *135:14 *510:14 0.000300275
45 *136:14 *510:25 8.99641e-05
46 *147:8 *510:37 0.000252788
47 *167:17 *510:37 6.94775e-05
48 *273:10 *510:37 0
49 *497:12 *510:14 0
50 *497:29 *510:14 0.000139913
51 *497:29 *510:25 0.000781634
*RES
1 *2446:X *510:4 9.3 
2 *510:4 *510:14 21.8571 
3 *510:14 *2159:S 9.3 
4 *510:14 *510:25 14.875 
5 *510:25 *510:37 40.9464 
6 *510:37 *2183:S 9.3 
7 *510:25 *2163:S 13.8 
8 *510:4 *510:59 17.8571 
9 *510:59 *2147:B 24.5679 
10 *510:59 *2151:A1 9.72857 
*END

*D_NET *511 0.00877336
*CONN
*I *2222:C I *D sky130_fd_sc_hd__and4bb_2
*I *2212:A I *D sky130_fd_sc_hd__nor3_1
*I *2208:A I *D sky130_fd_sc_hd__or4b_4
*I *2207:B I *D sky130_fd_sc_hd__or4b_4
*I *1977:A I *D sky130_fd_sc_hd__inv_2
*I *1986:C I *D sky130_fd_sc_hd__and3b_2
*I *2206:B I *D sky130_fd_sc_hd__or3b_4
*I *2215:C I *D sky130_fd_sc_hd__and4bb_2
*I *2496:X O *D sky130_fd_sc_hd__clkbuf_2
*CAP
1 *2222:C 0
2 *2212:A 5.35521e-05
3 *2208:A 0
4 *2207:B 8.59554e-05
5 *1977:A 9.72081e-05
6 *1986:C 0.000231007
7 *2206:B 1.99857e-05
8 *2215:C 0.00024773
9 *2496:X 0.000360103
10 *511:75 0.000523172
11 *511:65 0.000465835
12 *511:46 0.000737049
13 *511:31 0.000491456
14 *511:29 0.000229667
15 *511:25 0.000129629
16 *511:10 0.000652602
17 *1977:A *2213:C 6.05161e-06
18 *1986:C *1986:A_N 0.000190666
19 *1986:C *523:76 0
20 *2207:B *2207:C 0.000175519
21 *2207:B *530:46 4.46186e-06
22 *2212:A *2206:C_N 1.39726e-05
23 *2215:C *2222:B_N 0.000227539
24 *511:46 *2460:A 9.90367e-05
25 *511:65 *530:6 8.46829e-05
26 *511:65 *530:12 0.000323614
27 *511:65 *530:14 2.19064e-05
28 *511:65 *530:16 5.71472e-05
29 *511:75 *530:16 0.000192994
30 *511:75 *530:46 4.02462e-05
31 *1985:A *2207:B 3.17148e-05
32 *2205:B *511:10 0
33 *2212:C *2206:B 1.04232e-05
34 *2212:C *2212:A 4.38128e-05
35 *2212:C *511:31 0.000230482
36 *2213:B *511:75 0
37 *2213:D *2207:B 0.000177941
38 *2215:D *2215:C 6.05161e-06
39 *2217:A3 *511:65 0.000347444
40 *2217:A3 *511:75 9.60939e-05
41 *2217:B1 *1986:C 0.000399841
42 *2220:A *2212:A 8.46829e-05
43 *2222:A_N *511:10 0.000173328
44 *2222:D *2215:C 9.71197e-05
45 *2226:B2 *2212:A 2.59355e-05
46 *2496:A *511:10 2.27416e-05
47 *2506:A *2207:B 0
48 *2506:A *511:75 0
49 *188:10 *1986:C 0.000104236
50 *188:10 *511:46 4.89264e-05
51 *189:12 *2215:C 9.87983e-06
52 *189:12 *511:29 0
53 *189:18 *2206:B 0
54 *189:18 *511:31 2.28499e-05
55 *189:18 *511:46 0.000173199
56 *190:6 *2212:A 9.71197e-05
57 *190:6 *511:31 9.90367e-05
58 *190:10 *511:29 1.52978e-05
59 *197:66 *1986:C 3.65069e-05
60 *197:66 *511:75 2.8266e-06
61 *197:102 *1986:C 2.97829e-05
62 *205:16 *511:10 0
63 *205:16 *511:25 0
64 *205:16 *511:29 0
65 *230:6 *1977:A 0.000123673
66 *230:6 *511:75 5.52302e-05
67 *230:17 *511:75 0.000167436
68 *315:8 *2207:B 1.40849e-05
69 *489:6 *511:10 9.90431e-05
70 *489:35 *2215:C 5.52302e-05
71 *500:46 *2215:C 9.31893e-05
72 *500:63 *2215:C 1.54142e-05
*RES
1 *2496:X *511:10 20.0232 
2 *511:10 *2215:C 18.8446 
3 *511:10 *511:25 0.580357 
4 *511:25 *511:29 5.83929 
5 *511:29 *511:31 2.58929 
6 *511:31 *2206:B 9.72857 
7 *511:31 *511:46 10.5 
8 *511:46 *1986:C 20.6259 
9 *511:46 *511:65 9.69643 
10 *511:65 *511:75 10.625 
11 *511:75 *1977:A 15.9786 
12 *511:75 *2207:B 16.6571 
13 *511:65 *2208:A 9.3 
14 *511:29 *2212:A 11.0679 
15 *511:25 *2222:C 13.8 
*END

*D_NET *512 0.0146895
*CONN
*I *2113:S I *D sky130_fd_sc_hd__mux2_1
*I *2258:A2 I *D sky130_fd_sc_hd__a211o_1
*I *2152:B I *D sky130_fd_sc_hd__or3_1
*I *2119:S I *D sky130_fd_sc_hd__mux2_4
*I *2137:S I *D sky130_fd_sc_hd__mux2_4
*I *2503:X O *D sky130_fd_sc_hd__buf_6
*CAP
1 *2113:S 9.44924e-05
2 *2258:A2 0.000435096
3 *2152:B 0.00151359
4 *2119:S 4.56164e-05
5 *2137:S 0.000334322
6 *2503:X 2.23854e-05
7 *512:40 0.00228719
8 *512:25 0.000587538
9 *512:21 0.00120258
10 *512:6 0.00126138
11 *2113:S *1987:B 0.00034756
12 *2119:S *524:68 6.05161e-06
13 *2137:S *543:14 9.80029e-05
14 *2152:B *2152:C 2.16719e-05
15 *2258:A2 *2185:A 5.71472e-05
16 *2258:A2 *516:20 5.41794e-05
17 *2258:A2 *516:28 1.81805e-05
18 *2258:A2 *524:85 0.000455526
19 *2258:A2 *549:48 7.57713e-05
20 *512:21 *1987:B 0.000446603
21 *512:25 *2076:B 8.94011e-05
22 *512:25 *516:28 0.000222021
23 *512:25 *516:39 0
24 *512:25 *524:85 2.58997e-05
25 *512:40 *516:28 0.000802402
26 *512:40 *524:85 0.000466055
27 *2112:B *512:25 0
28 *2113:A0 *2113:S 2.44318e-05
29 *2113:A1 *2113:S 0.000186669
30 *2113:A1 *512:25 1.19402e-05
31 *2137:A0 *2137:S 1.00375e-05
32 *2137:A1 *2137:S 5.80706e-06
33 *2138:A *2152:B 9.25014e-06
34 *2162:A *2152:B 1.40849e-05
35 *2173:B *2137:S 0
36 *2174:B *512:21 9.41642e-05
37 *2176:B *512:40 0.000147325
38 *2185:B *2258:A2 0.00013353
39 *2196:D *2258:A2 0.000154762
40 *2503:A *2137:S 0.000146533
41 *97:10 *2113:S 1.15172e-05
42 *97:10 *512:25 4.38511e-05
43 *136:14 *2152:B 5.33005e-05
44 *158:12 *512:21 1.40306e-05
45 *273:29 *2258:A2 0.000227539
46 *326:47 *2258:A2 0.000185643
47 *471:97 *2152:B 6.5185e-05
48 *497:29 *2152:B 8.50152e-05
49 *499:38 *2119:S 5.03772e-05
50 *501:14 *2152:B 0.000145477
51 *501:27 *2152:B 0.000258915
52 *501:48 *2152:B 0.0016394
*RES
1 *2503:X *512:6 9.72857 
2 *512:6 *2137:S 24.7821 
3 *512:6 *512:21 15.3214 
4 *512:21 *512:25 10.0893 
5 *512:25 *2119:S 14.7464 
6 *512:25 *512:40 12.0179 
7 *512:40 *2152:B 45.2286 
8 *512:40 *2258:A2 26.1214 
9 *512:21 *2113:S 13.1393 
*END

*D_NET *513 0.00307684
*CONN
*I *2068:A2 I *D sky130_fd_sc_hd__a21o_1
*I *2097:A1 I *D sky130_fd_sc_hd__a21o_1
*I *2079:A2 I *D sky130_fd_sc_hd__a21oi_1
*I *2089:A1 I *D sky130_fd_sc_hd__a21o_1
*I *2504:X O *D sky130_fd_sc_hd__buf_1
*CAP
1 *2068:A2 0.000215331
2 *2097:A1 0
3 *2079:A2 5.85516e-05
4 *2089:A1 0.000230708
5 *2504:X 0.000156542
6 *513:27 8.11114e-05
7 *513:12 0.000359619
8 *513:10 0.000478224
9 *2068:A2 *2068:A1 8.71377e-05
10 *2068:A2 *561:8 2.59355e-05
11 *2079:A2 *2079:A1 6.42877e-05
12 *513:10 *2083:A1 9.30093e-05
13 *513:10 *561:10 5.83304e-05
14 *513:12 *2079:A1 0.000102545
15 *513:12 *561:10 4.56437e-05
16 *513:27 *2079:A1 1.33343e-05
17 *2061:A1 *2089:A1 6.8646e-06
18 *2078:B *2089:A1 0
19 *2080:A2 *2089:A1 0
20 *2083:A2 *513:10 5.23057e-05
21 *2089:B1 *2089:A1 6.60598e-05
22 *2097:A2 *2079:A2 5.52238e-05
23 *2097:B1 *2079:A2 0.00021007
24 *2097:B1 *513:27 2.78608e-05
25 *2534:A *2068:A2 0.000181803
26 *2534:A *513:12 1.50181e-05
27 *39:14 *2089:A1 9.25014e-06
28 *43:18 *513:10 5.52238e-05
29 *45:8 *2089:A1 2.10446e-05
30 *45:42 *2089:A1 8.49614e-05
31 *45:42 *513:12 3.84291e-05
32 *46:14 *2089:A1 0
33 *46:29 *2089:A1 4.62539e-05
34 *46:29 *513:12 2.8266e-06
35 *64:22 *2068:A2 9.41642e-05
36 *67:12 *513:10 3.91668e-05
*RES
1 *2504:X *513:10 17.5143 
2 *513:10 *513:12 2.55357 
3 *513:12 *2089:A1 17.8 
4 *513:12 *513:27 5.03571 
5 *513:27 *2079:A2 11.925 
6 *513:27 *2097:A1 9.3 
7 *513:10 *2068:A2 18.4607 
*END

*D_NET *514 0.00949993
*CONN
*I *2214:A I *D sky130_fd_sc_hd__or2_1
*I *2314:A1 I *D sky130_fd_sc_hd__a311o_1
*I *2441:A1 I *D sky130_fd_sc_hd__a311o_1
*I *2403:A1 I *D sky130_fd_sc_hd__a31o_1
*I *2345:B1 I *D sky130_fd_sc_hd__o21a_1
*I *2257:B2 I *D sky130_fd_sc_hd__a221o_1
*I *2505:X O *D sky130_fd_sc_hd__clkbuf_2
*CAP
1 *2214:A 0
2 *2314:A1 0
3 *2441:A1 2.04426e-05
4 *2403:A1 0.000262418
5 *2345:B1 3.0399e-05
6 *2257:B2 9.90845e-05
7 *2505:X 0.00018605
8 *514:58 0.000996151
9 *514:43 0.000860264
10 *514:35 0.000482089
11 *514:14 0.000715894
12 *514:10 0.000437345
13 *2257:B2 *529:47 0.00018077
14 *2403:A1 *545:138 0.000196262
15 *514:10 *2219:A 0.000349226
16 *514:10 *2226:A1 7.38368e-05
17 *514:14 *2219:A 8.6229e-06
18 *514:14 *525:120 0.000575189
19 *514:14 *526:47 0.000103974
20 *514:35 *2286:A1 0.000111123
21 *514:35 *519:68 0
22 *514:35 *529:47 0.000467208
23 *514:35 *541:35 5.30346e-05
24 *514:35 *544:29 0.000217851
25 *514:43 *544:29 7.72826e-05
26 *2221:B1 *514:10 1.99099e-05
27 *2221:B1 *514:14 0.000140089
28 *2257:B1 *2257:B2 5.45794e-05
29 *2257:B1 *514:35 9.58478e-05
30 *2257:C1 *2257:B2 6.61814e-05
31 *2311:B1 *514:58 0
32 *2314:A2 *514:35 0.00015234
33 *2314:A2 *514:43 1.02504e-05
34 *2314:B1 *2345:B1 6.05161e-06
35 *2314:B1 *514:43 4.86282e-05
36 *2314:C1 *514:35 4.8476e-05
37 *2340:A *2441:A1 5.33005e-05
38 *2343:A *514:58 9.7049e-06
39 *2345:A1 *514:58 5.52238e-05
40 *2345:A2 *514:58 2.75524e-05
41 *2358:B1 *2345:B1 6.05161e-06
42 *2358:B1 *514:43 9.8958e-05
43 *2358:B1 *514:58 9.22103e-06
44 *2395:B *2441:A1 2.59355e-05
45 *2396:B *514:58 0
46 *2397:A *2403:A1 0.000314577
47 *2397:A *514:58 0.000100831
48 *2403:A3 *2403:A1 2.84494e-05
49 *2435:A *2403:A1 0.000137983
50 *2441:B1 *2403:A1 3.51442e-05
51 *2441:B1 *514:58 0.000302493
52 *190:16 *514:14 0
53 *190:20 *2257:B2 5.41794e-05
54 *190:20 *514:14 3.75052e-05
55 *196:14 *514:10 5.52302e-05
56 *199:18 *514:10 3.84291e-05
57 *199:31 *514:10 0
58 *199:50 *514:35 0
59 *205:22 *2257:B2 0
60 *297:14 *514:58 2.44318e-05
61 *297:20 *514:58 0.000470056
62 *332:6 *514:58 2.60984e-05
63 *332:8 *514:58 1.74352e-05
64 *334:12 *514:58 0.00041054
65 *388:10 *2403:A1 1.37292e-05
*RES
1 *2505:X *514:10 19.0143 
2 *514:10 *514:14 11.9107 
3 *514:14 *2257:B2 20.9295 
4 *514:14 *514:35 16.25 
5 *514:35 *514:43 7.41071 
6 *514:43 *2345:B1 9.83571 
7 *514:43 *514:58 20.5179 
8 *514:58 *2403:A1 28.6571 
9 *514:58 *2441:A1 14.3357 
10 *514:35 *2314:A1 13.8 
11 *514:10 *2214:A 13.8 
*END

*D_NET *515 0.00121875
*CONN
*I *2439:B1 I *D sky130_fd_sc_hd__a32o_1
*I *2538:X O *D sky130_fd_sc_hd__clkbuf_1
*CAP
1 *2439:B1 0.000223515
2 *2538:X 0.000223515
3 *2439:B1 *532:10 1.17968e-05
4 *2439:B1 *532:12 8.79873e-05
5 *2439:B1 *551:29 0.000280192
6 *2402:A1 *2439:B1 0.000358489
7 *492:18 *2439:B1 3.32595e-05
*RES
1 *2538:X *2439:B1 34.7339 
*END

*D_NET *516 0.0234926
*CONN
*I *2186:A2 I *D sky130_fd_sc_hd__o211a_1
*I *2185:A I *D sky130_fd_sc_hd__nor2_1
*I *2187:A1 I *D sky130_fd_sc_hd__a21o_1
*I *2071:A I *D sky130_fd_sc_hd__and2_1
*I *2000:B I *D sky130_fd_sc_hd__and3_1
*I *2001:B I *D sky130_fd_sc_hd__nand3_1
*I *2002:B1 I *D sky130_fd_sc_hd__a21o_1
*I *2050:C1 I *D sky130_fd_sc_hd__o211a_1
*I *2038:A I *D sky130_fd_sc_hd__xnor2_1
*I *2121:A I *D sky130_fd_sc_hd__and2_1
*I *2447:X O *D sky130_fd_sc_hd__buf_2
*CAP
1 *2186:A2 0.000110363
2 *2185:A 0.0001958
3 *2187:A1 1.42885e-05
4 *2071:A 0
5 *2000:B 0.000418818
6 *2001:B 0.000361284
7 *2002:B1 0
8 *2050:C1 0
9 *2038:A 0.00109353
10 *2121:A 0.000115044
11 *2447:X 0
12 *516:99 0.00121828
13 *516:57 0.0014191
14 *516:51 0.00143533
15 *516:49 0.00151447
16 *516:39 0.00124554
17 *516:28 0.00101368
18 *516:20 0.000574592
19 *516:14 0.000660809
20 *516:4 0.000511046
21 *2001:B *2001:A 0.000129548
22 *2001:B *2007:A 0.000404167
23 *2001:B *2014:A1 1.74352e-05
24 *2001:B *2414:B2 0
25 *2001:B *2531:A 5.33005e-05
26 *2038:A *2004:B 9.25014e-06
27 *2038:A *2042:S 4.70078e-05
28 *2038:A *2050:A1 5.33005e-05
29 *2038:A *518:91 0.000191163
30 *2038:A *518:108 4.56437e-05
31 *2038:A *560:8 5.33005e-05
32 *2121:A *546:33 0.000106455
33 *2185:A *524:85 0.000352947
34 *2185:A *526:81 7.2252e-05
35 *516:20 *549:48 2.58997e-05
36 *516:28 *546:33 5.06983e-05
37 *516:28 *549:37 9.30878e-05
38 *516:28 *549:48 0.000930255
39 *516:39 *1987:B 0
40 *516:49 *1978:A 1.01912e-05
41 *516:49 *1981:A 0.000200849
42 *516:49 *1987:B 0
43 *516:49 *2053:B 0.000198994
44 *516:49 *517:58 0
45 *516:49 *534:77 0.00101194
46 *516:49 *542:92 8.22793e-06
47 *516:49 *542:127 0
48 *516:49 *543:81 0.0010323
49 *516:51 *2004:A 0
50 *516:51 *542:127 0
51 *516:57 *2004:A 0
52 *516:57 *2525:A 5.7234e-05
53 *516:57 *560:8 0.000269428
54 *516:99 *2000:A 5.38273e-05
55 *516:99 *2007:A 5.7616e-05
56 *516:99 *2049:A2 5.52302e-05
57 *516:99 *542:115 0.000186669
58 *516:99 *547:110 4.56587e-05
59 *516:99 *552:43 0.000146474
60 *516:99 *552:53 7.90803e-05
61 *2000:C *2000:B 5.30637e-06
62 *2008:A *2000:B 4.87953e-05
63 *2008:C *2000:B 4.72487e-05
64 *2011:A1 *2001:B 2.61337e-05
65 *2013:A2 *2001:B 0.000116033
66 *2014:B1 *2001:B 0.000106953
67 *2031:B1_N *516:99 0.000113073
68 *2041:A1 *2038:A 0
69 *2042:A0 *2038:A 0.000122091
70 *2047:A2 *516:99 8.66063e-05
71 *2047:C1 *516:99 0.000628305
72 *2050:B1 *2038:A 1.02504e-05
73 *2051:B1 *2038:A 0.000121334
74 *2054:B *516:49 1.5942e-05
75 *2054:B *516:51 1.41706e-05
76 *2113:A1 *516:39 0
77 *2121:B *516:39 0
78 *2185:B *2185:A 5.71472e-05
79 *2187:B1 *2187:A1 5.33005e-05
80 *2187:B1 *516:14 0.0004293
81 *2187:B1 *516:20 0.000136958
82 *2194:A *516:14 8.86413e-05
83 *2195:B1 *516:14 5.52302e-05
84 *2195:C1 *2185:A 0.000127446
85 *2258:A2 *2185:A 5.71472e-05
86 *2258:A2 *516:20 5.41794e-05
87 *2258:A2 *516:28 1.81805e-05
88 *31:10 *516:99 6.7032e-05
89 *219:23 *2186:A2 1.02504e-05
90 *219:36 *2186:A2 0.000135502
91 *219:36 *516:14 7.03295e-05
92 *241:12 *516:51 5.26184e-05
93 *294:12 *516:57 0
94 *294:18 *516:57 9.74783e-05
95 *326:59 *516:14 3.0285e-05
96 *443:6 *2001:B 0.000517566
97 *473:6 *516:99 0.000137983
98 *477:16 *516:99 0.00013152
99 *483:12 *2038:A 0
100 *484:12 *2038:A 6.70624e-05
101 *497:35 *516:14 0.000438794
102 *497:35 *516:20 0.000135028
103 *501:48 *2187:A1 5.52238e-05
104 *510:37 *516:14 3.0285e-05
105 *512:25 *516:28 0.000222021
106 *512:25 *516:39 0
107 *512:40 *516:28 0.000802402
*RES
1 *2447:X *516:4 9.3 
2 *516:4 *516:14 17.9821 
3 *516:14 *516:20 6.58929 
4 *516:20 *516:28 21.0893 
5 *516:28 *2121:A 11.8893 
6 *516:28 *516:39 11.6071 
7 *516:39 *516:49 19.0239 
8 *516:49 *516:51 4.67857 
9 *516:51 *516:57 11.7679 
10 *516:57 *2038:A 45.0857 
11 *516:57 *2050:C1 9.3 
12 *516:51 *516:99 27.7321 
13 *516:99 *2002:B1 13.8 
14 *516:99 *2001:B 24.9786 
15 *516:49 *2000:B 20.1036 
16 *516:39 *2071:A 13.8 
17 *516:20 *2187:A1 14.3357 
18 *516:14 *2185:A 23.7464 
19 *516:4 *2186:A2 20.2464 
*END

*D_NET *517 0.0153891
*CONN
*I *1990:A1 I *D sky130_fd_sc_hd__o41ai_4
*I *1999:C1 I *D sky130_fd_sc_hd__a211o_1
*I *2007:A I *D sky130_fd_sc_hd__or2_1
*I *2075:A I *D sky130_fd_sc_hd__nor2_1
*I *2054:A I *D sky130_fd_sc_hd__nor2_1
*I *2004:A I *D sky130_fd_sc_hd__nor2_1
*I *2181:A I *D sky130_fd_sc_hd__nand2_1
*I *2123:A I *D sky130_fd_sc_hd__or2_2
*I *2117:A I *D sky130_fd_sc_hd__nand2_1
*I *2076:A I *D sky130_fd_sc_hd__or2_1
*I *2448:X O *D sky130_fd_sc_hd__clkbuf_4
*CAP
1 *1990:A1 0.000134111
2 *1999:C1 0
3 *2007:A 0.000524338
4 *2075:A 0
5 *2054:A 0.000134919
6 *2004:A 0.000708137
7 *2181:A 0.000287118
8 *2123:A 8.98635e-05
9 *2117:A 1.40355e-05
10 *2076:A 0.000146645
11 *2448:X 0.000196017
12 *517:97 0.000648821
13 *517:95 0.00161266
14 *517:84 0.00146814
15 *517:58 0.00123529
16 *517:34 0.000499467
17 *517:23 0.000308624
18 *517:12 0.000658711
19 *517:8 0.000732193
20 *517:6 0.00031009
21 *1990:A1 *1996:A1 9.25014e-06
22 *1990:A1 *2032:A2 5.62613e-05
23 *2004:A *2004:B 7.83366e-05
24 *2004:A *2055:A 0
25 *2004:A *2525:A 0.000171368
26 *2004:A *518:91 0.000106542
27 *2004:A *518:108 0.000214911
28 *2007:A *2531:A 0.00012501
29 *2007:A *520:108 5.58875e-06
30 *2007:A *547:110 0.000417629
31 *2007:A *552:32 2.77258e-05
32 *2076:A *546:33 7.53208e-05
33 *2181:A *1981:A 0
34 *2181:A *2123:B 0
35 *517:12 *524:43 4.10883e-05
36 *517:12 *524:62 0.00013896
37 *517:23 *524:62 6.50295e-05
38 *517:34 *1981:A 0
39 *517:58 *1981:A 2.37957e-05
40 *517:58 *2053:B 0.000107353
41 *517:58 *2055:A 0
42 *517:58 *524:43 9.61525e-05
43 *517:58 *547:59 8.23597e-06
44 *517:58 *550:97 0
45 *517:84 *2075:B 1.00733e-05
46 *517:95 *2032:A1 5.33005e-05
47 *517:95 *2032:A2 0.000307343
48 *517:95 *2075:B 2.44638e-05
49 *517:95 *542:127 2.15245e-05
50 *517:95 *543:94 0.000310041
51 *517:97 *2032:A2 1.52978e-05
52 *517:97 *520:108 9.13713e-05
53 *1995:B1_N *2007:A 8.51772e-05
54 *1996:A2 *1990:A1 5.33005e-05
55 *1999:A1 *517:95 4.58976e-05
56 *1999:A1 *517:97 7.79781e-06
57 *2001:B *2007:A 0.000404167
58 *2013:A2 *2007:A 0
59 *2032:B1 *517:95 2.58706e-05
60 *2051:A2 *2004:A 1.59782e-05
61 *2054:B *2004:A 0.000217478
62 *2054:B *2054:A 0.00014285
63 *2054:B *517:58 3.17148e-05
64 *2067:B *517:58 3.0285e-05
65 *2070:A *517:12 9.86094e-06
66 *2071:B *517:6 9.60875e-05
67 *2072:A2 *517:58 0
68 *2074:A *517:12 0.000123295
69 *2074:B *517:12 0.000144696
70 *2077:A2 *517:6 8.25897e-05
71 *2077:A2 *517:84 5.52238e-05
72 *2112:B *517:12 0
73 *2113:A0 *517:12 7.85886e-05
74 *2118:A *517:12 0
75 *2118:A *517:23 0
76 *2118:B *2117:A 5.52302e-05
77 *2172:C1 *2123:A 0.000274288
78 *2182:A *2181:A 5.66372e-05
79 *2417:B *2004:A 7.17603e-05
80 *2448:A *517:12 1.03403e-05
81 *51:12 *517:58 0
82 *53:12 *517:12 6.4974e-06
83 *97:10 *2181:A 0
84 *97:10 *517:34 0
85 *241:12 *2004:A 0.000150625
86 *294:12 *2004:A 0
87 *337:12 *517:97 0
88 *369:6 *1990:A1 4.18895e-05
89 *369:8 *1990:A1 8.36572e-05
90 *369:21 *1990:A1 0.000126439
91 *369:21 *517:97 7.90803e-05
92 *369:27 *2007:A 1.38247e-05
93 *369:27 *517:97 9.12306e-05
94 *444:27 *2007:A 0.000150257
95 *449:8 *2007:A 9.71197e-05
96 *471:16 *2054:A 2.32625e-05
97 *474:10 *517:95 8.46507e-06
98 *499:38 *2117:A 2.89114e-05
99 *516:49 *517:58 0
100 *516:51 *2004:A 0
101 *516:57 *2004:A 0
102 *516:99 *2007:A 5.7616e-05
*RES
1 *2448:X *517:6 11.8893 
2 *517:6 *517:8 4.5 
3 *517:8 *517:12 8.25 
4 *517:12 *2076:A 16.3893 
5 *517:12 *517:23 3.16071 
6 *517:23 *2117:A 14.3357 
7 *517:23 *517:34 1.94643 
8 *517:34 *2123:A 16.3893 
9 *517:34 *2181:A 18.8536 
10 *517:8 *517:58 7.10714 
11 *517:58 *2004:A 30.3179 
12 *517:58 *2054:A 16.4071 
13 *517:6 *517:84 2.10714 
14 *517:84 *2075:A 9.3 
15 *517:84 *517:95 21.7857 
16 *517:95 *517:97 3.46429 
17 *517:97 *2007:A 26.4429 
18 *517:97 *1999:C1 13.8 
19 *517:95 *1990:A1 17.2107 
*END

*D_NET *518 0.0149201
*CONN
*I *2298:A I *D sky130_fd_sc_hd__and3_1
*I *2044:B I *D sky130_fd_sc_hd__nand2_1
*I *1979:A I *D sky130_fd_sc_hd__inv_2
*I *2049:A1 I *D sky130_fd_sc_hd__o21ai_1
*I *2050:A1 I *D sky130_fd_sc_hd__o211a_1
*I *2004:B I *D sky130_fd_sc_hd__nor2_1
*I *2003:B I *D sky130_fd_sc_hd__or2_1
*I *2377:A I *D sky130_fd_sc_hd__nand2_1
*I *2325:A I *D sky130_fd_sc_hd__and3_1
*I *2326:A1 I *D sky130_fd_sc_hd__a21oi_1
*I *2449:X O *D sky130_fd_sc_hd__buf_2
*CAP
1 *2298:A 0.00037148
2 *2044:B 0
3 *1979:A 0
4 *2049:A1 3.76187e-05
5 *2050:A1 9.6129e-05
6 *2004:B 0.000188352
7 *2003:B 5.1271e-05
8 *2377:A 4.66938e-05
9 *2325:A 0
10 *2326:A1 0.000193176
11 *2449:X 0.000261223
12 *518:108 0.000256237
13 *518:91 0.000380834
14 *518:76 0.00158122
15 *518:70 0.00151193
16 *518:57 0.000916374
17 *518:53 0.00151866
18 *518:38 0.000945649
19 *518:12 0.000256292
20 *518:10 0.00075607
21 *2003:B *550:10 5.33005e-05
22 *2003:B *550:12 5.52238e-05
23 *2049:A1 *542:115 0.000136951
24 *2050:A1 *560:8 6.87574e-05
25 *2298:A *2270:A 1.65558e-05
26 *2298:A *520:58 0.000171885
27 *2298:A *545:52 0
28 *2298:A *548:28 0.000270307
29 *2326:A1 *2325:B 2.4958e-05
30 *2326:A1 *548:47 9.90431e-05
31 *2377:A *2377:B 3.40128e-05
32 *2377:A *545:54 1.17968e-05
33 *518:10 *2325:B 4.46186e-06
34 *518:10 *520:27 2.05938e-05
35 *518:12 *2325:B 5.01117e-05
36 *518:38 *2324:B 0.000277481
37 *518:53 *545:52 0.000268868
38 *518:53 *545:54 3.69697e-05
39 *518:53 *548:32 0
40 *518:57 *2478:A 0.000358977
41 *518:57 *550:10 7.68557e-05
42 *518:57 *551:6 5.52238e-05
43 *518:70 *550:18 0
44 *518:70 *550:73 3.17148e-05
45 *518:76 *2018:A1 0.000150636
46 *518:76 *2424:A 6.5053e-05
47 *518:76 *550:24 0.000440711
48 *518:76 *550:46 8.76257e-05
49 *2004:A *2004:B 7.83366e-05
50 *2004:A *518:91 0.000106542
51 *2004:A *518:108 0.000214911
52 *2027:A2 *518:76 0.000307343
53 *2027:C1 *518:76 7.61932e-05
54 *2038:A *2004:B 9.25014e-06
55 *2038:A *2050:A1 5.33005e-05
56 *2038:A *518:91 0.000191163
57 *2038:A *518:108 4.56437e-05
58 *2042:A0 *2004:B 0
59 *2049:B1 *2049:A1 5.52238e-05
60 *2050:B1 *518:108 8.97396e-05
61 *2051:A2 *518:108 0.000193833
62 *2051:B1 *2004:B 0.000142894
63 *2300:B *2298:A 3.69865e-05
64 *2326:B1 *2326:A1 0.000127684
65 *2380:A1 *2377:A 0
66 *2380:A1 *518:53 0
67 *2382:A *518:38 1.32552e-05
68 *2382:B *2326:A1 0
69 *2382:B *518:12 0
70 *2418:D *2298:A 0
71 *2420:A_N *2298:A 0
72 *2422:A1 *518:38 1.72894e-05
73 *2428:A *2298:A 0
74 *2428:A *518:53 2.44318e-05
75 *2428:A *518:57 0.000126639
76 *2428:B *518:53 0
77 *2432:A *2298:A 0
78 *2432:A *518:53 9.25014e-06
79 *2479:A *518:57 5.38388e-05
80 *31:10 *2049:A1 8.17274e-05
81 *294:18 *2050:A1 9.3111e-05
82 *375:14 *518:38 0.000230475
83 *460:18 *518:76 2.24079e-05
84 *464:25 *2004:B 0
85 *469:8 *518:76 7.95313e-05
86 *486:18 *518:70 0.000126439
87 *490:14 *518:10 7.53317e-05
*RES
1 *2449:X *518:10 17.425 
2 *518:10 *518:12 1.33929 
3 *518:12 *2326:A1 17.8357 
4 *518:12 *2325:A 13.8 
5 *518:10 *518:38 15.2857 
6 *518:38 *2377:A 14.8357 
7 *518:38 *518:53 13.6786 
8 *518:53 *518:57 9.58929 
9 *518:57 *2003:B 10.2464 
10 *518:57 *518:70 12.1607 
11 *518:70 *518:76 28.0536 
12 *518:76 *2004:B 18.2464 
13 *518:76 *518:91 2.55357 
14 *518:91 *2050:A1 16.425 
15 *518:91 *518:108 10.0893 
16 *518:108 *2049:A1 10.6571 
17 *518:108 *1979:A 9.3 
18 *518:70 *2044:B 9.3 
19 *518:53 *2298:A 27.8357 
*END

*D_NET *519 0.0220744
*CONN
*I *2200:B I *D sky130_fd_sc_hd__or4_1
*I *2313:A1 I *D sky130_fd_sc_hd__a32o_1
*I *2291:A I *D sky130_fd_sc_hd__xnor2_1
*I *2346:A1 I *D sky130_fd_sc_hd__a21o_1
*I *2286:A1 I *D sky130_fd_sc_hd__a221o_1
*I *2310:A1 I *D sky130_fd_sc_hd__a21oi_1
*I *2358:A1 I *D sky130_fd_sc_hd__a221o_1
*I *2311:A1 I *D sky130_fd_sc_hd__o22a_1
*I *2416:A1 I *D sky130_fd_sc_hd__a22o_1
*I *2449:A I *D sky130_fd_sc_hd__buf_2
*I *2450:X O *D sky130_fd_sc_hd__clkbuf_4
*CAP
1 *2200:B 0.000106817
2 *2313:A1 0
3 *2291:A 0.000229295
4 *2346:A1 0
5 *2286:A1 0.000392831
6 *2310:A1 4.77923e-05
7 *2358:A1 5.7511e-05
8 *2311:A1 4.72222e-05
9 *2416:A1 0.00145792
10 *2449:A 2.3671e-05
11 *2450:X 0.00011007
12 *519:118 0.000551218
13 *519:104 0.000702059
14 *519:98 0.00137845
15 *519:70 0.000440623
16 *519:68 0.00101839
17 *519:55 0.00023793
18 *519:44 0.00106326
19 *519:23 0.00360682
20 *519:8 0.00132013
21 *2200:B *2200:A 1.24469e-05
22 *2200:B *529:57 0.000101208
23 *2200:B *551:29 0
24 *2200:B *552:12 8.03349e-06
25 *2200:B *554:130 0.000147116
26 *2286:A1 *521:14 0
27 *2286:A1 *544:29 0
28 *2291:A *529:57 0.000266473
29 *2291:A *580:24 8.86947e-05
30 *2310:A1 *2311:A2 9.41642e-05
31 *2416:A1 *2370:A2 7.03811e-05
32 *2416:A1 *2416:A2 3.18676e-05
33 *2416:A1 *520:58 9.82141e-06
34 *2416:A1 *532:16 0.00014576
35 *2416:A1 *551:10 5.76181e-05
36 *519:8 *520:27 0
37 *519:23 *2370:A2 2.24828e-05
38 *519:23 *2373:A2 6.35892e-05
39 *519:23 *520:27 0
40 *519:23 *520:162 0
41 *519:23 *526:12 0.000128154
42 *519:23 *540:53 0.00012487
43 *519:23 *544:16 0
44 *519:23 *544:29 0
45 *519:44 *2294:A 2.09897e-05
46 *519:44 *2311:A2 3.34295e-05
47 *519:44 *2318:B 3.92854e-05
48 *519:44 *523:109 2.26327e-05
49 *519:44 *525:43 0.000118339
50 *519:44 *525:63 0.000221371
51 *519:44 *525:74 0.00033956
52 *519:44 *525:89 6.19181e-05
53 *519:44 *525:120 0.000310075
54 *519:44 *540:49 0.000199171
55 *519:44 *540:53 6.76178e-05
56 *519:44 *540:130 0.000110545
57 *519:44 *549:107 0
58 *519:55 *2311:A2 0.000113196
59 *519:68 *2311:A2 0.00022937
60 *519:68 *2312:A 1.89507e-06
61 *519:68 *525:120 9.15621e-06
62 *519:98 *2255:A2 0.00084912
63 *519:98 *2312:A 0.000152206
64 *519:98 *525:120 4.22135e-06
65 *519:98 *555:43 4.8817e-05
66 *519:104 *2255:A2 0.000198012
67 *519:104 *2256:A2 8.60225e-05
68 *519:118 *526:67 0
69 *519:118 *529:57 0.000233172
70 *519:118 *580:24 0.000744452
71 *2202:A *2200:B 4.1331e-06
72 *2258:C1 *2291:A 0
73 *2285:B1 *519:118 3.32846e-05
74 *2310:B1 *2310:A1 9.60939e-05
75 *2311:B1 *2311:A1 9.41642e-05
76 *2311:B2 *519:44 9.25014e-06
77 *2311:B2 *519:55 0.000122446
78 *2311:B2 *519:68 0.000194691
79 *2313:A3 *519:104 0
80 *2313:A3 *519:118 0.000101863
81 *2314:B1 *519:44 0
82 *2314:C1 *2286:A1 2.51343e-06
83 *2315:C1 *519:98 7.22374e-05
84 *2315:C1 *519:104 0.000116915
85 *2320:A1 *519:23 6.05161e-06
86 *2320:B1 *519:23 1.55885e-05
87 *2328:A *519:8 8.06331e-05
88 *2330:A *519:23 0
89 *2331:B *519:23 6.07328e-05
90 *2357:A1 *519:98 0.000244894
91 *2357:A1 *519:104 0.000106485
92 *2357:A3 *519:104 2.06112e-05
93 *2357:A3 *519:118 9.10431e-06
94 *2358:A2 *2358:A1 3.99614e-06
95 *2358:C1 *2358:A1 2.59355e-05
96 *2424:B *2416:A1 0
97 *38:37 *2416:A1 0.000403241
98 *191:60 *2291:A 0
99 *199:50 *2286:A1 0.000504613
100 *199:54 *2286:A1 8.53409e-05
101 *199:54 *2310:A1 1.98839e-05
102 *205:51 *519:98 0.00048628
103 *205:67 *519:118 0
104 *273:29 *2291:A 0
105 *311:12 *519:23 0.000175505
106 *316:10 *519:8 0
107 *316:10 *519:23 0
108 *317:34 *519:23 0
109 *320:12 *519:23 0
110 *326:59 *2291:A 0
111 *375:14 *519:8 9.25014e-06
112 *409:8 *2416:A1 7.5779e-05
113 *490:14 *2449:A 5.52302e-05
114 *490:49 *519:98 0.00034724
115 *514:35 *2286:A1 0.000111123
116 *514:35 *519:68 0
*RES
1 *2450:X *519:8 16.05 
2 *519:8 *2449:A 14.3357 
3 *519:8 *519:23 25.7321 
4 *519:23 *2416:A1 37.9429 
5 *519:23 *519:44 29.8214 
6 *519:44 *2311:A1 14.7464 
7 *519:44 *519:55 1.64286 
8 *519:55 *2358:A1 14.7643 
9 *519:55 *519:68 3.46429 
10 *519:68 *519:70 4.5 
11 *519:70 *2310:A1 10.6571 
12 *519:70 *2286:A1 27.8179 
13 *519:68 *519:98 6.90472 
14 *519:98 *519:104 4.74272 
15 *519:104 *519:118 14.375 
16 *519:118 *2346:A1 9.3 
17 *519:118 *2291:A 23.2643 
18 *519:104 *2313:A1 13.8 
19 *519:98 *2200:B 20.2189 
*END

*D_NET *520 0.0255007
*CONN
*I *2373:A1 I *D sky130_fd_sc_hd__a22oi_1
*I *2374:A I *D sky130_fd_sc_hd__and4_1
*I *2416:B2 I *D sky130_fd_sc_hd__a22o_1
*I *2262:A I *D sky130_fd_sc_hd__or2_1
*I *2201:C I *D sky130_fd_sc_hd__or4_1
*I *2256:B2 I *D sky130_fd_sc_hd__a32o_1
*I *2053:B I *D sky130_fd_sc_hd__nor2_1
*I *1978:A I *D sky130_fd_sc_hd__inv_2
*I *2270:A I *D sky130_fd_sc_hd__nand2_1
*I *2324:A I *D sky130_fd_sc_hd__nand2_1
*I *2451:X O *D sky130_fd_sc_hd__clkbuf_4
*CAP
1 *2373:A1 5.06323e-05
2 *2374:A 0.000143754
3 *2416:B2 0
4 *2262:A 0.000865938
5 *2201:C 0
6 *2256:B2 2.17614e-05
7 *2053:B 0.000207625
8 *1978:A 6.56433e-06
9 *2270:A 5.08382e-05
10 *2324:A 0.000106358
11 *2451:X 0.000406999
12 *520:162 0.000418157
13 *520:135 0.00132263
14 *520:108 0.00192188
15 *520:72 0.00162233
16 *520:68 0.00318846
17 *520:58 0.00116731
18 *520:35 0.00144067
19 *520:27 0.00135942
20 *520:12 0.00108959
21 *2053:B *550:97 0.000122091
22 *2256:B2 *2256:A1 9.71197e-05
23 *2262:A *2256:A1 2.31791e-05
24 *2262:A *2260:A3 0
25 *2262:A *529:57 1.99099e-05
26 *2262:A *551:29 0
27 *2270:A *548:28 5.52238e-05
28 *2324:A *2325:B 7.83659e-05
29 *2374:A *2373:B2 0.00022266
30 *2374:A *523:133 9.41642e-05
31 *520:12 *566:16 0.00018077
32 *520:12 *577:14 1.02936e-05
33 *520:35 *548:28 0.000225616
34 *520:58 *2416:A2 8.19334e-05
35 *520:68 *552:32 1.94945e-05
36 *520:72 *2008:B 0.000802566
37 *520:108 *1995:A1 9.55832e-05
38 *520:108 *1998:B1 0.000236512
39 *520:108 *2260:A3 2.72602e-05
40 *520:108 *2357:A2 7.95909e-05
41 *520:108 *2473:A 0.000113434
42 *520:108 *537:18 0.000754879
43 *520:108 *546:52 0.000319293
44 *520:108 *547:110 0.000230837
45 *520:108 *552:12 1.55339e-05
46 *520:108 *552:22 0.000533911
47 *520:108 *552:24 5.62625e-05
48 *520:108 *552:32 5.00632e-05
49 *520:108 *580:14 9.91086e-05
50 *520:135 *2255:A2 0.000117072
51 *520:135 *2256:A1 0.000240301
52 *520:135 *2256:A2 0.00011673
53 *520:135 *2313:B2 7.71002e-05
54 *520:135 *529:57 2.39876e-05
55 *520:135 *552:10 7.6644e-05
56 *520:162 *2373:A2 4.46186e-06
57 *520:162 *2429:A2 1.21955e-05
58 *2007:A *520:108 5.58875e-06
59 *2014:B2 *520:108 0.000145753
60 *2054:B *1978:A 2.26973e-05
61 *2054:B *2053:B 0.000155244
62 *2202:B *2262:A 0
63 *2218:A *2262:A 0.000255571
64 *2218:B *2262:A 4.72818e-05
65 *2256:B1 *2256:B2 9.71197e-05
66 *2256:B1 *520:108 0.000120091
67 *2298:A *2270:A 1.65558e-05
68 *2298:A *520:58 0.000171885
69 *2299:A1 *520:58 0
70 *2299:A2 *520:58 0.000125724
71 *2325:C *2324:A 3.04742e-05
72 *2327:B1 *520:12 0.000181796
73 *2357:A1 *520:108 1.08359e-05
74 *2373:B1 *2373:A1 2.28598e-05
75 *2373:B1 *2374:A 1.98839e-05
76 *2375:A *2374:A 1.21258e-05
77 *2404:B1 *520:108 0.000177227
78 *2416:A1 *520:58 9.82141e-06
79 *2418:C *520:58 0.000169359
80 *2419:B1 *520:58 9.60939e-05
81 *2420:A_N *520:58 7.46367e-05
82 *2421:B *520:58 0
83 *2424:B *520:58 0
84 *2428:A *2270:A 3.07555e-05
85 *2428:A *520:58 7.33494e-06
86 *2432:A *520:35 0.000270212
87 *2443:A *520:108 3.37e-05
88 *2506:A *2262:A 1.19309e-05
89 *2511:A *520:135 9.11899e-05
90 *2535:A *520:108 0.000170661
91 *43:8 *2053:B 7.77652e-05
92 *50:33 *520:72 0
93 *181:16 *2262:A 0.00070948
94 *183:24 *520:108 1.21859e-05
95 *192:32 *2262:A 9.22103e-06
96 *312:6 *2324:A 0.00018077
97 *312:6 *520:12 9.50797e-05
98 *326:22 *2262:A 0.000101545
99 *366:8 *2374:A 7.48091e-05
100 *367:12 *520:162 0.000166503
101 *369:21 *520:108 0.000149102
102 *375:14 *2324:A 1.65558e-05
103 *375:14 *520:12 0.000140933
104 *448:42 *2324:A 4.87854e-05
105 *490:25 *520:27 0
106 *490:25 *520:35 0
107 *490:25 *520:162 0
108 *516:49 *1978:A 1.01912e-05
109 *516:49 *2053:B 0.000198994
110 *517:58 *2053:B 0.000107353
111 *517:97 *520:108 9.13713e-05
112 *518:10 *520:27 2.05938e-05
113 *519:8 *520:27 0
114 *519:23 *520:27 0
115 *519:23 *520:162 0
*RES
1 *2451:X *520:12 20.6393 
2 *520:12 *2324:A 16.6036 
3 *520:12 *520:27 10.4196 
4 *520:27 *520:35 19.4554 
5 *520:35 *2270:A 15.0679 
6 *520:35 *520:58 19.0893 
7 *520:58 *520:68 11.7886 
8 *520:68 *520:72 6.62793 
9 *520:72 *1978:A 14.0768 
10 *520:72 *2053:B 20.8089 
11 *520:68 *520:108 41.9011 
12 *520:108 *2256:B2 14.7464 
13 *520:108 *520:135 21.5749 
14 *520:135 *2201:C 13.8 
15 *520:135 *2262:A 30.8893 
16 *520:58 *2416:B2 9.3 
17 *520:27 *520:162 8.52679 
18 *520:162 *2374:A 12.7107 
19 *520:162 *2373:A1 10.2464 
*END

*D_NET *521 0.00984635
*CONN
*I *2284:A1 I *D sky130_fd_sc_hd__o22a_1
*I *2283:A1 I *D sky130_fd_sc_hd__a21oi_1
*I *2285:A1 I *D sky130_fd_sc_hd__a32o_1
*I *2263:A I *D sky130_fd_sc_hd__nand2_1
*I *2313:B2 I *D sky130_fd_sc_hd__a32o_1
*I *2452:X O *D sky130_fd_sc_hd__dlymetal6s2s_1
*CAP
1 *2284:A1 1.08934e-05
2 *2283:A1 0
3 *2285:A1 1.44761e-05
4 *2263:A 0.000309669
5 *2313:B2 0.000335708
6 *2452:X 0.000623933
7 *521:47 0.000501266
8 *521:22 0.00200915
9 *521:18 0.00157199
10 *521:14 0.000710497
11 *2263:A *2285:A2 3.18676e-05
12 *2263:A *2470:A 0.000326268
13 *2284:A1 *2283:A2 0
14 *2284:A1 *541:35 3.57366e-05
15 *2285:A1 *2285:A2 0
16 *2313:B2 *2256:A2 2.22043e-05
17 *2313:B2 *524:97 0.000125731
18 *521:14 *541:21 1.21289e-05
19 *521:14 *541:35 0.000188238
20 *521:14 *544:29 0.000240484
21 *521:18 *541:21 2.28598e-05
22 *521:22 *541:12 0.000722921
23 *521:22 *541:21 1.21289e-05
24 *521:47 *2285:A2 6.46643e-05
25 *521:47 *2285:B2 8.98831e-05
26 *521:47 *2470:A 8.27532e-05
27 *521:47 *524:91 0.000116033
28 *521:47 *524:97 0.000189986
29 *521:47 *541:12 0.000149762
30 *2202:B *521:22 5.52302e-05
31 *2285:B1 *2313:B2 0
32 *2285:B1 *521:47 2.39852e-05
33 *2286:A1 *521:14 0
34 *2286:A2 *521:14 7.13226e-06
35 *2286:B1 *521:14 0.00014285
36 *2286:C1 *521:14 4.83343e-05
37 *2287:A2 *2263:A 5.52302e-05
38 *2287:B1 *2263:A 8.62984e-05
39 *2357:A3 *2313:B2 0.000170299
40 *2511:A *2313:B2 0.00015893
41 *2511:A *521:47 4.00121e-05
42 *190:16 *521:18 9.90367e-05
43 *199:46 *521:14 0
44 *199:50 *521:14 0
45 *205:67 *2313:B2 1.38167e-05
46 *247:8 *2263:A 1.33343e-05
47 *326:22 *2263:A 0.000109061
48 *326:26 *2263:A 0.000224472
49 *520:135 *2313:B2 7.71002e-05
*RES
1 *2452:X *521:14 27.7643 
2 *521:14 *521:18 1.78571 
3 *521:18 *521:22 24.3393 
4 *521:22 *2313:B2 21.4964 
5 *521:22 *521:47 10.5 
6 *521:47 *2263:A 17.6929 
7 *521:47 *2285:A1 9.72857 
8 *521:18 *2283:A1 9.3 
9 *521:14 *2284:A1 9.72857 
*END

*D_NET *522 0.0013189
*CONN
*I *2222:B_N I *D sky130_fd_sc_hd__and4bb_2
*I *2460:A I *D sky130_fd_sc_hd__clkbuf_2
*I *2497:X O *D sky130_fd_sc_hd__clkbuf_1
*CAP
1 *2222:B_N 5.77912e-05
2 *2460:A 9.8723e-05
3 *2497:X 9.10918e-05
4 *522:8 0.000247606
5 *2205:B *522:8 5.01213e-05
6 *2215:C *2222:B_N 0.000227539
7 *2215:D *2460:A 1.19402e-05
8 *2215:D *522:8 1.18358e-05
9 *2222:D *2222:B_N 2.44318e-05
10 *188:10 *2460:A 0
11 *189:12 *2460:A 4.03318e-05
12 *189:12 *522:8 2.37761e-05
13 *189:18 *2460:A 6.2198e-05
14 *199:18 *2222:B_N 0.000229456
15 *489:12 *522:8 3.31397e-05
16 *489:35 *522:8 9.87983e-06
17 *511:46 *2460:A 9.90367e-05
*RES
1 *2497:X *522:8 16.05 
2 *522:8 *2460:A 16.3893 
3 *522:8 *2222:B_N 16.3893 
*END

*D_NET *523 0.0171278
*CONN
*I *2323:A1 I *D sky130_fd_sc_hd__a31oi_2
*I *2373:B2 I *D sky130_fd_sc_hd__a22oi_1
*I *2374:B I *D sky130_fd_sc_hd__and4_1
*I *2319:A1 I *D sky130_fd_sc_hd__a22oi_1
*I *2318:B I *D sky130_fd_sc_hd__and4_1
*I *2272:A1 I *D sky130_fd_sc_hd__a21oi_1
*I *2253:A I *D sky130_fd_sc_hd__nand2_1
*I *2226:A1 I *D sky130_fd_sc_hd__a22o_1
*I *2271:A I *D sky130_fd_sc_hd__and3_1
*I *2413:A I *D sky130_fd_sc_hd__nand2_1
*I *2453:X O *D sky130_fd_sc_hd__buf_2
*CAP
1 *2323:A1 0
2 *2373:B2 6.15882e-05
3 *2374:B 0
4 *2319:A1 0.000133585
5 *2318:B 4.69e-05
6 *2272:A1 8.58117e-05
7 *2253:A 0
8 *2226:A1 6.77727e-05
9 *2271:A 3.05831e-05
10 *2413:A 0.000703051
11 *2453:X 0.000115469
12 *523:133 0.000278354
13 *523:109 0.000604171
14 *523:92 0.000624229
15 *523:76 0.00158081
16 *523:58 0.00231053
17 *523:43 0.000946337
18 *523:39 0.000576519
19 *523:31 0.000624439
20 *523:12 0.000882666
21 *2271:A *548:94 1.59145e-05
22 *2271:A *549:12 0
23 *2272:A1 *2272:A2 5.49544e-05
24 *2272:A1 *2317:A 0
25 *2318:B *540:49 3.36969e-05
26 *2318:B *540:51 3.44114e-05
27 *2318:B *540:53 1.02504e-05
28 *2319:A1 *2317:A 0.000303298
29 *2319:A1 *2319:B1 6.87146e-05
30 *2319:A1 *2319:B2 0.000221641
31 *2373:B2 *2374:C 4.08637e-05
32 *2413:A *2413:B 3.76172e-05
33 *2413:A *2429:A2 0
34 *523:12 *2453:A 6.74911e-05
35 *523:31 *2453:A 0.000171375
36 *523:31 *545:50 0.00017309
37 *523:31 *545:52 1.02504e-05
38 *523:39 *545:50 0.000808467
39 *523:39 *548:18 0.000262948
40 *523:39 *548:88 0.00031345
41 *523:43 *2272:A2 5.33005e-05
42 *523:43 *548:94 9.41642e-05
43 *523:58 *535:66 0
44 *523:58 *545:109 0
45 *523:58 *548:94 2.70758e-05
46 *523:58 *548:109 0.000150603
47 *523:58 *549:12 0
48 *523:58 *549:23 0
49 *523:76 *2216:A1 0.000116268
50 *523:76 *2399:A1 3.42168e-05
51 *523:76 *527:54 0.000384875
52 *523:76 *527:60 0
53 *523:92 *2272:A2 0.000252747
54 *523:109 *2317:A 0.000139907
55 *523:109 *525:47 1.00073e-05
56 *523:109 *540:49 5.41794e-05
57 *523:133 *2374:C 5.33005e-05
58 *523:133 *524:8 2.40379e-05
59 *1986:C *523:76 0
60 *2216:A3 *523:76 0
61 *2217:B1 *523:76 3.47797e-05
62 *2254:B *523:76 0.000731675
63 *2255:B2 *523:76 0
64 *2257:C1 *523:76 0.000310486
65 *2299:A1 *2413:A 9.05499e-05
66 *2299:B1 *2413:A 1.74352e-05
67 *2300:A *523:58 0
68 *2300:A *523:76 8.32242e-05
69 *2300:B *2271:A 1.00375e-05
70 *2300:B *523:39 2.82976e-05
71 *2300:B *523:58 0.000215159
72 *2323:B1 *2413:A 4.17014e-05
73 *2323:B1 *523:12 0.000137983
74 *2358:A2 *523:76 0
75 *2373:B1 *2373:B2 5.33005e-05
76 *2374:A *2373:B2 0.00022266
77 *2374:A *523:133 9.41642e-05
78 *2374:D *2373:B2 9.90367e-05
79 *2401:B1 *523:76 0
80 *2409:A *523:76 4.16021e-05
81 *2409:B *523:76 0.000174805
82 *2421:A *2413:A 8.57732e-05
83 *2440:B1 *523:76 0
84 *2481:A *523:76 0
85 *188:32 *523:76 1.24066e-05
86 *190:10 *523:76 4.00349e-05
87 *190:16 *523:76 0
88 *197:102 *523:76 0.000357048
89 *199:18 *2226:A1 1.02504e-05
90 *199:31 *2226:A1 4.27896e-05
91 *205:16 *523:76 0
92 *205:22 *523:76 0
93 *256:10 *523:43 2.89016e-05
94 *256:10 *523:92 2.59355e-05
95 *257:12 *523:92 2.89114e-05
96 *285:10 *523:39 0.000179656
97 *286:6 *2413:A 5.17614e-05
98 *490:25 *523:12 4.57445e-05
99 *514:10 *2226:A1 7.38368e-05
100 *519:44 *2318:B 3.92854e-05
101 *519:44 *523:109 2.26327e-05
*RES
1 *2453:X *523:12 21.3 
2 *523:12 *2413:A 19.1214 
3 *523:12 *523:31 11.25 
4 *523:31 *523:39 20.3929 
5 *523:39 *523:43 6.67857 
6 *523:43 *2271:A 14.5321 
7 *523:43 *523:58 20.6607 
8 *523:58 *523:76 49.9525 
9 *523:76 *2226:A1 15.5946 
10 *523:58 *2253:A 9.3 
11 *523:39 *523:92 3 
12 *523:92 *2272:A1 10.9786 
13 *523:92 *523:109 10.1964 
14 *523:109 *2318:B 14.8357 
15 *523:109 *2319:A1 17.7643 
16 *523:31 *523:133 3.41071 
17 *523:133 *2374:B 9.3 
18 *523:133 *2373:B2 11.4786 
19 *523:12 *2323:A1 9.3 
*END

*D_NET *524 0.0272925
*CONN
*I *2117:B I *D sky130_fd_sc_hd__nand2_1
*I *2119:A0 I *D sky130_fd_sc_hd__mux2_4
*I *2239:A I *D sky130_fd_sc_hd__or2_1
*I *2240:A I *D sky130_fd_sc_hd__nand2_1
*I *2285:B2 I *D sky130_fd_sc_hd__a32o_1
*I *2201:D I *D sky130_fd_sc_hd__or4_1
*I *2256:A1 I *D sky130_fd_sc_hd__a32o_1
*I *2076:B I *D sky130_fd_sc_hd__or2_1
*I *2075:B I *D sky130_fd_sc_hd__nor2_1
*I *2453:A I *D sky130_fd_sc_hd__buf_2
*I *2454:X O *D sky130_fd_sc_hd__buf_2
*CAP
1 *2117:B 3.82418e-05
2 *2119:A0 2.23854e-05
3 *2239:A 0
4 *2240:A 8.68533e-05
5 *2285:B2 6.44331e-05
6 *2201:D 0
7 *2256:A1 0.000207128
8 *2076:B 0.000138358
9 *2075:B 3.82889e-05
10 *2453:A 0.000207074
11 *2454:X 7.96685e-05
12 *524:134 0.00037008
13 *524:97 0.000502722
14 *524:91 0.00189568
15 *524:85 0.0026313
16 *524:68 0.00103414
17 *524:64 0.000343524
18 *524:62 0.000574016
19 *524:43 0.0018084
20 *524:29 0.00313999
21 *524:8 0.00195462
22 *2076:B *546:33 4.88515e-05
23 *2256:A1 *2256:A2 7.43578e-06
24 *2256:A1 *2260:A3 6.72808e-05
25 *2256:A1 *552:10 2.49484e-05
26 *2285:B2 *2285:A2 9.90367e-05
27 *2285:B2 *2470:A 2.56366e-05
28 *2285:B2 *541:12 1.31516e-05
29 *2453:A *537:73 0.000118349
30 *2453:A *545:50 5.54602e-05
31 *2453:A *545:52 9.97744e-05
32 *524:29 *1990:A2 9.26904e-05
33 *524:29 *2528:A 9.25014e-06
34 *524:29 *537:73 0.000435826
35 *524:29 *545:38 2.48062e-05
36 *524:29 *545:50 0.00066124
37 *524:29 *548:109 0.000907926
38 *524:29 *550:79 9.3231e-05
39 *524:29 *552:22 0.000195555
40 *524:29 *555:43 0.000144887
41 *524:43 *1981:A 7.82778e-05
42 *524:43 *1995:A1 9.41642e-05
43 *524:43 *1998:B1 1.98839e-05
44 *524:43 *2028:A2 0.000236746
45 *524:43 *2032:A2 7.48301e-06
46 *524:43 *2359:A3 0.000100474
47 *524:43 *547:47 0.000282024
48 *524:43 *547:49 3.67142e-05
49 *524:62 *1981:A 0.000681735
50 *524:85 *526:81 0.000186846
51 *524:85 *526:109 0
52 *524:85 *549:48 0
53 *524:91 *2261:A 0.000271345
54 *524:91 *2470:A 0.000600589
55 *524:97 *526:67 0.000107985
56 *524:134 *2231:A 2.47093e-05
57 *524:134 *2232:A 5.41794e-05
58 *524:134 *2237:A1 0
59 *524:134 *526:81 5.8099e-05
60 *524:134 *549:48 0
61 *1999:A1 *524:43 2.05612e-05
62 *2032:B1 *524:43 6.86792e-05
63 *2074:A *2075:B 7.43578e-06
64 *2074:A *524:62 7.48268e-05
65 *2077:A2 *2075:B 5.52238e-05
66 *2118:B *2117:B 0
67 *2118:B *2119:A0 0
68 *2118:B *524:64 0.000185643
69 *2119:A1 *524:64 8.71847e-05
70 *2119:A1 *524:68 2.27416e-05
71 *2119:S *524:68 6.05161e-06
72 *2176:A *524:85 4.66511e-05
73 *2176:B *524:85 0.000149633
74 *2185:A *524:85 0.000352947
75 *2196:D *524:85 7.2561e-05
76 *2197:B1 *524:91 1.98839e-05
77 *2230:A *524:91 0.000310292
78 *2231:B *2240:A 4.39965e-05
79 *2231:B *524:134 2.14658e-05
80 *2237:B1 *524:134 0
81 *2239:B *2240:A 5.84801e-05
82 *2241:A *524:134 7.06079e-05
83 *2256:B1 *2256:A1 5.04018e-05
84 *2256:B2 *2256:A1 9.71197e-05
85 *2258:A2 *524:85 0.000455526
86 *2262:A *2256:A1 2.31791e-05
87 *2285:B1 *2285:B2 0
88 *2285:B1 *524:97 0
89 *2313:B2 *524:97 0.000125731
90 *2348:B *2117:B 0
91 *2511:A *2285:B2 6.20091e-06
92 *2529:A *524:43 2.14658e-05
93 *50:33 *524:43 0
94 *97:10 *2076:B 0.000170519
95 *97:10 *524:85 0.000555122
96 *215:12 *524:134 0.000104301
97 *223:16 *524:134 2.1527e-05
98 *242:12 *524:97 0.000158902
99 *257:12 *524:29 0.000150625
100 *326:26 *524:91 0.000443295
101 *337:12 *524:43 9.31893e-05
102 *369:6 *524:29 7.26083e-05
103 *369:27 *524:43 7.3237e-05
104 *490:25 *2453:A 0
105 *499:38 *524:64 1.92175e-05
106 *499:38 *524:68 1.57523e-05
107 *512:25 *2076:B 8.94011e-05
108 *512:25 *524:85 2.58997e-05
109 *512:40 *524:85 0.000466055
110 *517:12 *524:43 4.10883e-05
111 *517:12 *524:62 0.00013896
112 *517:23 *524:62 6.50295e-05
113 *517:58 *524:43 9.61525e-05
114 *517:84 *2075:B 1.00733e-05
115 *517:95 *2075:B 2.44638e-05
116 *520:135 *2256:A1 0.000240301
117 *521:47 *2285:B2 8.98831e-05
118 *521:47 *524:91 0.000116033
119 *521:47 *524:97 0.000189986
120 *523:12 *2453:A 6.74911e-05
121 *523:31 *2453:A 0.000171375
122 *523:133 *524:8 2.40379e-05
*RES
1 *2454:X *524:8 14.7464 
2 *524:8 *2453:A 19.6929 
3 *524:8 *524:29 44.1429 
4 *524:29 *524:43 36.9464 
5 *524:43 *2075:B 14.7643 
6 *524:43 *524:62 14.0893 
7 *524:62 *524:64 4.64286 
8 *524:64 *524:68 5.85714 
9 *524:68 *2076:B 17.4071 
10 *524:68 *524:85 24.7679 
11 *524:85 *524:91 30.0714 
12 *524:91 *524:97 11.5714 
13 *524:97 *2256:A1 23.8714 
14 *524:97 *2201:D 9.3 
15 *524:91 *2285:B2 15.7821 
16 *524:85 *524:134 10.9286 
17 *524:134 *2240:A 11.6393 
18 *524:134 *2239:A 9.3 
19 *524:64 *2119:A0 9.72857 
20 *524:62 *2117:B 10.0321 
*END

*D_NET *525 0.0204012
*CONN
*I *2219:A I *D sky130_fd_sc_hd__and2_1
*I *2216:B2 I *D sky130_fd_sc_hd__a32o_1
*I *2295:A1 I *D sky130_fd_sc_hd__a22oi_1
*I *2294:B I *D sky130_fd_sc_hd__and4_1
*I *2269:A I *D sky130_fd_sc_hd__nand2_1
*I *2319:B2 I *D sky130_fd_sc_hd__a22oi_1
*I *2318:A I *D sky130_fd_sc_hd__and4_1
*I *2372:A I *D sky130_fd_sc_hd__nand2_1
*I *2429:A1 I *D sky130_fd_sc_hd__a31o_1
*I *2415:B I *D sky130_fd_sc_hd__nand4_1
*I *2455:X O *D sky130_fd_sc_hd__buf_2
*CAP
1 *2219:A 0.000797599
2 *2216:B2 6.41586e-05
3 *2295:A1 0.000250325
4 *2294:B 0.000175145
5 *2269:A 0.000232552
6 *2319:B2 9.66912e-05
7 *2318:A 0
8 *2372:A 0
9 *2429:A1 3.48683e-05
10 *2415:B 0.000813177
11 *2455:X 0.000218454
12 *525:120 0.00172086
13 *525:89 0.00115909
14 *525:74 0.000460074
15 *525:63 0.000596706
16 *525:47 0.000137271
17 *525:43 0.000369089
18 *525:27 0.000216657
19 *525:14 0.00109052
20 *525:10 0.000513638
21 *2219:A *2219:B 0.000430638
22 *2294:B *2294:A 2.75318e-05
23 *2294:B *527:18 0
24 *2295:A1 *2294:A 9.54798e-06
25 *2295:A1 *2295:A2 2.21925e-05
26 *2295:A1 *2295:B1 5.52238e-05
27 *2295:A1 *527:18 9.1055e-05
28 *2295:A1 *545:138 0.000441737
29 *2295:A1 *549:107 9.75917e-05
30 *2319:B2 *2317:A 5.47488e-05
31 *2319:B2 *2318:D 1.38323e-05
32 *2319:B2 *2319:B1 5.52302e-05
33 *2415:B *2415:C 2.89114e-05
34 *2415:B *529:14 0.000119717
35 *2415:B *549:6 6.42095e-05
36 *2415:B *549:12 0.000259576
37 *2429:A1 *2429:A2 1.97695e-05
38 *2429:A1 *537:90 5.7661e-06
39 *525:10 *526:12 3.67142e-05
40 *525:10 *526:22 7.67543e-05
41 *525:27 *2374:C 0.000221163
42 *525:27 *526:22 9.75001e-05
43 *525:43 *526:22 4.66203e-05
44 *525:43 *526:47 0.000167266
45 *525:43 *540:53 0
46 *525:47 *2317:A 1.55885e-05
47 *525:63 *2317:B 4.5534e-05
48 *525:63 *526:47 0.000335291
49 *525:74 *526:47 0.000639882
50 *525:74 *555:43 0.000104082
51 *525:89 *526:47 0.000117196
52 *525:120 *2311:A2 0.000376253
53 *525:120 *2312:A 0
54 *525:120 *526:47 0.00126484
55 *2216:A3 *2219:A 4.38058e-05
56 *2216:B1 *2216:B2 0.000102981
57 *2221:B1 *525:120 7.05375e-05
58 *2222:A_N *2219:A 1.02504e-05
59 *2227:B1 *2219:A 0.000619931
60 *2284:B2 *525:120 9.60875e-05
61 *2304:B *2295:A1 0.000146474
62 *2319:A1 *2319:B2 0.000221641
63 *2375:B *525:27 0.000166983
64 *2376:A *2429:A1 4.88637e-05
65 *2429:B1 *2429:A1 5.71472e-05
66 *2429:B1 *525:27 0.000217298
67 *188:75 *525:120 0.000309458
68 *190:16 *525:120 0
69 *196:14 *2219:A 0.00022117
70 *196:25 *2219:A 0.000226146
71 *199:18 *2219:A 0.000147191
72 *199:50 *525:120 0
73 *202:10 *2219:A 0.000318107
74 *205:16 *2219:A 6.36286e-05
75 *205:16 *525:120 0.000108434
76 *254:12 *2269:A 2.59355e-05
77 *305:12 *2319:B2 0.000206618
78 *305:12 *525:47 5.52238e-05
79 *311:12 *2429:A1 0.000144773
80 *490:25 *525:27 0.000143128
81 *494:12 *2415:B 0.000139632
82 *494:12 *525:14 0.000137983
83 *497:93 *525:10 5.52238e-05
84 *514:10 *2219:A 0.000349226
85 *514:14 *2219:A 8.6229e-06
86 *514:14 *525:120 0.000575189
87 *519:44 *525:43 0.000118339
88 *519:44 *525:63 0.000221371
89 *519:44 *525:74 0.00033956
90 *519:44 *525:89 6.19181e-05
91 *519:44 *525:120 0.000310075
92 *519:68 *525:120 9.15621e-06
93 *519:98 *525:120 4.22135e-06
94 *523:109 *525:47 1.00073e-05
*RES
1 *2455:X *525:10 17.0143 
2 *525:10 *525:14 5.85714 
3 *525:14 *2415:B 20.1036 
4 *525:14 *525:27 15.5 
5 *525:27 *2429:A1 11.0857 
6 *525:27 *2372:A 9.3 
7 *525:10 *525:43 5.28571 
8 *525:43 *525:47 5.44643 
9 *525:47 *2318:A 9.3 
10 *525:47 *2319:B2 12.7286 
11 *525:43 *525:63 5.28571 
12 *525:63 *2269:A 17.2107 
13 *525:63 *525:74 8.32143 
14 *525:74 *2294:B 16.1214 
15 *525:74 *525:89 1.64286 
16 *525:89 *2295:A1 29.8937 
17 *525:89 *525:120 34.8393 
18 *525:120 *2216:B2 15.175 
19 *525:120 *2219:A 36.6036 
*END

*D_NET *526 0.026245
*CONN
*I *2455:A I *D sky130_fd_sc_hd__buf_2
*I *2257:A1 I *D sky130_fd_sc_hd__a221o_1
*I *2201:B I *D sky130_fd_sc_hd__or4_1
*I *2186:A1 I *D sky130_fd_sc_hd__o211a_1
*I *2183:A0 I *D sky130_fd_sc_hd__mux2_4
*I *2123:B I *D sky130_fd_sc_hd__or2_2
*I *2181:B I *D sky130_fd_sc_hd__nand2_1
*I *2231:A I *D sky130_fd_sc_hd__nand2_1
*I *2232:A I *D sky130_fd_sc_hd__xnor2_1
*I *2414:B2 I *D sky130_fd_sc_hd__a22o_1
*I *2456:X O *D sky130_fd_sc_hd__clkbuf_4
*CAP
1 *2455:A 2.23854e-05
2 *2257:A1 0
3 *2201:B 0
4 *2186:A1 0
5 *2183:A0 0
6 *2123:B 0.000166145
7 *2181:B 5.59565e-05
8 *2231:A 0.000137403
9 *2232:A 0.000169275
10 *2414:B2 0.000693624
11 *2456:X 0.00018236
12 *526:109 0.0005305
13 *526:81 0.000980939
14 *526:73 0.00104568
15 *526:69 0.000118097
16 *526:67 0.00124052
17 *526:55 0.00163163
18 *526:47 0.00200178
19 *526:22 0.00244337
20 *526:12 0.000398896
21 *2123:B *1981:A 0
22 *2231:A *549:72 4.02462e-05
23 *2232:A *551:54 4.59075e-05
24 *2414:B2 *2001:A 3.99614e-06
25 *2414:B2 *2414:A1 0.000216507
26 *2414:B2 *2414:B1 0.000392019
27 *2414:B2 *529:14 0.00124874
28 *2414:B2 *548:8 5.33005e-05
29 *526:12 *540:70 8.57023e-05
30 *526:12 *544:29 4.57445e-05
31 *526:22 *540:53 0
32 *526:22 *540:70 0.000182694
33 *526:47 *2317:B 4.5534e-05
34 *526:47 *555:43 0.000102519
35 *526:55 *529:47 0.000478764
36 *526:55 *552:10 1.81818e-05
37 *526:67 *538:14 7.61932e-05
38 *526:81 *549:72 3.69697e-05
39 *2001:B *2414:B2 0
40 *2176:A *526:109 0
41 *2181:A *2123:B 0
42 *2182:A *2123:B 5.80217e-05
43 *2182:A *2181:B 5.71472e-05
44 *2182:A *526:109 7.79781e-06
45 *2182:B *2123:B 1.02504e-05
46 *2182:B *526:109 5.58941e-05
47 *2183:A1 *526:109 0.00016908
48 *2185:A *526:81 7.2252e-05
49 *2185:B *526:81 1.91414e-05
50 *2187:B1 *526:69 0.000186662
51 *2187:B1 *526:73 9.02331e-05
52 *2187:B1 *526:81 2.14658e-05
53 *2195:A1 *526:81 0.000152814
54 *2195:C1 *526:81 6.65398e-05
55 *2230:A *526:81 0
56 *2235:B1 *526:81 9.04513e-05
57 *2241:A *2231:A 0.000148189
58 *2241:A *2232:A 9.25014e-06
59 *2243:A3 *2231:A 3.90513e-05
60 *2257:A2 *526:55 1.46576e-05
61 *2257:B1 *526:47 0.000227532
62 *2257:C1 *526:47 1.21289e-05
63 *2257:C1 *526:55 0.0001394
64 *2287:A2 *526:67 2.26424e-05
65 *2313:A3 *526:67 0
66 *2315:B1 *526:67 2.56694e-05
67 *2315:C1 *526:67 9.87983e-06
68 *2316:B1 *526:67 0.000457262
69 *2355:B1 *526:47 1.3142e-05
70 *2356:B2 *526:47 1.78447e-05
71 *2375:A *526:22 3.34366e-05
72 *2375:B *526:22 3.51442e-05
73 *2467:A *526:67 9.41642e-05
74 *2481:A *526:55 0.000528934
75 *97:10 *2123:B 0
76 *97:10 *526:109 0
77 *167:17 *526:81 0.000164715
78 *181:16 *2232:A 0.000266479
79 *188:36 *526:47 0.000396025
80 *188:40 *526:47 0.000145625
81 *190:20 *526:47 0.000118179
82 *197:12 *526:67 0
83 *216:19 *2231:A 1.09026e-05
84 *223:16 *2232:A 0.00018077
85 *224:10 *2231:A 3.92854e-05
86 *242:12 *526:55 0.00153281
87 *242:12 *526:67 0.000294337
88 *326:59 *526:67 0.000899078
89 *326:59 *526:69 6.42877e-05
90 *490:25 *526:22 3.06406e-05
91 *490:25 *526:47 0.000145581
92 *497:93 *526:22 5.76162e-05
93 *501:48 *526:67 0.000238157
94 *501:48 *526:69 0.000166485
95 *501:48 *526:73 0.000171289
96 *501:48 *526:81 9.90367e-05
97 *514:14 *526:47 0.000103974
98 *519:23 *526:12 0.000128154
99 *519:118 *526:67 0
100 *524:85 *526:81 0.000186846
101 *524:85 *526:109 0
102 *524:97 *526:67 0.000107985
103 *524:134 *2231:A 2.47093e-05
104 *524:134 *2232:A 5.41794e-05
105 *524:134 *526:81 5.8099e-05
106 *525:10 *526:12 3.67142e-05
107 *525:10 *526:22 7.67543e-05
108 *525:27 *526:22 9.75001e-05
109 *525:43 *526:22 4.66203e-05
110 *525:43 *526:47 0.000167266
111 *525:63 *526:47 0.000335291
112 *525:74 *526:47 0.000639882
113 *525:89 *526:47 0.000117196
114 *525:120 *526:47 0.00126484
*RES
1 *2456:X *526:12 22.5321 
2 *526:12 *526:22 10.0893 
3 *526:22 *2414:B2 29.5679 
4 *526:22 *526:47 45.0357 
5 *526:47 *526:55 17.7321 
6 *526:55 *526:67 33.4286 
7 *526:67 *526:69 3 
8 *526:69 *526:73 2.19643 
9 *526:73 *526:81 20.375 
10 *526:81 *2232:A 18.0679 
11 *526:81 *2231:A 17.8 
12 *526:73 *526:109 11.3036 
13 *526:109 *2181:B 14.8714 
14 *526:109 *2123:B 16.6571 
15 *526:69 *2183:A0 9.3 
16 *526:67 *2186:A1 9.3 
17 *526:55 *2201:B 9.3 
18 *526:47 *2257:A1 9.3 
19 *526:12 *2455:A 9.72857 
*END

*D_NET *527 0.0151887
*CONN
*I *2317:A I *D sky130_fd_sc_hd__nand2_1
*I *2369:B1 I *D sky130_fd_sc_hd__o211a_1
*I *2370:A1 I *D sky130_fd_sc_hd__a211oi_1
*I *2224:B I *D sky130_fd_sc_hd__and3_1
*I *2223:B2 I *D sky130_fd_sc_hd__a22o_1
*I *2216:A2 I *D sky130_fd_sc_hd__a32o_1
*I *2209:A2 I *D sky130_fd_sc_hd__a22oi_1
*I *2210:A2 I *D sky130_fd_sc_hd__o22a_1
*I *2295:B2 I *D sky130_fd_sc_hd__a22oi_1
*I *2294:A I *D sky130_fd_sc_hd__and4_1
*I *2457:X O *D sky130_fd_sc_hd__buf_2
*CAP
1 *2317:A 0.000448219
2 *2369:B1 0
3 *2370:A1 8.66245e-05
4 *2224:B 0.000157976
5 *2223:B2 6.52961e-05
6 *2216:A2 0
7 *2209:A2 0
8 *2210:A2 0.000101646
9 *2295:B2 0
10 *2294:A 0.000299843
11 *2457:X 0.000130606
12 *527:119 0.000118802
13 *527:117 0.000526097
14 *527:89 0.000464946
15 *527:60 0.000334697
16 *527:54 0.000982569
17 *527:46 0.00209558
18 *527:18 0.000631208
19 *527:12 0.00188021
20 *527:6 0.00062077
21 *2210:A2 *2209:A1 8.76257e-05
22 *2210:A2 *551:89 0.00010096
23 *2210:A2 *551:93 3.99614e-06
24 *2223:B2 *551:118 0.000148196
25 *2294:A *549:107 8.22793e-06
26 *2317:A *2319:A2 7.13226e-06
27 *2370:A1 *534:109 4.46186e-06
28 *527:12 *529:41 0
29 *527:12 *534:109 0.000414733
30 *527:12 *566:18 0.000106403
31 *527:18 *2294:D 1.00733e-05
32 *527:18 *2295:A2 2.11789e-05
33 *527:18 *2295:B1 2.44318e-05
34 *527:46 *2223:A2 1.83776e-05
35 *527:46 *2458:A 0
36 *527:46 *529:41 0
37 *527:46 *549:111 0.00185686
38 *527:46 *551:118 0
39 *527:46 *566:18 5.56962e-05
40 *527:89 *2223:A2 2.05484e-05
41 *527:89 *549:124 9.47028e-05
42 *527:117 *534:109 3.87941e-05
43 *527:119 *534:109 1.37292e-05
44 *2209:B1 *2210:A2 4.73463e-05
45 *2209:B1 *527:60 0.000341827
46 *2209:B2 *2210:A2 2.44318e-05
47 *2210:B2 *2210:A2 0.00010096
48 *2216:A3 *527:54 0.000248873
49 *2216:A3 *527:60 2.06178e-05
50 *2225:A *2223:B2 0
51 *2272:A1 *2317:A 0
52 *2280:A *527:46 0
53 *2282:B1 *527:89 0
54 *2287:C1 *527:54 0
55 *2294:B *2294:A 2.75318e-05
56 *2294:B *527:18 0
57 *2295:A1 *2294:A 9.54798e-06
58 *2295:A1 *527:18 9.1055e-05
59 *2303:A_N *527:12 0.000148911
60 *2303:A_N *527:18 2.59355e-05
61 *2303:B *527:18 4.00868e-05
62 *2304:B *2294:A 5.00087e-06
63 *2319:A1 *2317:A 0.000303298
64 *2319:B2 *2317:A 5.47488e-05
65 *2336:B1 *527:12 1.08359e-05
66 *2368:A1 *527:12 0.000100823
67 *2369:A1 *2370:A1 8.00806e-05
68 *2369:A2 *2317:A 0.000181796
69 *190:10 *527:54 2.07728e-05
70 *190:10 *527:60 7.69511e-05
71 *190:16 *527:60 4.46186e-06
72 *205:16 *527:60 1.92905e-05
73 *207:14 *2224:B 0
74 *234:10 *2224:B 1.03968e-05
75 *234:10 *527:46 0
76 *234:10 *527:89 7.53109e-06
77 *234:12 *527:46 0
78 *234:18 *527:46 2.3704e-05
79 *259:12 *527:6 5.70797e-05
80 *259:12 *527:12 2.40379e-05
81 *290:8 *527:12 0
82 *291:8 *527:46 1.3142e-05
83 *306:8 *2317:A 9.71197e-05
84 *309:12 *2370:A1 4.16114e-05
85 *323:14 *2370:A1 2.23987e-05
86 *323:14 *527:12 0.000181551
87 *323:14 *527:117 0.000126446
88 *323:14 *527:119 5.58941e-05
89 *519:44 *2294:A 2.09897e-05
90 *523:76 *527:54 0.000384875
91 *523:76 *527:60 0
92 *523:109 *2317:A 0.000139907
93 *525:47 *2317:A 1.55885e-05
*RES
1 *2457:X *527:6 11.4786 
2 *527:6 *527:12 16.5 
3 *527:12 *527:18 8.75 
4 *527:18 *2294:A 26.6887 
5 *527:18 *2295:B2 9.3 
6 *527:12 *527:46 26.3839 
7 *527:46 *527:54 9.24902 
8 *527:54 *527:60 10 
9 *527:60 *2210:A2 12.6036 
10 *527:60 *2209:A2 9.3 
11 *527:54 *2216:A2 13.8 
12 *527:46 *527:89 7.66964 
13 *527:89 *2223:B2 20.2464 
14 *527:89 *2224:B 20.6929 
15 *527:6 *527:117 6.14286 
16 *527:117 *527:119 0.732143 
17 *527:119 *2370:A1 15.9786 
18 *527:119 *2369:B1 13.8 
19 *527:117 *2317:A 22.4607 
*END

*D_NET *528 0.00496897
*CONN
*I *2278:A1 I *D sky130_fd_sc_hd__a21oi_1
*I *2277:A I *D sky130_fd_sc_hd__and3_1
*I *2248:C I *D sky130_fd_sc_hd__and4b_1
*I *2247:A1_N I *D sky130_fd_sc_hd__o2bb2a_1
*I *2227:B2 I *D sky130_fd_sc_hd__a32o_1
*I *2458:X O *D sky130_fd_sc_hd__buf_1
*CAP
1 *2278:A1 0
2 *2277:A 0.000303095
3 *2248:C 0.000120248
4 *2247:A1_N 1.50797e-06
5 *2227:B2 0.000365879
6 *2458:X 0.000184095
7 *528:41 0.000154398
8 *528:12 0.000744175
9 *528:8 0.000648749
10 *528:6 0.000184095
11 *2227:B2 *2223:A1 4.58194e-05
12 *2227:B2 *2223:A2 4.5987e-05
13 *2227:B2 *2224:A 4.27437e-05
14 *2227:B2 *549:124 5.7616e-05
15 *2248:C *2247:A2_N 9.02331e-05
16 *528:6 *2458:A 1.21258e-05
17 *528:12 *2246:B 3.56119e-05
18 *528:12 *555:68 9.31149e-05
19 *528:41 *2247:A2_N 1.32966e-05
20 *2227:A2 *2227:B2 5.62995e-05
21 *2227:A3 *2227:B2 0.000358359
22 *2246:C *528:12 0.000140011
23 *2247:B1 *2248:C 0.00018372
24 *2247:B2 *2248:C 5.52238e-05
25 *2248:A_N *2248:C 0.000181796
26 *2249:A *2227:B2 2.28499e-05
27 *2249:A *528:41 6.43697e-06
28 *2249:B *2248:C 4.51641e-05
29 *2252:B *528:12 4.16207e-05
30 *2277:C *528:6 5.52238e-05
31 *2278:B1 *528:6 5.33005e-05
32 *2279:A *2277:A 1.10632e-05
33 *2279:A *528:12 0
34 *2279:B *528:12 7.5222e-05
35 *2280:B *2277:A 0
36 *2282:B1 *2227:B2 0
37 *202:25 *2227:B2 9.51682e-05
38 *202:33 *2227:B2 0.000163295
39 *207:8 *2227:B2 2.14658e-05
40 *233:12 *528:12 0.000226021
41 *263:14 *2277:A 3.39401e-05
*RES
1 *2458:X *528:6 11.4786 
2 *528:6 *528:8 4.5 
3 *528:8 *528:12 13.7321 
4 *528:12 *2227:B2 28.1929 
5 *528:12 *528:41 0.839286 
6 *528:41 *2247:A1_N 9.43839 
7 *528:41 *2248:C 13.55 
8 *528:8 *2277:A 21.6798 
9 *528:6 *2278:A1 9.3 
*END

*D_NET *529 0.0230325
*CONN
*I *2458:A I *D sky130_fd_sc_hd__buf_1
*I *2201:A I *D sky130_fd_sc_hd__or4_1
*I *2186:C1 I *D sky130_fd_sc_hd__o211a_1
*I *2184:B I *D sky130_fd_sc_hd__and2_1
*I *2194:B I *D sky130_fd_sc_hd__nor2_1
*I *2457:A I *D sky130_fd_sc_hd__buf_2
*I *2415:A I *D sky130_fd_sc_hd__nand4_1
*I *2414:A1 I *D sky130_fd_sc_hd__a22o_1
*I *2459:X O *D sky130_fd_sc_hd__buf_2
*CAP
1 *2458:A 0.000326188
2 *2201:A 0
3 *2186:C1 0.000142617
4 *2184:B 0
5 *2194:B 6.06873e-05
6 *2457:A 0
7 *2415:A 0
8 *2414:A1 6.44556e-05
9 *2459:X 0.000160585
10 *529:61 0.000252217
11 *529:57 0.00182329
12 *529:47 0.00348749
13 *529:41 0.00384573
14 *529:30 0.00160785
15 *529:14 0.00106514
16 *529:8 0.00124793
17 *2186:C1 *580:24 8.82021e-05
18 *2414:A1 *2415:C 0.000139907
19 *2458:A *2277:B 0.000368471
20 *2458:A *2278:A2 0.000338557
21 *529:14 *2415:C 0.000128496
22 *529:14 *549:6 0.000137983
23 *529:14 *549:12 0.000482588
24 *529:47 *2277:B 0.000120943
25 *529:47 *541:35 3.85621e-05
26 *529:47 *552:10 0.00010982
27 *529:57 *552:10 0.000151333
28 *529:57 *552:12 0.000123153
29 *529:57 *580:14 1.40034e-05
30 *2194:A *2194:B 0.000230475
31 *2194:A *529:61 1.38323e-05
32 *2195:D1 *529:61 0
33 *2200:B *529:57 0.000101208
34 *2202:A *529:57 0
35 *2202:B *529:57 3.17067e-05
36 *2256:B1 *529:57 3.33238e-05
37 *2257:B2 *529:47 0.00018077
38 *2257:C1 *529:47 0.000212392
39 *2262:A *529:57 1.99099e-05
40 *2277:C *2458:A 4.58976e-05
41 *2278:B1 *2458:A 1.98839e-05
42 *2285:B1 *529:57 0.000192319
43 *2291:A *529:57 0.000266473
44 *2313:A3 *529:57 4.59075e-05
45 *2335:B *529:41 0.000218741
46 *2337:A *529:41 0
47 *2342:B *529:41 0
48 *2357:A1 *529:57 1.39841e-05
49 *2357:A3 *529:57 2.42516e-05
50 *2368:A2 *529:41 5.24274e-05
51 *2368:B1 *529:41 4.25446e-05
52 *2414:B2 *2414:A1 0.000216507
53 *2414:B2 *529:14 0.00124874
54 *2415:B *529:14 0.000119717
55 *2447:A *529:61 9.90431e-05
56 *2481:A *529:47 0.000197988
57 *178:25 *2194:B 5.62995e-05
58 *191:60 *2186:C1 0
59 *199:64 *529:57 0.000119481
60 *205:67 *529:57 0.000126435
61 *219:23 *2186:C1 5.80706e-06
62 *219:36 *2186:C1 9.99989e-05
63 *219:36 *529:61 7.03295e-05
64 *266:10 *2458:A 9.25014e-06
65 *266:10 *529:41 0
66 *290:8 *529:41 0.000175526
67 *292:10 *529:41 0
68 *292:18 *529:41 0
69 *297:8 *529:41 0
70 *297:14 *529:41 0
71 *323:14 *529:14 0.000227998
72 *323:14 *529:30 7.48356e-05
73 *323:14 *529:41 0.000166758
74 *328:12 *529:41 0
75 *361:12 *529:14 5.56943e-05
76 *494:12 *529:14 0.000674608
77 *514:35 *529:47 0.000467208
78 *519:118 *529:57 0.000233172
79 *520:135 *529:57 2.39876e-05
80 *526:55 *529:47 0.000478764
81 *527:12 *529:41 0
82 *527:46 *2458:A 0
83 *527:46 *529:41 0
84 *528:6 *2458:A 1.21258e-05
*RES
1 *2459:X *529:8 15.5679 
2 *529:8 *529:14 32.3929 
3 *529:14 *2414:A1 11.4964 
4 *529:14 *2415:A 9.3 
5 *529:8 *529:30 1.94643 
6 *529:30 *2457:A 13.8 
7 *529:30 *529:41 32.8571 
8 *529:41 *529:47 28.8036 
9 *529:47 *529:57 30.5625 
10 *529:57 *529:61 3.63393 
11 *529:61 *2194:B 11.4786 
12 *529:61 *2184:B 9.3 
13 *529:57 *2186:C1 21.9161 
14 *529:47 *2201:A 9.3 
15 *529:41 *2458:A 25.8714 
*END

*D_NET *530 0.0074107
*CONN
*I *2212:B I *D sky130_fd_sc_hd__nor3_1
*I *2206:C_N I *D sky130_fd_sc_hd__or3b_4
*I *2211:B I *D sky130_fd_sc_hd__nor3_1
*I *2208:B I *D sky130_fd_sc_hd__or4b_4
*I *2215:B_N I *D sky130_fd_sc_hd__and4bb_2
*I *2204:D I *D sky130_fd_sc_hd__and4b_2
*I *1986:A_N I *D sky130_fd_sc_hd__and3b_2
*I *2203:C1 I *D sky130_fd_sc_hd__o2111a_1
*I *2207:C I *D sky130_fd_sc_hd__or4b_4
*I *2213:C I *D sky130_fd_sc_hd__and4b_2
*I *2460:X O *D sky130_fd_sc_hd__clkbuf_2
*CAP
1 *2212:B 0
2 *2206:C_N 3.54716e-05
3 *2211:B 0
4 *2208:B 0
5 *2215:B_N 0.000175016
6 *2204:D 0
7 *1986:A_N 0.000310539
8 *2203:C1 0
9 *2207:C 6.37745e-05
10 *2213:C 4.3697e-05
11 *2460:X 0
12 *530:96 0.000495557
13 *530:68 0.000270691
14 *530:46 0.000494995
15 *530:20 0.00017154
16 *530:16 0.000372473
17 *530:14 0.000225426
18 *530:12 7.08631e-05
19 *530:6 0.000145087
20 *530:4 0.000540112
21 *530:20 *2260:A3 0
22 *1977:A *2213:C 6.05161e-06
23 *1986:C *1986:A_N 0.000190666
24 *2203:A1 *1986:A_N 3.29979e-05
25 *2203:D1 *530:46 8.08022e-05
26 *2207:B *2207:C 0.000175519
27 *2207:B *530:46 4.46186e-06
28 *2208:D_N *530:6 5.52302e-05
29 *2208:D_N *530:12 0.00014285
30 *2211:A *530:12 0.000183233
31 *2211:A *530:14 3.33238e-05
32 *2211:A *530:16 0.000266486
33 *2212:A *2206:C_N 1.39726e-05
34 *2212:C *2206:C_N 3.18676e-05
35 *2212:C *530:96 8.18698e-05
36 *2218:A *530:46 5.58941e-05
37 *2226:B2 *2206:C_N 0
38 *2494:A *2215:B_N 0.00010096
39 *188:10 *2215:B_N 0.000274288
40 *188:10 *530:68 0
41 *189:18 *530:6 0.000216121
42 *189:18 *530:96 0.000164925
43 *192:32 *530:46 3.57844e-05
44 *197:66 *1986:A_N 0.000102046
45 *230:6 *2213:C 7.49387e-06
46 *230:6 *530:20 7.43578e-06
47 *230:17 *530:16 6.42095e-05
48 *230:17 *530:20 2.89016e-05
49 *315:8 *2207:C 9.24395e-05
50 *315:8 *530:46 0.000137939
51 *326:22 *1986:A_N 0.000244346
52 *326:22 *530:46 5.52302e-05
53 *489:35 *2215:B_N 0.000311494
54 *491:12 *530:68 7.60306e-05
55 *511:65 *530:6 8.46829e-05
56 *511:65 *530:12 0.000323614
57 *511:65 *530:14 2.19064e-05
58 *511:65 *530:16 5.71472e-05
59 *511:75 *530:16 0.000192994
60 *511:75 *530:46 4.02462e-05
*RES
1 *2460:X *530:4 9.3 
2 *530:4 *530:6 2.58929 
3 *530:6 *530:12 3.75893 
4 *530:12 *530:14 0.330357 
5 *530:14 *530:16 3.82143 
6 *530:16 *530:20 1.26786 
7 *530:20 *2213:C 9.83571 
8 *530:20 *2207:C 20.55 
9 *530:16 *530:46 13 
10 *530:46 *2203:C1 9.3 
11 *530:46 *1986:A_N 15.2107 
12 *530:14 *530:68 10.9464 
13 *530:68 *2204:D 9.3 
14 *530:68 *2215:B_N 14.7643 
15 *530:12 *2208:B 9.3 
16 *530:6 *2211:B 9.3 
17 *530:4 *530:96 7.03571 
18 *530:96 *2206:C_N 10.675 
19 *530:96 *2212:B 9.3 
*END

*D_NET *531 0.0175991
*CONN
*I *2169:C1 I *D sky130_fd_sc_hd__a221o_1
*I *2064:B I *D sky130_fd_sc_hd__nor4_1
*I *1987:C I *D sky130_fd_sc_hd__or4_4
*I *2065:B I *D sky130_fd_sc_hd__or4_4
*I *2108:C1 I *D sky130_fd_sc_hd__a311oi_4
*I *2461:X O *D sky130_fd_sc_hd__buf_6
*CAP
1 *2169:C1 0
2 *2064:B 0
3 *1987:C 0.00077432
4 *2065:B 8.1604e-06
5 *2108:C1 0.00103492
6 *2461:X 0.000431618
7 *531:55 0.00122123
8 *531:47 0.000509709
9 *531:28 0.00165725
10 *531:22 0.000982989
11 *1987:C *1987:B 0.00028986
12 *1987:C *2317:B 0.00230832
13 *1987:C *534:77 0.00268444
14 *2065:B *1987:B 2.06112e-05
15 *2065:B *534:77 2.06112e-05
16 *2108:C1 *2043:A 4.25619e-05
17 *2108:C1 *543:14 0.000100268
18 *531:22 *2146:B1 4.61925e-05
19 *531:22 *581:18 7.25444e-05
20 *531:28 *2317:B 0.00101902
21 *531:28 *536:44 0.000288564
22 *531:28 *542:75 0
23 *531:28 *581:18 0.00027095
24 *531:55 *2317:B 0.00091126
25 *531:55 *534:45 1.90936e-05
26 *531:55 *534:77 7.17259e-05
27 *531:55 *536:44 2.04825e-05
28 *531:55 *543:81 0.000154763
29 *2101:B *2108:C1 5.71472e-05
30 *2127:A *531:22 0.000132648
31 *2127:B *531:22 0.000194143
32 *2131:B1 *2108:C1 0.000168777
33 *2133:A0 *2108:C1 6.00455e-05
34 *2169:B1 *531:28 1.00375e-05
35 *2169:B2 *531:28 5.97527e-05
36 *2174:A *531:28 0.000129868
37 *2175:A2 *531:28 5.66157e-05
38 *2446:A *531:22 5.52238e-05
39 *50:33 *1987:C 0.000200491
40 *61:18 *2108:C1 0.000686131
41 *61:18 *531:47 8.46829e-05
42 *61:24 *2108:C1 7.3237e-05
43 *84:12 *2108:C1 2.2092e-05
44 *84:14 *2108:C1 6.86792e-05
45 *85:8 *2108:C1 0.000137561
46 *86:10 *2108:C1 3.45159e-05
47 *110:14 *531:22 9.90367e-05
48 *110:32 *531:22 2.26424e-05
49 *126:23 *531:22 0.000178847
50 *129:23 *531:22 3.97677e-05
51 *158:12 *531:28 0
52 *474:10 *1987:C 6.57026e-05
*RES
1 *2461:X *531:22 27.1571 
2 *531:22 *531:28 25.5179 
3 *531:28 *2108:C1 36.1929 
4 *531:28 *531:47 0.946429 
5 *531:47 *531:55 9.60305 
6 *531:55 *2065:B 17.4868 
7 *531:55 *1987:C 29.396 
8 *531:47 *2064:B 9.3 
9 *531:22 *2169:C1 9.3 
*END

*D_NET *532 0.00762096
*CONN
*I *2437:A2 I *D sky130_fd_sc_hd__a21oi_1
*I *2438:A2 I *D sky130_fd_sc_hd__o22a_1
*I *2439:A2 I *D sky130_fd_sc_hd__a32o_1
*I *2405:B I *D sky130_fd_sc_hd__xnor2_1
*I *2415:C I *D sky130_fd_sc_hd__nand4_1
*I *2414:A2 I *D sky130_fd_sc_hd__a22o_1
*I *2462:X O *D sky130_fd_sc_hd__clkbuf_2
*CAP
1 *2437:A2 0.000162518
2 *2438:A2 0.000125824
3 *2439:A2 3.3326e-05
4 *2405:B 0
5 *2415:C 0.000111947
6 *2414:A2 0
7 *2462:X 0.000149867
8 *532:37 0.00015915
9 *532:16 0.000794227
10 *532:12 0.00086993
11 *532:10 0.000273088
12 *532:8 0.000397824
13 *2437:A2 *553:14 0.000204654
14 *2437:A2 *553:22 5.31122e-05
15 *2437:A2 *580:77 7.41941e-05
16 *532:10 *551:29 0
17 *532:10 *553:22 0.000144038
18 *532:12 *551:29 1.19468e-05
19 *532:12 *553:22 0.000556844
20 *532:16 *547:33 1.94879e-05
21 *532:16 *551:10 0.00112577
22 *532:16 *551:29 0.000408569
23 *532:16 *553:22 8.32242e-05
24 *1992:B1 *532:16 0.00019254
25 *1994:B *532:16 0
26 *2401:A1 *2438:A2 2.28598e-05
27 *2402:A1 *2439:A2 3.99614e-06
28 *2402:A1 *532:12 0.000342495
29 *2414:A1 *2415:C 0.000139907
30 *2415:B *2415:C 2.89114e-05
31 *2416:A1 *532:16 0.00014576
32 *2424:B *532:16 0
33 *2439:A3 *2438:A2 5.71472e-05
34 *2439:B1 *532:10 1.17968e-05
35 *2439:B1 *532:12 8.79873e-05
36 *2440:B1 *532:8 5.49489e-05
37 *2440:C1 *2437:A2 2.22641e-05
38 *2440:C1 *532:10 3.69697e-05
39 *183:24 *532:12 0.000129366
40 *199:64 *2437:A2 5.49489e-05
41 *205:67 *532:8 3.77147e-05
42 *337:54 *532:16 0.000204821
43 *492:18 *2437:A2 1.32429e-05
44 *492:18 *2439:A2 1.24368e-05
45 *492:18 *532:10 7.80714e-06
46 *492:25 *2438:A2 3.08382e-05
47 *492:25 *2439:A2 4.08637e-05
48 *492:27 *2439:A2 0
49 *492:37 *2438:A2 5.33005e-05
50 *492:39 *532:16 0
51 *529:14 *2415:C 0.000128496
*RES
1 *2462:X *532:8 15.5679 
2 *532:8 *532:10 1.94643 
3 *532:10 *532:12 7.10714 
4 *532:12 *532:16 24.3571 
5 *532:16 *2414:A2 9.3 
6 *532:16 *2415:C 11.8893 
7 *532:12 *2405:B 13.8 
8 *532:10 *532:37 4.5 
9 *532:37 *2439:A2 10.2643 
10 *532:37 *2438:A2 11.8893 
11 *532:8 *2437:A2 17.8 
*END

*D_NET *533 0.00397088
*CONN
*I *2459:A I *D sky130_fd_sc_hd__buf_2
*I *2498:X O *D sky130_fd_sc_hd__clkbuf_1
*CAP
1 *2459:A 0
2 *2498:X 0.00140694
3 *533:16 0.00140694
4 *2369:A1 *533:16 0
5 *2391:A *533:16 0.000222892
6 *2411:A *533:16 5.10822e-05
7 *2411:B *533:16 1.40306e-05
8 *2433:A *533:16 0
9 *2433:B *533:16 0.000133456
10 *2434:A *533:16 6.74815e-05
11 *2434:B *533:16 0.000503906
12 *319:12 *533:16 0
13 *363:10 *533:16 0.000125717
14 *382:8 *533:16 0
15 *383:10 *533:16 3.84385e-05
16 *384:10 *533:16 0
*RES
1 *2498:X *533:16 43.1036 
2 *533:16 *2459:A 9.3 
*END

*D_NET *534 0.0326372
*CONN
*I *2192:A1 I *D sky130_fd_sc_hd__a21oi_1
*I *2155:A I *D sky130_fd_sc_hd__xor2_1
*I *2130:A I *D sky130_fd_sc_hd__xnor2_1
*I *1984:A I *D sky130_fd_sc_hd__inv_2
*I *2369:C1 I *D sky130_fd_sc_hd__o211a_1
*I *1987:D I *D sky130_fd_sc_hd__or4_4
*I *2362:A I *D sky130_fd_sc_hd__xor2_1
*I *2065:C I *D sky130_fd_sc_hd__or4_4
*I *2064:C I *D sky130_fd_sc_hd__nor4_1
*I *2108:B1 I *D sky130_fd_sc_hd__a311oi_4
*I *2463:X O *D sky130_fd_sc_hd__buf_4
*CAP
1 *2192:A1 0.000551316
2 *2155:A 3.62706e-05
3 *2130:A 0
4 *1984:A 0
5 *2369:C1 2.26879e-05
6 *1987:D 0
7 *2362:A 0.000456916
8 *2065:C 0
9 *2064:C 0
10 *2108:B1 0.000247012
11 *2463:X 0
12 *534:138 0.001966
13 *534:109 0.00122208
14 *534:94 0.00131996
15 *534:77 0.00161289
16 *534:56 0.00125289
17 *534:45 0.00103469
18 *534:24 0.00181185
19 *534:14 0.000953329
20 *534:10 0.000405708
21 *534:4 0.0015784
22 *2362:A *1987:B 0.000170945
23 *2362:A *542:138 0
24 *2362:A *546:33 0
25 *534:45 *1982:A 5.03772e-05
26 *534:45 *536:44 7.69867e-05
27 *534:45 *539:58 0.000515294
28 *534:45 *542:75 2.94103e-05
29 *534:56 *536:51 0.000656788
30 *534:77 *1987:B 2.61076e-05
31 *534:77 *536:51 2.19064e-05
32 *534:77 *539:58 0
33 *534:77 *542:127 0.000225307
34 *534:77 *542:138 0.000222885
35 *534:77 *543:81 0.000287078
36 *534:77 *543:94 9.84204e-06
37 *534:94 *1987:B 8.41815e-05
38 *534:94 *538:14 9.90431e-05
39 *534:109 *1988:B 0.000139907
40 *534:109 *538:14 0.00016641
41 *534:109 *538:20 0.00266085
42 *534:109 *540:36 0.00046483
43 *534:109 *540:47 0.000934342
44 *534:109 *566:18 0.000231012
45 *534:138 *539:8 3.48235e-05
46 *534:138 *539:10 0.000338525
47 *1987:C *534:77 0.00268444
48 *2065:B *534:77 2.06112e-05
49 *2129:A2 *534:24 0.000340773
50 *2129:B1 *2108:B1 0.000411604
51 *2129:B1 *534:24 0.000186989
52 *2130:B *534:10 9.90367e-05
53 *2130:B *534:14 0.000149821
54 *2130:B *534:24 2.10446e-05
55 *2132:B *534:45 9.3927e-05
56 *2133:A1 *534:45 0.000271302
57 *2136:B *534:45 1.46231e-05
58 *2137:A1 *534:45 0.000273269
59 *2143:A1 *534:24 0.00057284
60 *2143:A2 *534:24 4.27437e-05
61 *2144:B1 *534:24 1.74352e-05
62 *2147:A *534:24 5.33005e-05
63 *2147:B *534:24 5.52238e-05
64 *2150:A2 *534:24 1.87955e-05
65 *2151:B1 *534:24 1.21258e-05
66 *2156:C *2192:A1 2.95641e-05
67 *2172:C1 *2362:A 0
68 *2191:A *2155:A 5.38444e-06
69 *2191:A *2192:A1 0.000154911
70 *2191:A *534:138 1.64583e-05
71 *2191:B *2192:A1 0.000287772
72 *2192:B1 *2192:A1 0.000200546
73 *2287:A2 *534:77 4.53834e-05
74 *2289:A *2362:A 6.8646e-06
75 *2335:B *534:109 0.000139907
76 *2335:C *534:109 4.39242e-05
77 *2347:B1 *2362:A 0.000192983
78 *2348:B *2362:A 6.05161e-06
79 *2361:B1 *2362:A 1.18064e-05
80 *2369:A2 *2369:C1 5.52302e-05
81 *2370:A1 *534:109 4.46186e-06
82 *2406:B1 *2362:A 5.33005e-05
83 *2491:A *534:14 0
84 *50:33 *534:77 8.40351e-06
85 *61:18 *534:45 7.5779e-05
86 *61:18 *534:56 5.52238e-05
87 *67:48 *2108:B1 0
88 *67:48 *534:24 0
89 *114:12 *534:10 7.18788e-05
90 *135:14 *534:138 0.000149788
91 *140:12 *2192:A1 4.23062e-05
92 *283:10 *534:45 0.000396892
93 *283:79 *534:45 4.18895e-05
94 *309:10 *534:109 0.00012401
95 *309:12 *534:109 3.34295e-05
96 *338:10 *2362:A 4.57473e-05
97 *339:12 *2362:A 4.58194e-05
98 *352:12 *2362:A 3.17148e-05
99 *471:24 *534:56 0.000433262
100 *471:24 *534:77 1.19191e-05
101 *471:28 *534:56 9.90431e-05
102 *471:42 *2108:B1 2.27416e-05
103 *471:97 *534:45 0
104 *497:12 *534:138 0
105 *499:10 *534:138 0.000255896
106 *499:22 *534:24 0.000608141
107 *516:49 *534:77 0.00101194
108 *527:12 *534:109 0.000414733
109 *527:117 *534:109 3.87941e-05
110 *527:119 *534:109 1.37292e-05
111 *531:55 *534:45 1.90936e-05
112 *531:55 *534:77 7.17259e-05
*RES
1 *2463:X *534:4 9.3 
2 *534:4 *534:10 3.96429 
3 *534:10 *534:14 9.48214 
4 *534:14 *534:24 28.7143 
5 *534:24 *2108:B1 19.6214 
6 *534:24 *534:45 33.9464 
7 *534:45 *2064:C 9.3 
8 *534:45 *534:56 7.45536 
9 *534:56 *2065:C 9.3 
10 *534:56 *534:77 27.0328 
11 *534:77 *2362:A 27.2286 
12 *534:77 *534:94 2.58929 
13 *534:94 *1987:D 9.3 
14 *534:94 *534:109 45.8571 
15 *534:109 *2369:C1 14.3357 
16 *534:14 *1984:A 13.8 
17 *534:10 *2130:A 9.3 
18 *534:4 *534:138 33.1786 
19 *534:138 *2155:A 10.0321 
20 *534:138 *2192:A1 18.8179 
*END

*D_NET *535 0.0147412
*CONN
*I *2399:A2 I *D sky130_fd_sc_hd__o22a_1
*I *2398:A2 I *D sky130_fd_sc_hd__a21oi_1
*I *2400:A2 I *D sky130_fd_sc_hd__a32o_1
*I *2370:A2 I *D sky130_fd_sc_hd__a211oi_1
*I *2414:B1 I *D sky130_fd_sc_hd__a22o_1
*I *2415:D I *D sky130_fd_sc_hd__nand4_1
*I *2406:A1 I *D sky130_fd_sc_hd__a21o_1
*I *2464:X O *D sky130_fd_sc_hd__clkbuf_2
*CAP
1 *2399:A2 0.000221628
2 *2398:A2 0.00013043
3 *2400:A2 0
4 *2370:A2 0.00159775
5 *2414:B1 0.000361271
6 *2415:D 4.47375e-05
7 *2406:A1 0.000260284
8 *2464:X 0
9 *535:70 0.000212082
10 *535:66 0.00111454
11 *535:25 0.000492909
12 *535:23 0.00211952
13 *535:21 0.00262336
14 *535:4 0.00163752
15 *2406:A1 *542:138 3.76127e-05
16 *2414:B1 *551:10 0.00010326
17 *2414:B1 *554:104 0
18 *2415:D *549:12 2.56601e-05
19 *535:23 *547:12 0.000174527
20 *535:23 *549:12 6.54177e-05
21 *535:23 *549:23 0.000209746
22 *535:25 *549:12 6.72808e-05
23 *535:66 *537:65 2.95746e-06
24 *2320:B1 *2370:A2 9.46929e-05
25 *2322:A *2370:A2 3.18676e-05
26 *2347:B1 *2406:A1 2.66133e-05
27 *2399:B2 *2398:A2 6.88458e-06
28 *2400:B1 *2398:A2 3.47641e-06
29 *2401:A2 *535:66 8.44271e-06
30 *2401:B1 *2399:A2 9.54798e-06
31 *2401:C1 *2399:A2 0
32 *2401:C1 *535:66 0.000144933
33 *2402:C1 *535:66 0
34 *2407:B *535:21 0.000158115
35 *2407:B *535:66 8.15939e-05
36 *2409:A *535:66 0
37 *2409:B *535:66 0
38 *2414:B2 *2414:B1 0.000392019
39 *2416:A1 *2370:A2 7.03811e-05
40 *2424:B *2415:D 3.69697e-05
41 *2424:B *535:23 0.000165526
42 *2424:B *535:25 9.88136e-05
43 *2437:B1 *2398:A2 0
44 *2438:B2 *535:66 0.000302636
45 *2439:A3 *2398:A2 1.14671e-05
46 *2440:B1 *535:66 3.7117e-05
47 *38:37 *2370:A2 0.000184882
48 *191:90 *2406:A1 2.8266e-06
49 *197:72 *2398:A2 0.00011746
50 *199:54 *2399:A2 0.000186669
51 *205:51 *2399:A2 2.35042e-06
52 *306:23 *2370:A2 8.02398e-05
53 *353:12 *2406:A1 0.000310298
54 *353:12 *535:21 0.000142856
55 *412:14 *535:23 0.000175512
56 *492:37 *535:66 0
57 *492:39 *535:23 0.000167256
58 *492:39 *535:66 4.84088e-05
59 *492:41 *535:23 0.000116417
60 *519:23 *2370:A2 2.24828e-05
61 *523:58 *535:66 0
*RES
1 *2464:X *535:4 9.3 
2 *535:4 *2406:A1 22.3357 
3 *535:4 *535:21 20.6429 
4 *535:21 *535:23 13.1786 
5 *535:23 *535:25 2.55357 
6 *535:25 *2415:D 14.8357 
7 *535:25 *2414:B1 27.9607 
8 *535:23 *2370:A2 33.1393 
9 *535:21 *535:66 16.2232 
10 *535:66 *535:70 1.52679 
11 *535:70 *2400:A2 13.8 
12 *535:70 *2398:A2 16.05 
13 *535:66 *2399:A2 17.5054 
*END

*D_NET *536 0.017151
*CONN
*I *2065:A I *D sky130_fd_sc_hd__or4_4
*I *1987:B I *D sky130_fd_sc_hd__or4_4
*I *2064:A I *D sky130_fd_sc_hd__nor4_1
*I *2085:B1 I *D sky130_fd_sc_hd__a21o_1
*I *2084:A I *D sky130_fd_sc_hd__and3_1
*I *2465:X O *D sky130_fd_sc_hd__buf_6
*CAP
1 *2065:A 0
2 *1987:B 0.00197266
3 *2064:A 0
4 *2085:B1 0
5 *2084:A 0.000458168
6 *2465:X 0.000435844
7 *536:51 0.00215903
8 *536:44 0.00106572
9 *536:16 0.000814768
10 *536:8 0.00167179
11 *1987:B *538:14 0.000224577
12 *1987:B *542:92 0
13 *536:8 *539:10 5.83304e-05
14 *536:8 *539:14 0.000918181
15 *536:16 *539:14 0.000197991
16 *536:44 *2317:B 1.39148e-05
17 *536:44 *542:75 0
18 *536:51 *539:71 9.61553e-05
19 *1987:C *1987:B 0.00028986
20 *2064:D *536:51 5.52238e-05
21 *2065:B *1987:B 2.06112e-05
22 *2065:D *536:51 0.000532305
23 *2084:C *536:16 0.000246064
24 *2086:A_N *2084:A 0
25 *2108:A3 *536:16 0.000288423
26 *2110:A *536:16 4.97121e-06
27 *2110:B *536:44 0.00051171
28 *2111:A0 *536:8 5.08577e-05
29 *2111:A0 *536:16 0.000150491
30 *2111:A1 *536:8 0.000177234
31 *2113:A0 *1987:B 2.60984e-05
32 *2113:S *1987:B 0.00034756
33 *2128:B *536:8 6.54051e-05
34 *2140:A *536:8 4.48113e-05
35 *2147:B *536:8 0
36 *2173:B *536:44 0.000229456
37 *2362:A *1987:B 0.000170945
38 *48:12 *536:51 3.67257e-05
39 *61:18 *536:44 5.28368e-06
40 *61:18 *536:51 0.000142856
41 *69:10 *2084:A 7.50473e-05
42 *69:10 *536:16 0
43 *70:22 *536:16 9.55563e-05
44 *95:10 *536:8 0
45 *95:19 *536:8 0
46 *121:14 *536:44 0.000107427
47 *283:10 *536:44 0
48 *495:12 *536:44 0.00176736
49 *512:21 *1987:B 0.000446603
50 *516:39 *1987:B 0
51 *516:49 *1987:B 0
52 *531:28 *536:44 0.000288564
53 *531:55 *536:44 2.04825e-05
54 *534:45 *536:44 7.69867e-05
55 *534:56 *536:51 0.000656788
56 *534:77 *1987:B 2.61076e-05
57 *534:77 *536:51 2.19064e-05
58 *534:94 *1987:B 8.41815e-05
*RES
1 *2465:X *536:8 26.3714 
2 *536:8 *536:16 14.6964 
3 *536:16 *2084:A 26.5143 
4 *536:16 *2085:B1 9.3 
5 *536:8 *536:44 38.5357 
6 *536:44 *2064:A 9.3 
7 *536:44 *536:51 8.75 
8 *536:51 *1987:B 48.8893 
9 *536:51 *2065:A 9.3 
*END

*D_NET *537 0.0192836
*CONN
*I *2356:A2 I *D sky130_fd_sc_hd__o22a_1
*I *2355:A2 I *D sky130_fd_sc_hd__a21oi_1
*I *2372:B I *D sky130_fd_sc_hd__nand2_1
*I *2429:A2 I *D sky130_fd_sc_hd__a31o_1
*I *2413:B I *D sky130_fd_sc_hd__nand2_1
*I *2357:A2 I *D sky130_fd_sc_hd__a32o_1
*I *2361:A1 I *D sky130_fd_sc_hd__a21o_1
*I *2348:A I *D sky130_fd_sc_hd__xnor2_1
*I *2466:X O *D sky130_fd_sc_hd__buf_2
*CAP
1 *2356:A2 2.3862e-05
2 *2355:A2 3.83068e-05
3 *2372:B 0
4 *2429:A2 0.000256599
5 *2413:B 0.000649376
6 *2357:A2 2.58371e-05
7 *2361:A1 4.13295e-05
8 *2348:A 0.000169467
9 *2466:X 0
10 *537:90 0.000329602
11 *537:73 0.00189112
12 *537:69 0.00136358
13 *537:65 0.000918363
14 *537:18 0.00166625
15 *537:8 0.00173713
16 *537:4 0.00099381
17 *2348:A *2347:A1 6.21659e-05
18 *2357:A2 *546:52 6.86261e-05
19 *2429:A2 *555:18 8.43535e-06
20 *537:8 *580:14 9.41642e-05
21 *537:18 *2347:A1 0.000106299
22 *537:18 *546:52 0.000754164
23 *537:65 *554:130 0.000149924
24 *537:73 *545:40 4.58096e-05
25 *537:73 *545:50 2.28578e-05
26 *537:73 *545:109 0.000353672
27 *537:73 *555:18 6.65398e-05
28 *537:73 *555:43 0.000554796
29 *537:90 *555:18 5.52238e-05
30 *2254:A_N *2356:A2 9.77264e-06
31 *2254:A_N *537:65 0.00021527
32 *2254:B *537:69 0
33 *2254:B *537:73 0
34 *2289:A *2348:A 5.71483e-05
35 *2289:A *537:18 2.49484e-05
36 *2299:A1 *2413:B 0.000271352
37 *2299:B1 *2413:B 9.41642e-05
38 *2300:A *537:73 0
39 *2315:C1 *537:65 0.000925257
40 *2323:B1 *2413:B 0.000265453
41 *2323:B1 *537:90 4.38128e-05
42 *2348:B *2348:A 7.32272e-05
43 *2351:A *537:18 2.59355e-05
44 *2356:A1 *2356:A2 5.49489e-05
45 *2357:A1 *537:8 1.98839e-05
46 *2358:A2 *537:65 0
47 *2358:A2 *537:69 2.67601e-05
48 *2360:B *2356:A2 9.66977e-05
49 *2360:B *537:65 0.000532364
50 *2361:A2 *2361:A1 2.14757e-05
51 *2365:A1 *537:18 3.61629e-06
52 *2365:A2 *537:18 1.55885e-05
53 *2365:B1 *537:18 9.46929e-05
54 *2376:A *2429:A2 6.05161e-06
55 *2401:C1 *537:65 4.6025e-06
56 *2413:A *2413:B 3.76172e-05
57 *2413:A *2429:A2 0
58 *2421:A *2413:B 0.000193117
59 *2429:A1 *2429:A2 1.97695e-05
60 *2429:A1 *537:90 5.7661e-06
61 *2438:B1 *2355:A2 9.83442e-05
62 *2441:B1 *537:65 0.00021186
63 *2453:A *537:73 0.000118349
64 *2466:A *537:65 6.93292e-05
65 *191:75 *537:18 0.000151333
66 *191:90 *2361:A1 1.33343e-05
67 *199:64 *537:8 3.80414e-05
68 *254:12 *537:73 0.000125717
69 *257:12 *537:73 0.000150625
70 *284:12 *537:73 0.000226813
71 *286:6 *2413:B 2.28499e-05
72 *287:12 *537:73 0.000150618
73 *311:12 *2429:A2 5.52302e-05
74 *311:12 *537:90 2.77173e-05
75 *339:12 *2348:A 6.05161e-06
76 *341:19 *537:18 0.000189863
77 *490:25 *2429:A2 2.04825e-05
78 *490:25 *537:69 2.8266e-06
79 *490:25 *537:73 0.000603551
80 *490:34 *537:69 3.70615e-05
81 *497:62 *537:65 9.15296e-05
82 *520:108 *2357:A2 7.95909e-05
83 *520:108 *537:18 0.000754879
84 *520:162 *2429:A2 1.21955e-05
85 *524:29 *537:73 0.000435826
86 *535:66 *537:65 2.95746e-06
*RES
1 *2466:X *537:4 9.3 
2 *537:4 *537:8 7.5 
3 *537:8 *537:18 35.0714 
4 *537:18 *2348:A 17.2107 
5 *537:18 *2361:A1 14.3357 
6 *537:8 *2357:A2 14.8357 
7 *537:4 *537:65 25.9869 
8 *537:65 *537:69 7.05357 
9 *537:69 *537:73 38.3214 
10 *537:73 *2413:B 20.5679 
11 *537:73 *537:90 1.78571 
12 *537:90 *2429:A2 21.9964 
13 *537:90 *2372:B 9.3 
14 *537:69 *2355:A2 14.7464 
15 *537:65 *2356:A2 10.2464 
*END

*D_NET *538 0.0121604
*CONN
*I *1987:A I *D sky130_fd_sc_hd__or4_4
*I *2295:B1 I *D sky130_fd_sc_hd__a22oi_1
*I *2294:D I *D sky130_fd_sc_hd__and4_1
*I *2319:B1 I *D sky130_fd_sc_hd__a22oi_1
*I *2318:D I *D sky130_fd_sc_hd__and4_1
*I *2467:X O *D sky130_fd_sc_hd__buf_8
*CAP
1 *1987:A 0
2 *2295:B1 3.39068e-05
3 *2294:D 7.6369e-05
4 *2319:B1 9.51233e-05
5 *2318:D 7.18287e-05
6 *2467:X 0.000818067
7 *538:44 0.000339786
8 *538:24 0.00048784
9 *538:20 0.00203099
10 *538:14 0.00229866
11 *2294:D *2294:C 3.08382e-06
12 *2294:D *2295:A2 3.54723e-05
13 *2295:B1 *2295:A2 0.000140933
14 *538:14 *2359:A3 0
15 *538:14 *540:36 2.88424e-05
16 *538:14 *569:16 0
17 *538:24 *540:49 0.000132477
18 *538:24 *544:29 0
19 *538:44 *540:49 2.37761e-05
20 *538:44 *540:130 7.45011e-05
21 *538:44 *544:29 0
22 *538:44 *549:107 0.000146992
23 *1987:B *538:14 0.000224577
24 *2287:A2 *538:14 0.000253963
25 *2295:A1 *2295:B1 5.52238e-05
26 *2296:B *538:44 0.000149904
27 *2304:B *538:44 1.21416e-05
28 *2319:A1 *2319:B1 6.87146e-05
29 *2319:B2 *2318:D 1.38323e-05
30 *2319:B2 *2319:B1 5.52302e-05
31 *2320:B1 *538:24 3.06466e-05
32 *2321:A *538:24 0.000216147
33 *2321:B *538:24 4.89264e-05
34 *2321:C *538:24 1.69115e-05
35 *2335:A *538:44 0
36 *2353:B *538:14 0.000266957
37 *2359:A1 *538:14 5.10282e-05
38 *280:12 *538:44 2.36032e-05
39 *305:12 *2318:D 5.52238e-05
40 *305:12 *2319:B1 0
41 *306:12 *538:24 5.38813e-05
42 *326:59 *538:14 1.39726e-05
43 *326:61 *538:14 5.4005e-05
44 *341:12 *538:14 0.000173804
45 *342:10 *538:14 7.6644e-05
46 *348:8 *538:20 5.33005e-05
47 *353:12 *538:14 8.96049e-05
48 *499:38 *538:14 4.28249e-05
49 *501:48 *538:14 0.00018372
50 *526:67 *538:14 7.61932e-05
51 *527:18 *2294:D 1.00733e-05
52 *527:18 *2295:B1 2.44318e-05
53 *534:94 *538:14 9.90431e-05
54 *534:109 *538:14 0.00016641
55 *534:109 *538:20 0.00266085
*RES
1 *2467:X *538:14 39.4786 
2 *538:14 *538:20 32.9821 
3 *538:20 *538:24 12.2143 
4 *538:24 *2318:D 10.2464 
5 *538:24 *2319:B1 11.0857 
6 *538:20 *538:44 10.0893 
7 *538:44 *2294:D 10.675 
8 *538:44 *2295:B1 10.6571 
9 *538:14 *1987:A 9.3 
*END

*D_NET *539 0.0242683
*CONN
*I *2165:A I *D sky130_fd_sc_hd__nand2_1
*I *2164:A I *D sky130_fd_sc_hd__or2_1
*I *2135:A I *D sky130_fd_sc_hd__xor2_1
*I *2141:A1 I *D sky130_fd_sc_hd__o22a_1
*I *2134:A I *D sky130_fd_sc_hd__and2_1
*I *2060:B1 I *D sky130_fd_sc_hd__a21oi_1
*I *2417:D_N I *D sky130_fd_sc_hd__or4b_1
*I *2063:A I *D sky130_fd_sc_hd__and3_1
*I *2081:A I *D sky130_fd_sc_hd__or2_1
*I *2082:A I *D sky130_fd_sc_hd__xnor2_1
*I *2468:X O *D sky130_fd_sc_hd__buf_2
*CAP
1 *2165:A 7.12796e-05
2 *2164:A 5.54148e-05
3 *2135:A 0.000191512
4 *2141:A1 2.85542e-05
5 *2134:A 0.00022247
6 *2060:B1 0
7 *2417:D_N 0.000505029
8 *2063:A 2.62694e-05
9 *2081:A 0.000259856
10 *2082:A 0.000368665
11 *2468:X 3.62408e-05
12 *539:144 0.00150863
13 *539:129 0.00157344
14 *539:103 0.000857945
15 *539:71 0.000862015
16 *539:58 0.00193652
17 *539:33 0.00209602
18 *539:14 0.00118107
19 *539:10 0.00151867
20 *539:8 0.00041848
21 *2141:A1 *581:43 7.57394e-05
22 *2164:A *2238:A 0
23 *2417:D_N *2051:C1 0.000153522
24 *2417:D_N *2055:A 0.000199699
25 *539:58 *1982:A 0.000183726
26 *539:58 *542:92 0.000258011
27 *539:71 *542:92 0
28 *539:144 *2139:A 0.000404561
29 *2065:D *2063:A 5.52238e-05
30 *2065:D *539:71 0.000316184
31 *2107:A1 *2081:A 0.000102883
32 *2107:A1 *2082:A 7.84126e-05
33 *2107:A1 *539:33 4.36655e-05
34 *2107:A2 *2082:A 6.58195e-05
35 *2108:A1 *2081:A 0.000129868
36 *2108:A2 *2081:A 1.17968e-05
37 *2110:A *539:14 0.000117388
38 *2129:B1 *2081:A 0.00038571
39 *2132:B *539:58 4.43256e-05
40 *2135:B *2135:A 0.000219456
41 *2135:B *539:144 0.000601602
42 *2136:B *539:58 0.000146895
43 *2140:A *539:10 0
44 *2142:D_N *539:103 1.15172e-05
45 *2143:A2 *539:14 9.91086e-05
46 *2144:B1 *539:14 2.39876e-05
47 *2147:B *539:103 0.000139913
48 *2148:B1 *2134:A 3.57366e-05
49 *2149:A *2134:A 0.000143375
50 *2149:C_N *2134:A 0.000206864
51 *2149:C_N *539:103 6.81083e-05
52 *2152:A *2141:A1 0.000141734
53 *2159:A1 *539:144 1.21258e-05
54 *2162:A *539:144 0.000240758
55 *2163:A0 *539:144 1.21258e-05
56 *2163:A1 *539:144 0.000185643
57 *2164:B *2164:A 6.42338e-05
58 *2165:B *2165:A 4.38128e-05
59 *2165:B *539:144 9.90431e-05
60 *2417:B *2417:D_N 0
61 *44:14 *2417:D_N 0.000125724
62 *45:42 *2417:D_N 0.000209968
63 *45:42 *539:71 1.02504e-05
64 *49:8 *539:71 5.74562e-05
65 *61:18 *539:58 0.000313241
66 *64:28 *2081:A 3.18676e-05
67 *67:22 *2081:A 1.31511e-05
68 *67:48 *2081:A 0
69 *112:36 *539:103 7.6644e-05
70 *117:16 *2134:A 3.3283e-05
71 *117:24 *2134:A 5.33005e-05
72 *118:19 *2134:A 0.0001254
73 *147:8 *539:144 0.000660801
74 *149:10 *2164:A 0.000102545
75 *149:10 *2165:A 5.71472e-05
76 *471:16 *2417:D_N 0.000599462
77 *471:24 *539:58 0
78 *471:24 *539:71 0
79 *471:97 *539:58 0
80 *497:12 *539:8 3.92854e-05
81 *497:12 *539:10 0.000424187
82 *497:12 *539:103 2.22999e-05
83 *498:10 *2135:A 1.00073e-05
84 *499:10 *539:10 0
85 *499:22 *2134:A 2.70242e-05
86 *499:22 *539:10 0
87 *499:22 *539:14 0
88 *510:37 *2165:A 2.65105e-05
89 *510:37 *539:144 4.05247e-05
90 *510:59 *539:103 0.0002083
91 *534:45 *539:58 0.000515294
92 *534:77 *539:58 0
93 *534:138 *539:8 3.48235e-05
94 *534:138 *539:10 0.000338525
95 *536:8 *539:10 5.83304e-05
96 *536:8 *539:14 0.000918181
97 *536:16 *539:14 0.000197991
98 *536:51 *539:71 9.61553e-05
*RES
1 *2468:X *539:8 14.8357 
2 *539:8 *539:10 11.3571 
3 *539:10 *539:14 18.8929 
4 *539:14 *2082:A 24.3714 
5 *539:14 *539:33 3.55357 
6 *539:33 *2081:A 25.6393 
7 *539:33 *539:58 34.4107 
8 *539:58 *2063:A 9.83571 
9 *539:58 *539:71 11.5 
10 *539:71 *2417:D_N 37.3357 
11 *539:71 *2060:B1 13.8 
12 *539:10 *539:103 17.2321 
13 *539:103 *2134:A 19.3 
14 *539:103 *2141:A1 15.1571 
15 *539:8 *539:129 4.5 
16 *539:129 *2135:A 12.2107 
17 *539:129 *539:144 23.2679 
18 *539:144 *2164:A 19.9429 
19 *539:144 *2165:A 11.0857 
*END

*D_NET *540 0.0152753
*CONN
*I *2295:A2 I *D sky130_fd_sc_hd__a22oi_1
*I *2294:C I *D sky130_fd_sc_hd__and4_1
*I *2319:A2 I *D sky130_fd_sc_hd__a22oi_1
*I *2318:C I *D sky130_fd_sc_hd__and4_1
*I *2374:C I *D sky130_fd_sc_hd__and4_1
*I *2416:A2 I *D sky130_fd_sc_hd__a22o_1
*I *2373:A2 I *D sky130_fd_sc_hd__a22oi_1
*I *1988:A I *D sky130_fd_sc_hd__or2_4
*I *2032:A1 I *D sky130_fd_sc_hd__a21o_1
*I *1996:C1 I *D sky130_fd_sc_hd__a211oi_2
*I *2469:X O *D sky130_fd_sc_hd__buf_2
*CAP
1 *2295:A2 0.000186007
2 *2294:C 2.9346e-05
3 *2319:A2 0.000345338
4 *2318:C 0
5 *2374:C 0.000140591
6 *2416:A2 0.000615952
7 *2373:A2 0.00012457
8 *1988:A 2.23854e-05
9 *2032:A1 0.000128261
10 *1996:C1 0
11 *2469:X 0.000202257
12 *540:130 0.000362332
13 *540:70 0.000919332
14 *540:53 0.000621202
15 *540:51 0.000353081
16 *540:49 0.000632719
17 *540:47 0.00135094
18 *540:36 0.00199302
19 *540:17 0.00118679
20 *540:8 0.000225973
21 *2032:A1 *2359:A3 0.000148903
22 *2319:A2 *544:29 1.94879e-05
23 *2319:A2 *566:18 8.22793e-06
24 *2416:A2 *548:18 5.17614e-05
25 *540:8 *1996:B1 1.3701e-05
26 *540:8 *550:85 5.80423e-05
27 *540:17 *550:85 2.89016e-05
28 *540:36 *1988:B 7.32272e-05
29 *540:36 *2359:A3 0.00026367
30 *540:53 *544:29 0
31 *540:130 *549:107 5.10822e-05
32 *2032:B1 *2032:A1 2.89016e-05
33 *2287:A2 *540:36 0
34 *2294:D *2294:C 3.08382e-06
35 *2294:D *2295:A2 3.54723e-05
36 *2295:A1 *2295:A2 2.21925e-05
37 *2295:B1 *2295:A2 0.000140933
38 *2303:B *2295:A2 7.63225e-05
39 *2317:A *2319:A2 7.13226e-06
40 *2318:B *540:49 3.36969e-05
41 *2318:B *540:51 3.44114e-05
42 *2318:B *540:53 1.02504e-05
43 *2320:A2 *540:53 0
44 *2320:B1 *540:51 1.59145e-05
45 *2320:B1 *540:53 6.65302e-05
46 *2321:A *540:49 0.000105824
47 *2321:A *540:51 4.22135e-06
48 *2373:B2 *2374:C 4.08637e-05
49 *2416:A1 *2416:A2 3.18676e-05
50 *2418:A *2416:A2 5.52302e-05
51 *2418:B *2416:A2 3.23206e-05
52 *2418:C *2416:A2 0.000105007
53 *2419:B1 *2416:A2 4.87953e-05
54 *2420:A_N *2416:A2 5.52238e-05
55 *50:33 *2032:A1 0
56 *50:33 *540:36 0
57 *280:12 *2295:A2 9.71197e-05
58 *306:12 *540:53 0
59 *367:12 *2373:A2 4.75428e-05
60 *367:12 *540:70 0.000178847
61 *490:25 *2374:C 0.000222878
62 *497:93 *2416:A2 0.000596946
63 *497:93 *540:53 0
64 *497:93 *540:70 3.82357e-05
65 *517:95 *2032:A1 5.33005e-05
66 *519:23 *2373:A2 6.35892e-05
67 *519:23 *540:53 0.00012487
68 *519:44 *540:49 0.000199171
69 *519:44 *540:53 6.76178e-05
70 *519:44 *540:130 0.000110545
71 *520:58 *2416:A2 8.19334e-05
72 *520:162 *2373:A2 4.46186e-06
73 *523:109 *540:49 5.41794e-05
74 *523:133 *2374:C 5.33005e-05
75 *525:27 *2374:C 0.000221163
76 *525:43 *540:53 0
77 *526:12 *540:70 8.57023e-05
78 *526:22 *540:53 0
79 *526:22 *540:70 0.000182694
80 *527:18 *2295:A2 2.11789e-05
81 *534:109 *540:36 0.00046483
82 *534:109 *540:47 0.000934342
83 *538:14 *540:36 2.88424e-05
84 *538:24 *540:49 0.000132477
85 *538:44 *540:49 2.37761e-05
86 *538:44 *540:130 7.45011e-05
*RES
1 *2469:X *540:8 12.2107 
2 *540:8 *1996:C1 9.3 
3 *540:8 *540:17 5.03571 
4 *540:17 *2032:A1 16.2821 
5 *540:17 *540:36 19.6071 
6 *540:36 *1988:A 9.72857 
7 *540:36 *540:47 21.4643 
8 *540:47 *540:49 8.16964 
9 *540:49 *540:51 0.580357 
10 *540:51 *540:53 7.10714 
11 *540:53 *2373:A2 16.733 
12 *540:53 *540:70 8.32143 
13 *540:70 *2416:A2 23.7107 
14 *540:70 *2374:C 22.1036 
15 *540:51 *2318:C 13.8 
16 *540:49 *2319:A2 21.6676 
17 *540:47 *540:130 8.57143 
18 *540:130 *2294:C 10.0321 
19 *540:130 *2295:A2 14.0902 
*END

*D_NET *541 0.00842414
*CONN
*I *2285:A2 I *D sky130_fd_sc_hd__a32o_1
*I *2284:A2 I *D sky130_fd_sc_hd__o22a_1
*I *2278:A2 I *D sky130_fd_sc_hd__a21oi_1
*I *2277:B I *D sky130_fd_sc_hd__and3_1
*I *2283:A2 I *D sky130_fd_sc_hd__a21oi_1
*I *2470:X O *D sky130_fd_sc_hd__dlymetal6s2s_1
*CAP
1 *2285:A2 0.000120223
2 *2284:A2 0
3 *2278:A2 0.000209769
4 *2277:B 0.00022667
5 *2283:A2 2.23854e-05
6 *2470:X 0
7 *541:35 0.00121225
8 *541:21 0.000846276
9 *541:12 0.00105264
10 *541:4 0.00108002
11 *2202:B *541:12 2.89114e-05
12 *2257:B1 *541:35 0.000173135
13 *2263:A *2285:A2 3.18676e-05
14 *2277:C *2278:A2 0.000129534
15 *2280:A *2277:B 3.18676e-05
16 *2280:A *2278:A2 5.52302e-05
17 *2284:A1 *2283:A2 0
18 *2284:A1 *541:35 3.57366e-05
19 *2284:B2 *541:21 0.00010096
20 *2284:B2 *541:35 4.58679e-05
21 *2285:A1 *2285:A2 0
22 *2285:B1 *2285:A2 2.39852e-05
23 *2285:B2 *2285:A2 9.90367e-05
24 *2285:B2 *541:12 1.31516e-05
25 *2458:A *2277:B 0.000368471
26 *2458:A *2278:A2 0.000338557
27 *2511:A *541:12 0.000174663
28 *186:10 *541:12 2.59355e-05
29 *188:75 *541:35 0.000100823
30 *190:16 *541:21 9.71197e-05
31 *263:8 *2278:A2 2.99737e-05
32 *326:22 *2285:A2 0.000363837
33 *514:35 *541:35 5.30346e-05
34 *521:14 *541:21 1.21289e-05
35 *521:14 *541:35 0.000188238
36 *521:18 *541:21 2.28598e-05
37 *521:22 *541:12 0.000722921
38 *521:22 *541:21 1.21289e-05
39 *521:47 *2285:A2 6.46643e-05
40 *521:47 *541:12 0.000149762
41 *529:47 *2277:B 0.000120943
42 *529:47 *541:35 3.85621e-05
*RES
1 *2470:X *541:4 9.3 
2 *541:4 *541:12 30.2679 
3 *541:12 *2283:A2 9.72857 
4 *541:12 *541:21 2.17857 
5 *541:21 *541:35 20.5804 
6 *541:35 *2277:B 15.2018 
7 *541:35 *2278:A2 15.5232 
8 *541:21 *2284:A2 9.3 
9 *541:4 *2285:A2 13.4429 
*END

*D_NET *542 0.0273393
*CONN
*I *2031:A1 I *D sky130_fd_sc_hd__o21ba_4
*I *2470:A I *D sky130_fd_sc_hd__dlymetal6s2s_1
*I *2261:A I *D sky130_fd_sc_hd__xnor2_1
*I *2469:A I *D sky130_fd_sc_hd__buf_2
*I *2036:A I *D sky130_fd_sc_hd__nor2_1
*I *1982:A I *D sky130_fd_sc_hd__inv_2
*I *2139:A I *D sky130_fd_sc_hd__xnor2_1
*I *2157:B2 I *D sky130_fd_sc_hd__o32a_1
*I *2141:B1 I *D sky130_fd_sc_hd__o22a_1
*I *2471:X O *D sky130_fd_sc_hd__clkbuf_4
*CAP
1 *2031:A1 0
2 *2470:A 0.000252659
3 *2261:A 0.000133616
4 *2469:A 0
5 *2036:A 0
6 *1982:A 6.98947e-05
7 *2139:A 0.000596347
8 *2157:B2 0
9 *2141:B1 4.79865e-05
10 *2471:X 6.59684e-05
11 *542:138 0.00167627
12 *542:127 0.0023412
13 *542:115 0.00133189
14 *542:92 0.00145539
15 *542:75 0.00202674
16 *542:41 0.00111426
17 *542:18 0.000955099
18 *542:6 0.00123731
19 *2139:A *2157:A2 4.6361e-05
20 *542:18 *2146:B1 0.000311907
21 *542:18 *581:43 0.000111771
22 *542:92 *2051:C1 0
23 *542:92 *543:81 0.000109996
24 *542:115 *2049:A2 0.000302004
25 *542:115 *2525:A 5.36229e-05
26 *542:127 *543:94 0.000339452
27 *1987:B *542:92 0
28 *2049:A1 *542:115 0.000136951
29 *2049:B1 *542:115 7.67221e-05
30 *2069:B *542:92 4.97876e-05
31 *2071:B *542:92 5.52238e-05
32 *2077:B1 *542:92 5.02646e-05
33 *2079:B1 *542:92 0
34 *2097:B1 *542:115 0.000112678
35 *2126:A1 *542:75 6.0038e-05
36 *2139:B *2139:A 4.45419e-05
37 *2146:A1 *542:18 0.000184745
38 *2146:A2 *542:41 0.000123352
39 *2148:A3 *2139:A 3.19909e-05
40 *2148:A3 *542:41 0.00024936
41 *2148:B1 *542:41 5.79582e-06
42 *2152:A *2141:B1 0.00018408
43 *2152:A *542:18 0.000243371
44 *2162:A *2139:A 9.99853e-05
45 *2162:B *2139:A 7.6507e-05
46 *2170:A2 *542:75 1.98839e-05
47 *2174:A *542:75 0
48 *2263:A *2470:A 0.000326268
49 *2264:B *2261:A 1.59782e-05
50 *2285:B1 *2470:A 2.39148e-05
51 *2285:B2 *2470:A 2.56366e-05
52 *2287:A2 *542:138 0.00105195
53 *2289:A *542:138 0
54 *2292:B *542:138 5.10822e-05
55 *2346:B1 *542:138 7.67315e-05
56 *2347:B1 *542:138 0
57 *2352:A *542:138 0.000220747
58 *2354:C *542:138 0.000169676
59 *2362:A *542:138 0
60 *2406:A1 *542:138 3.76127e-05
61 *2417:C *542:92 4.71964e-05
62 *2510:A *2261:A 8.2395e-05
63 *2510:A *542:138 0
64 *31:10 *542:115 0.00041461
65 *49:8 *542:92 0
66 *49:20 *542:92 0
67 *52:10 *542:92 0.000262099
68 *61:18 *542:92 0.000450591
69 *97:28 *542:75 9.65075e-05
70 *107:27 *542:75 0.000275155
71 *110:10 *542:18 6.5185e-05
72 *117:49 *2139:A 1.07319e-05
73 *117:49 *542:41 7.14981e-06
74 *121:22 *2141:B1 0.000225995
75 *121:22 *542:18 8.2607e-05
76 *121:37 *2139:A 0.000290288
77 *121:43 *2139:A 3.5848e-05
78 *126:23 *542:41 9.08946e-05
79 *129:23 *542:6 9.90367e-05
80 *129:23 *542:75 0.000221641
81 *129:38 *542:75 0.000123617
82 *158:12 *542:75 0.000637686
83 *191:28 *2261:A 5.59013e-05
84 *191:60 *2261:A 0.000173083
85 *191:90 *542:138 0
86 *192:91 *542:138 6.20855e-06
87 *283:79 *1982:A 2.95726e-05
88 *283:79 *542:92 8.37335e-05
89 *294:12 *542:127 0.00108217
90 *326:26 *2261:A 0.000269428
91 *326:26 *2470:A 0.000183726
92 *336:8 *542:138 0.000287251
93 *339:12 *542:138 0
94 *471:97 *542:75 0.000300275
95 *477:16 *542:115 0.000418732
96 *516:49 *542:92 8.22793e-06
97 *516:49 *542:127 0
98 *516:51 *542:127 0
99 *516:99 *542:115 0.000186669
100 *517:95 *542:127 2.15245e-05
101 *521:47 *2470:A 8.27532e-05
102 *524:91 *2261:A 0.000271345
103 *524:91 *2470:A 0.000600589
104 *531:28 *542:75 0
105 *534:45 *1982:A 5.03772e-05
106 *534:45 *542:75 2.94103e-05
107 *534:77 *542:127 0.000225307
108 *534:77 *542:138 0.000222885
109 *536:44 *542:75 0
110 *539:58 *1982:A 0.000183726
111 *539:58 *542:92 0.000258011
112 *539:71 *542:92 0
113 *539:144 *2139:A 0.000404561
*RES
1 *2471:X *542:6 10.2464 
2 *542:6 *542:18 19.125 
3 *542:18 *2141:B1 11.4786 
4 *542:18 *542:41 15.4266 
5 *542:41 *2157:B2 13.8 
6 *542:41 *2139:A 27.2643 
7 *542:6 *542:75 26.9107 
8 *542:75 *1982:A 11.4964 
9 *542:75 *542:92 33.7857 
10 *542:92 *2036:A 9.3 
11 *542:92 *542:115 12.1964 
12 *542:115 *542:127 36.7321 
13 *542:127 *2469:A 13.8 
14 *542:127 *542:138 35.8929 
15 *542:138 *2261:A 23.7464 
16 *542:138 *2470:A 25.675 
17 *542:115 *2031:A1 9.3 
*END

*D_NET *543 0.0213792
*CONN
*I *2238:A I *D sky130_fd_sc_hd__xnor2_1
*I *2171:C1 I *D sky130_fd_sc_hd__o211a_1
*I *2009:A I *D sky130_fd_sc_hd__nor2_1
*I *2010:A I *D sky130_fd_sc_hd__or2_1
*I *1983:A I *D sky130_fd_sc_hd__inv_2
*I *2115:A I *D sky130_fd_sc_hd__nor2_1
*I *2116:A I *D sky130_fd_sc_hd__and2_1
*I *2043:A I *D sky130_fd_sc_hd__nand2_1
*I *2100:B1 I *D sky130_fd_sc_hd__a21oi_1
*I *2101:A I *D sky130_fd_sc_hd__and3_1
*I *2472:X O *D sky130_fd_sc_hd__clkbuf_4
*CAP
1 *2238:A 0.00113089
2 *2171:C1 4.87162e-05
3 *2009:A 0.000105737
4 *2010:A 0
5 *1983:A 0
6 *2115:A 0
7 *2116:A 0
8 *2043:A 0.00166291
9 *2100:B1 1.126e-05
10 *2101:A 5.29495e-06
11 *2472:X 0
12 *543:110 0.00148935
13 *543:94 0.000534421
14 *543:81 0.00169531
15 *543:69 0.00178754
16 *543:58 0.0003877
17 *543:18 6.55016e-05
18 *543:14 0.00236586
19 *543:8 0.000760523
20 *543:4 0.000283053
21 *2238:A *578:31 0
22 *2238:A *578:33 0
23 *543:58 *2472:A 0.00011184
24 *543:58 *546:8 0.00010326
25 *543:58 *546:33 2.59355e-05
26 *543:94 *550:97 0
27 *543:110 *2172:A2 0
28 *2009:B *2009:A 1.97695e-05
29 *2028:B1 *543:94 3.87377e-05
30 *2029:B1 *2009:A 1.40306e-05
31 *2074:A *543:81 0.000108229
32 *2087:B *2043:A 0.000184225
33 *2088:B *2043:A 5.70551e-05
34 *2090:C *2043:A 0
35 *2092:C *2043:A 9.87983e-06
36 *2096:A *2043:A 0.000128154
37 *2100:A2 *2043:A 2.6949e-05
38 *2101:C *2100:B1 5.52238e-05
39 *2101:C *2101:A 3.47984e-05
40 *2103:B *2043:A 0
41 *2105:A1 *2043:A 8.00806e-05
42 *2108:C1 *2043:A 4.25619e-05
43 *2108:C1 *543:14 0.000100268
44 *2116:B *543:8 0.000115586
45 *2116:B *543:58 0.000120257
46 *2121:B *543:81 0
47 *2133:A0 *2043:A 0
48 *2133:A0 *543:14 0
49 *2133:A1 *543:14 0.000190219
50 *2137:A0 *543:14 0
51 *2137:A1 *543:14 0
52 *2137:S *543:14 9.80029e-05
53 *2164:A *2238:A 0
54 *2166:D *2238:A 0
55 *2173:A *543:58 9.25014e-06
56 *2173:B *543:14 0
57 *2177:A2 *2171:C1 0.000315165
58 *2179:C *2238:A 0
59 *2179:C *543:110 0
60 *2189:A1 *2238:A 0
61 *2190:B1 *2238:A 0
62 *2190:B2 *2238:A 6.32633e-05
63 *2193:A1 *2238:A 0.000157578
64 *2193:A2 *2238:A 0.000168698
65 *2193:B1 *2238:A 0.000148903
66 *2196:A *2238:A 0.000128154
67 *2197:A1 *2238:A 0
68 *2230:B *2238:A 0
69 *2232:B *2238:A 0
70 *74:10 *2043:A 6.74815e-05
71 *76:14 *2043:A 0
72 *82:10 *2043:A 7.10006e-05
73 *82:19 *2043:A 4.07852e-05
74 *84:12 *2100:B1 3.78142e-05
75 *84:12 *2101:A 3.16956e-05
76 *97:18 *2171:C1 0.000315165
77 *97:28 *543:69 0.000429928
78 *99:10 *543:58 0.000116481
79 *100:10 *543:8 1.21289e-05
80 *100:10 *543:14 8.50596e-05
81 *106:8 *543:69 1.58163e-05
82 *106:12 *543:81 0.000146474
83 *106:34 *543:81 7.22594e-05
84 *106:34 *543:110 0.00014576
85 *163:10 *2238:A 0
86 *283:18 *2043:A 0
87 *283:79 *2238:A 6.72518e-05
88 *283:79 *543:81 0.000742134
89 *283:79 *543:110 0.000508125
90 *283:102 *2238:A 0.000171368
91 *294:12 *543:81 1.94945e-05
92 *423:19 *2009:A 0.000271352
93 *439:10 *2009:A 2.79421e-05
94 *470:12 *543:94 0
95 *471:97 *543:69 4.43256e-05
96 *471:97 *543:81 0
97 *474:10 *543:94 0
98 *495:12 *543:58 1.69115e-05
99 *496:12 *543:14 0
100 *499:38 *543:69 0.000688836
101 *516:49 *543:81 0.0010323
102 *517:95 *543:94 0.000310041
103 *531:55 *543:81 0.000154763
104 *534:77 *543:81 0.000287078
105 *534:77 *543:94 9.84204e-06
106 *542:92 *543:81 0.000109996
107 *542:127 *543:94 0.000339452
*RES
1 *2472:X *543:4 9.3 
2 *543:4 *543:8 2.60714 
3 *543:8 *543:14 17.1071 
4 *543:14 *543:18 5.03571 
5 *543:18 *2101:A 9.63036 
6 *543:18 *2100:B1 9.83571 
7 *543:14 *2043:A 43.4786 
8 *543:8 *2116:A 9.3 
9 *543:4 *543:58 13.7321 
10 *543:58 *2115:A 9.3 
11 *543:58 *543:69 11.625 
12 *543:69 *543:81 24.7337 
13 *543:81 *1983:A 9.3 
14 *543:81 *543:94 19.1429 
15 *543:94 *2010:A 9.3 
16 *543:94 *2009:A 12.3179 
17 *543:69 *543:110 6.80357 
18 *543:110 *2171:C1 16.8 
19 *543:110 *2238:A 36.0857 
*END

*D_NET *544 0.0131009
*CONN
*I *2223:A2 I *D sky130_fd_sc_hd__a22o_1
*I *2221:A1 I *D sky130_fd_sc_hd__o22a_1
*I *2456:A I *D sky130_fd_sc_hd__clkbuf_4
*I *2499:X O *D sky130_fd_sc_hd__buf_1
*CAP
1 *2223:A2 0.000287191
2 *2221:A1 7.1297e-05
3 *2456:A 0
4 *2499:X 0.00153061
5 *544:31 0.000358488
6 *544:29 0.00179758
7 *544:16 0.00332819
8 *2221:A1 *2221:A2 0.000186662
9 *2223:A2 *2221:A2 0.000181796
10 *2223:A2 *549:124 0.000194809
11 *2223:A2 *551:118 6.8646e-06
12 *544:16 *555:18 0.00103358
13 *544:29 *549:107 0
14 *544:29 *566:18 0.00155651
15 *2221:B2 *544:29 0
16 *2227:A2 *2223:A2 0
17 *2227:B2 *2223:A2 4.5987e-05
18 *2282:B1 *2223:A2 0
19 *2282:B1 *544:29 0.000383281
20 *2286:A1 *544:29 0
21 *2304:A *544:29 0.000307885
22 *2304:B *544:29 1.41029e-05
23 *2314:A2 *544:29 0.000150618
24 *2314:B1 *544:29 0
25 *2319:A2 *544:29 1.94879e-05
26 *2320:A2 *544:29 0.000237449
27 *2321:C *544:29 0.000199698
28 *2335:A *544:29 0.000103253
29 *2433:B *544:16 0
30 *2498:A *544:16 2.69614e-05
31 *2500:A *544:16 9.09514e-05
32 *199:31 *544:29 0
33 *199:46 *544:29 0
34 *280:12 *544:29 2.37761e-05
35 *289:10 *544:29 1.08359e-05
36 *320:12 *544:16 0.000128154
37 *320:12 *544:29 0.00020455
38 *514:35 *544:29 0.000217851
39 *514:43 *544:29 7.72826e-05
40 *519:23 *544:16 0
41 *519:23 *544:29 0
42 *521:14 *544:29 0.000240484
43 *526:12 *544:29 4.57445e-05
44 *527:46 *2223:A2 1.83776e-05
45 *527:89 *2223:A2 2.05484e-05
46 *538:24 *544:29 0
47 *538:44 *544:29 0
48 *540:53 *544:29 0
*RES
1 *2499:X *544:16 47.175 
2 *544:16 *2456:A 13.8 
3 *544:16 *544:29 49.3571 
4 *544:29 *544:31 4.5 
5 *544:31 *2221:A1 11.0679 
6 *544:31 *2223:A2 24.2821 
*END

*D_NET *545 0.0247641
*CONN
*I *2248:B I *D sky130_fd_sc_hd__and4b_1
*I *2247:A2_N I *D sky130_fd_sc_hd__o2bb2a_1
*I *2253:B I *D sky130_fd_sc_hd__nand2_1
*I *2269:B I *D sky130_fd_sc_hd__nand2_1
*I *2323:A2 I *D sky130_fd_sc_hd__a31oi_2
*I *2423:B I *D sky130_fd_sc_hd__nand2_1
*I *2324:B I *D sky130_fd_sc_hd__nand2_1
*I *2377:B I *D sky130_fd_sc_hd__nand2_1
*I *1988:B I *D sky130_fd_sc_hd__or2_4
*I *1996:A1 I *D sky130_fd_sc_hd__a211oi_2
*I *2473:X O *D sky130_fd_sc_hd__clkbuf_4
*CAP
1 *2248:B 7.45449e-05
2 *2247:A2_N 0.000336597
3 *2253:B 8.9042e-05
4 *2269:B 0
5 *2323:A2 0
6 *2423:B 0.00103057
7 *2324:B 0.000118232
8 *2377:B 1.99716e-05
9 *1988:B 8.99181e-05
10 *1996:A1 0.000205449
11 *2473:X 0
12 *545:140 0.00132428
13 *545:138 0.00263114
14 *545:109 0.00216115
15 *545:54 0.000212877
16 *545:52 0.00154479
17 *545:50 0.00102
18 *545:40 0.000616398
19 *545:38 0.0014309
20 *545:21 0.00145308
21 *545:4 0.000527761
22 *1988:B *554:104 0.000148196
23 *1996:A1 *1996:B1 5.33005e-05
24 *1996:A1 *2032:A2 7.83659e-05
25 *1996:A1 *2473:A 1.37292e-05
26 *1996:A1 *550:85 0.000164844
27 *2423:B *554:8 7.3237e-05
28 *2423:B *554:25 0.000107777
29 *2423:B *554:49 4.94455e-05
30 *545:21 *550:85 0.000292976
31 *545:38 *548:109 0.000208678
32 *545:50 *555:43 0.000104183
33 *545:52 *548:28 0
34 *545:109 *555:43 0.000150027
35 *545:138 *549:107 7.10831e-05
36 *545:140 *2244:A2 0.000125731
37 *545:140 *2246:B 0
38 *1990:A1 *1996:A1 9.25014e-06
39 *1996:A2 *1996:A1 9.60875e-05
40 *2244:B1 *545:140 0
41 *2247:B1 *2248:B 7.0528e-05
42 *2247:B2 *2247:A2_N 5.52238e-05
43 *2248:A_N *2247:A2_N 0.000169359
44 *2248:C *2247:A2_N 9.02331e-05
45 *2248:D *2248:B 5.52302e-05
46 *2249:B *2247:A2_N 5.52238e-05
47 *2268:B *2247:A2_N 0
48 *2268:B *2248:B 2.97074e-05
49 *2268:B *545:140 5.26091e-05
50 *2275:A_N *545:140 7.92975e-05
51 *2276:B *545:140 0
52 *2295:A1 *545:138 0.000441737
53 *2297:B1_N *545:50 5.59013e-05
54 *2298:A *545:52 0
55 *2300:A *545:109 5.57914e-05
56 *2300:B *545:40 0
57 *2300:B *545:50 6.79451e-06
58 *2300:B *545:52 2.8266e-06
59 *2300:B *545:109 0
60 *2307:B *545:140 0
61 *2377:A *2377:B 3.40128e-05
62 *2377:A *545:54 1.17968e-05
63 *2382:A *2324:B 8.01726e-05
64 *2382:B *2377:B 1.41706e-05
65 *2395:B *545:138 0.000236492
66 *2396:B *545:140 0.000218734
67 *2402:A2 *1988:B 0.000146474
68 *2403:A1 *545:138 0.000196262
69 *2408:A *2253:B 0
70 *2426:A *2423:B 0
71 *2426:B *2423:B 0.000126639
72 *2427:B *2423:B 0.000154027
73 *2432:A *545:52 0.00010326
74 *2435:A *545:138 5.52238e-05
75 *2441:B1 *545:140 0
76 *2453:A *545:50 5.54602e-05
77 *2453:A *545:52 9.97744e-05
78 *2482:A *2423:B 9.58508e-05
79 *2513:A *545:138 5.52238e-05
80 *227:10 *2248:B 2.05938e-05
81 *227:10 *545:140 2.56601e-05
82 *229:21 *2247:A2_N 1.19402e-05
83 *233:12 *2247:A2_N 5.33786e-05
84 *253:8 *545:140 0.000397233
85 *256:10 *545:50 0.000101545
86 *259:18 *545:140 0.000774315
87 *285:10 *545:50 7.25296e-05
88 *334:12 *545:140 0
89 *369:6 *545:21 6.66848e-05
90 *369:6 *545:38 0.00014961
91 *369:21 *1996:A1 1.08359e-05
92 *375:14 *2324:B 5.62995e-05
93 *388:10 *545:138 2.59093e-05
94 *397:12 *545:138 0.000135028
95 *405:12 *545:138 0.00015304
96 *448:42 *2324:B 0.000138816
97 *490:25 *545:52 0
98 *493:26 *545:140 0.000123067
99 *518:38 *2324:B 0.000277481
100 *518:53 *545:52 0.000268868
101 *518:53 *545:54 3.69697e-05
102 *523:31 *545:50 0.00017309
103 *523:31 *545:52 1.02504e-05
104 *523:39 *545:50 0.000808467
105 *523:58 *545:109 0
106 *524:29 *545:38 2.48062e-05
107 *524:29 *545:50 0.00066124
108 *528:41 *2247:A2_N 1.32966e-05
109 *534:109 *1988:B 0.000139907
110 *537:73 *545:40 4.58096e-05
111 *537:73 *545:50 2.28578e-05
112 *537:73 *545:109 0.000353672
113 *540:36 *1988:B 7.32272e-05
*RES
1 *2473:X *545:4 9.3 
2 *545:4 *1996:A1 22.4607 
3 *545:4 *545:21 4.23214 
4 *545:21 *1988:B 21.6036 
5 *545:21 *545:38 17.3571 
6 *545:38 *545:40 1.03571 
7 *545:40 *545:50 18.4464 
8 *545:50 *545:52 10.4464 
9 *545:52 *545:54 1.33929 
10 *545:54 *2377:B 14.5321 
11 *545:54 *2324:B 18.8893 
12 *545:52 *2423:B 37.1929 
13 *545:50 *2323:A2 13.8 
14 *545:40 *2269:B 13.8 
15 *545:38 *545:109 13.125 
16 *545:109 *2253:B 10.675 
17 *545:109 *545:138 40 
18 *545:138 *545:140 24.1071 
19 *545:140 *2247:A2_N 28.5143 
20 *545:140 *2248:B 15.675 
*END

*D_NET *546 0.0212713
*CONN
*I *2260:A3 I *D sky130_fd_sc_hd__o31a_1
*I *2255:A2 I *D sky130_fd_sc_hd__o22a_1
*I *2256:A2 I *D sky130_fd_sc_hd__a32o_1
*I *2473:A I *D sky130_fd_sc_hd__clkbuf_4
*I *2472:A I *D sky130_fd_sc_hd__clkbuf_4
*I *2474:X O *D sky130_fd_sc_hd__clkbuf_2
*CAP
1 *2260:A3 0.000778146
2 *2255:A2 0.000840464
3 *2256:A2 0.000136812
4 *2473:A 0.000221359
5 *2472:A 3.67823e-05
6 *2474:X 3.44018e-05
7 *546:54 0.000977275
8 *546:52 0.00160709
9 *546:41 0.00159755
10 *546:33 0.00297001
11 *546:8 0.00249395
12 *2255:A2 *2312:A 0.00149127
13 *2255:A2 *555:43 3.39401e-05
14 *2255:A2 *555:68 0.000100724
15 *2260:A3 *552:10 0
16 *2473:A *2032:A2 0
17 *2473:A *569:16 0
18 *546:33 *2347:A1 0.00039997
19 *546:41 *569:16 0
20 *546:52 *569:16 0
21 *1996:A1 *2473:A 1.37292e-05
22 *2076:A *546:33 7.53208e-05
23 *2076:B *546:33 4.88515e-05
24 *2116:B *2472:A 5.71472e-05
25 *2116:B *546:33 1.82549e-05
26 *2121:A *546:33 0.000106455
27 *2125:A2 *546:33 0.000437756
28 *2126:C1 *546:33 7.45591e-05
29 *2172:C1 *546:33 1.41029e-05
30 *2173:A *2472:A 1.08359e-05
31 *2213:B *2260:A3 0
32 *2255:B2 *2255:A2 1.7845e-05
33 *2256:A1 *2256:A2 7.43578e-06
34 *2256:A1 *2260:A3 6.72808e-05
35 *2262:A *2260:A3 0
36 *2289:A *546:33 1.19309e-05
37 *2313:B2 *2256:A2 2.22043e-05
38 *2347:B1 *546:33 1.02936e-05
39 *2347:B1 *546:41 7.43578e-06
40 *2357:A2 *546:52 6.86261e-05
41 *2360:C *546:52 0
42 *2362:A *546:33 0
43 *2367:B *546:52 7.83587e-05
44 *2506:A *2260:A3 0.000262234
45 *2511:A *2256:A2 9.60337e-06
46 *2511:A *2260:A3 0.00101082
47 *2511:A *546:52 0.00024931
48 *2535:A *2473:A 0.000170661
49 *105:6 *546:33 2.65105e-05
50 *110:10 *546:33 1.26754e-06
51 *182:8 *546:41 0.000400619
52 *188:32 *2255:A2 2.95382e-05
53 *191:14 *2260:A3 0.00061338
54 *191:28 *2260:A3 5.71472e-05
55 *197:10 *2260:A3 0.000259664
56 *205:67 *546:52 1.7606e-05
57 *230:6 *2260:A3 1.24368e-05
58 *337:12 *2473:A 0
59 *337:34 *2473:A 0
60 *337:34 *546:41 0.000230482
61 *343:23 *546:52 0
62 *355:12 *546:52 2.84009e-05
63 *369:21 *2473:A 5.58941e-05
64 *495:12 *2472:A 4.48583e-05
65 *495:12 *546:8 4.98872e-05
66 *516:28 *546:33 5.06983e-05
67 *519:98 *2255:A2 0.00084912
68 *519:104 *2255:A2 0.000198012
69 *519:104 *2256:A2 8.60225e-05
70 *520:108 *2260:A3 2.72602e-05
71 *520:108 *2473:A 0.000113434
72 *520:108 *546:52 0.000319293
73 *520:135 *2255:A2 0.000117072
74 *520:135 *2256:A2 0.00011673
75 *530:20 *2260:A3 0
76 *537:18 *546:52 0.000754164
77 *543:58 *2472:A 0.00011184
78 *543:58 *546:8 0.00010326
79 *543:58 *546:33 2.59355e-05
*RES
1 *2474:X *546:8 15.1393 
2 *546:8 *2472:A 15.3714 
3 *546:8 *546:33 44.5714 
4 *546:33 *546:41 15.7054 
5 *546:41 *2473:A 18.9339 
6 *546:41 *546:52 18.9464 
7 *546:52 *546:54 3.41 
8 *546:54 *2256:A2 18.7143 
9 *546:54 *2255:A2 22.0784 
10 *546:52 *2260:A3 35.4875 
*END

*D_NET *547 0.0189668
*CONN
*I *1994:A I *D sky130_fd_sc_hd__or2_1
*I *2025:A1 I *D sky130_fd_sc_hd__a31o_1
*I *2024:B1 I *D sky130_fd_sc_hd__a21o_1
*I *2378:B I *D sky130_fd_sc_hd__nand2_1
*I *1993:A I *D sky130_fd_sc_hd__nor2_1
*I *1981:A I *D sky130_fd_sc_hd__inv_2
*I *2073:A I *D sky130_fd_sc_hd__and3_1
*I *2072:B1 I *D sky130_fd_sc_hd__a21o_1
*I *2051:C1 I *D sky130_fd_sc_hd__o211ai_2
*I *1992:A1 I *D sky130_fd_sc_hd__a211o_1
*I *2475:X O *D sky130_fd_sc_hd__clkbuf_4
*CAP
1 *1994:A 0
2 *2025:A1 0
3 *2024:B1 0.000122136
4 *2378:B 3.02011e-05
5 *1993:A 0
6 *1981:A 0.00090596
7 *2073:A 0
8 *2072:B1 9.36737e-06
9 *2051:C1 0.000922021
10 *1992:A1 2.39392e-05
11 *2475:X 0.000102619
12 *547:129 0.000803026
13 *547:110 0.00160506
14 *547:59 0.00110584
15 *547:49 0.000315671
16 *547:47 0.00155608
17 *547:43 0.00075397
18 *547:33 0.00171685
19 *547:18 0.000836777
20 *547:12 0.000337655
21 *2051:C1 *2055:A 0
22 *2051:C1 *550:97 0
23 *547:33 *2317:B 0.000823965
24 *547:43 *2317:B 0.000434592
25 *547:43 *569:16 8.22793e-06
26 *547:47 *2028:A2 0.000441731
27 *547:59 *2317:B 0.000392121
28 *547:110 *2013:A1 0.000262956
29 *547:110 *2531:A 0.000123288
30 *547:110 *552:32 0
31 *547:110 *552:53 0.00014486
32 *547:110 *554:49 0
33 *547:110 *554:75 0
34 *547:129 *2006:A 7.32955e-05
35 *547:129 *2006:B 5.52238e-05
36 *547:129 *552:53 1.19402e-05
37 *547:129 *552:74 6.04162e-05
38 *547:129 *554:49 0
39 *1992:B1 *547:33 8.6229e-06
40 *1992:C1 *1992:A1 5.33005e-05
41 *1992:C1 *547:18 3.99189e-05
42 *1993:B *547:47 5.7661e-06
43 *1999:A2 *547:47 0
44 *2007:A *547:110 0.000417629
45 *2014:B2 *547:110 9.17088e-05
46 *2019:A *2024:B1 0
47 *2021:C *547:129 6.22419e-05
48 *2022:B *547:129 0.000174232
49 *2024:A1 *2024:B1 4.57445e-05
50 *2024:A2 *2024:B1 0
51 *2025:A2 *547:129 3.03304e-05
52 *2025:A3 *547:129 9.60875e-05
53 *2028:A1 *547:47 0.000566245
54 *2047:C1 *547:110 0.000320031
55 *2050:B1 *2051:C1 0
56 *2051:A2 *2051:C1 0
57 *2051:B1 *2051:C1 4.01768e-05
58 *2069:B *2051:C1 0
59 *2069:B *2072:B1 0
60 *2123:B *1981:A 0
61 *2172:C1 *1981:A 0
62 *2181:A *1981:A 0
63 *2182:B *1981:A 0
64 *2417:B *2051:C1 0
65 *2417:D_N *2051:C1 0.000153522
66 *2424:B *547:12 0.000176249
67 *35:8 *2051:C1 1.72894e-05
68 *50:33 *547:59 0.000222167
69 *51:12 *2051:C1 4.87171e-05
70 *51:12 *2072:B1 9.60337e-06
71 *52:10 *2051:C1 0
72 *219:23 *1981:A 0
73 *273:10 *1981:A 2.89016e-05
74 *412:14 *547:12 1.07719e-05
75 *434:8 *547:43 2.04825e-05
76 *444:27 *547:110 0.000150257
77 *462:12 *547:129 0.000232399
78 *462:21 *547:129 4.14279e-05
79 *464:6 *547:129 2.14757e-05
80 *466:10 *2024:B1 0
81 *470:12 *547:47 9.90431e-05
82 *497:62 *547:33 0
83 *497:93 *547:33 0
84 *499:38 *1981:A 2.04825e-05
85 *516:49 *1981:A 0.000200849
86 *516:99 *547:110 4.56587e-05
87 *517:34 *1981:A 0
88 *517:58 *1981:A 2.37957e-05
89 *517:58 *547:59 8.23597e-06
90 *520:108 *547:110 0.000230837
91 *524:43 *1981:A 7.82778e-05
92 *524:43 *547:47 0.000282024
93 *524:43 *547:49 3.67142e-05
94 *524:62 *1981:A 0.000681735
95 *532:16 *547:33 1.94879e-05
96 *535:23 *547:12 0.000174527
97 *542:92 *2051:C1 0
*RES
1 *2475:X *547:12 21.0857 
2 *547:12 *547:18 3.33929 
3 *547:18 *1992:A1 9.83571 
4 *547:18 *547:33 9.53099 
5 *547:33 *547:43 9.4181 
6 *547:43 *547:47 12.875 
7 *547:47 *547:49 2.17857 
8 *547:49 *547:59 12.2203 
9 *547:59 *2051:C1 29.9161 
10 *547:59 *2072:B1 14.0768 
11 *547:49 *2073:A 9.3 
12 *547:47 *1981:A 36.5679 
13 *547:43 *1993:A 9.3 
14 *547:33 *547:110 25.5975 
15 *547:110 *2378:B 14.3357 
16 *547:110 *547:129 18.1964 
17 *547:129 *2024:B1 20.55 
18 *547:129 *2025:A1 9.3 
19 *547:12 *1994:A 9.3 
*END

*D_NET *548 0.0129169
*CONN
*I *2272:A2 I *D sky130_fd_sc_hd__a21oi_1
*I *1989:B1 I *D sky130_fd_sc_hd__a2111oi_1
*I *1990:A2 I *D sky130_fd_sc_hd__o41ai_4
*I *2271:B I *D sky130_fd_sc_hd__and3_1
*I *2298:B I *D sky130_fd_sc_hd__and3_1
*I *2270:B I *D sky130_fd_sc_hd__nand2_1
*I *2380:B1 I *D sky130_fd_sc_hd__a22oi_1
*I *2326:A2 I *D sky130_fd_sc_hd__a21oi_1
*I *2325:B I *D sky130_fd_sc_hd__and3_1
*I *2379:B I *D sky130_fd_sc_hd__and3_1
*I *2476:X O *D sky130_fd_sc_hd__buf_2
*CAP
1 *2272:A2 8.9504e-05
2 *1989:B1 0.000232261
3 *1990:A2 3.73692e-05
4 *2271:B 0
5 *2298:B 0
6 *2270:B 0
7 *2380:B1 3.43796e-05
8 *2326:A2 0
9 *2325:B 0.000143214
10 *2379:B 0
11 *2476:X 4.36033e-05
12 *548:109 0.000659179
13 *548:94 0.000462066
14 *548:88 0.000263457
15 *548:47 0.00068508
16 *548:38 0.000842119
17 *548:32 0.000740807
18 *548:28 0.000791947
19 *548:18 0.000583284
20 *548:8 0.000342551
21 *2380:B1 *2379:A 5.7661e-06
22 *548:32 *2380:B2 4.66096e-05
23 *548:38 *2379:A 0.000115586
24 *1992:C1 *1989:B1 9.25014e-06
25 *2270:A *548:28 5.52238e-05
26 *2271:A *548:94 1.59145e-05
27 *2272:A1 *2272:A2 5.49544e-05
28 *2272:B1 *2272:A2 0.00016641
29 *2272:B1 *548:94 6.97263e-05
30 *2298:A *548:28 0.000270307
31 *2299:A1 *548:32 0.000167266
32 *2299:A2 *548:28 2.89114e-05
33 *2300:B *548:18 0.000262948
34 *2300:B *548:28 0.000342495
35 *2300:B *548:88 0.000301764
36 *2300:B *548:94 7.75093e-05
37 *2300:B *548:109 0.000290271
38 *2324:A *2325:B 7.83659e-05
39 *2326:A1 *2325:B 2.4958e-05
40 *2326:A1 *548:47 9.90431e-05
41 *2326:B1 *2325:B 0.000101545
42 *2326:B1 *548:47 5.52238e-05
43 *2379:C *548:47 2.0954e-05
44 *2380:A1 *2380:B1 2.89114e-05
45 *2380:A1 *548:32 0
46 *2381:A *548:47 0.000105163
47 *2382:B *548:47 0.000232399
48 *2402:A2 *1989:B1 0.000106594
49 *2414:B2 *548:8 5.33005e-05
50 *2416:A2 *548:18 5.17614e-05
51 *2424:B *548:32 0
52 *2427:A *548:32 0.000150618
53 *2428:A *548:32 0.000177227
54 *2479:A *548:32 0
55 *2538:A *1989:B1 1.02504e-05
56 *38:54 *548:94 9.50968e-06
57 *337:43 *1989:B1 4.81734e-05
58 *337:54 *1989:B1 1.21258e-05
59 *348:10 *1989:B1 0.000138946
60 *348:36 *1989:B1 0.000185297
61 *369:6 *1990:A2 0.000183445
62 *369:6 *548:109 6.12335e-05
63 *373:10 *2380:B1 0
64 *375:14 *2325:B 0
65 *448:27 *2380:B1 5.52302e-05
66 *448:27 *548:32 1.52978e-05
67 *448:27 *548:38 3.57844e-05
68 *518:10 *2325:B 4.46186e-06
69 *518:12 *2325:B 5.01117e-05
70 *518:53 *548:32 0
71 *520:35 *548:28 0.000225616
72 *523:39 *548:18 0.000262948
73 *523:39 *548:88 0.00031345
74 *523:43 *2272:A2 5.33005e-05
75 *523:43 *548:94 9.41642e-05
76 *523:58 *548:94 2.70758e-05
77 *523:58 *548:109 0.000150603
78 *523:92 *2272:A2 0.000252747
79 *524:29 *1990:A2 9.26904e-05
80 *524:29 *548:109 0.000907926
81 *545:38 *548:109 0.000208678
82 *545:52 *548:28 0
*RES
1 *2476:X *548:8 14.3357 
2 *548:8 *548:18 9.76786 
3 *548:18 *548:28 19.3393 
4 *548:28 *548:32 14.0357 
5 *548:32 *548:38 8.91071 
6 *548:38 *2379:B 9.3 
7 *548:38 *548:47 11.4286 
8 *548:47 *2325:B 21.4607 
9 *548:47 *2326:A2 9.3 
10 *548:32 *2380:B1 14.7643 
11 *548:28 *2270:B 9.3 
12 *548:18 *2298:B 9.3 
13 *548:8 *548:88 8.57143 
14 *548:88 *548:94 6.48214 
15 *548:94 *2271:B 13.8 
16 *548:94 *548:109 17.4464 
17 *548:109 *1990:A2 11.0679 
18 *548:109 *1989:B1 23.9429 
19 *548:88 *2272:A2 12.3 
*END

*D_NET *549 0.0321659
*CONN
*I *2476:A I *D sky130_fd_sc_hd__buf_2
*I *2219:B I *D sky130_fd_sc_hd__and2_1
*I *2223:B1 I *D sky130_fd_sc_hd__a22o_1
*I *2221:A2 I *D sky130_fd_sc_hd__o22a_1
*I *2198:B I *D sky130_fd_sc_hd__or3_1
*I *2237:A2 I *D sky130_fd_sc_hd__o21a_1
*I *2260:A2 I *D sky130_fd_sc_hd__o31a_1
*I *2122:B I *D sky130_fd_sc_hd__xnor2_4
*I *2475:A I *D sky130_fd_sc_hd__clkbuf_4
*I *2477:X O *D sky130_fd_sc_hd__clkbuf_4
*CAP
1 *2476:A 0
2 *2219:B 0.000559411
3 *2223:B1 0
4 *2221:A2 0.000171175
5 *2198:B 0
6 *2237:A2 0.000276924
7 *2260:A2 0
8 *2122:B 0.000106366
9 *2475:A 0
10 *2477:X 3.9183e-05
11 *549:124 0.000718235
12 *549:111 0.00091174
13 *549:107 0.00224852
14 *549:72 0.000947429
15 *549:48 0.00217349
16 *549:37 0.00351948
17 *549:25 0.00313606
18 *549:23 0.00270188
19 *549:12 0.000850043
20 *549:6 0.00052621
21 *2219:B *551:118 3.34295e-05
22 *2237:A2 *2237:A1 5.10822e-05
23 *549:25 *2198:A 5.30637e-06
24 *549:37 *552:22 2.64807e-05
25 *549:37 *554:104 2.45832e-05
26 *549:48 *2235:A1 0
27 *549:48 *578:33 0
28 *549:72 *551:54 0.00057215
29 *549:111 *566:18 0.000281934
30 *549:124 *551:118 0.000195562
31 *1989:A2 *549:25 8.27184e-06
32 *2120:A *549:48 0.000146474
33 *2121:B *549:37 0
34 *2121:B *549:48 0
35 *2171:A1 *549:48 0.000113353
36 *2172:B1 *549:48 0
37 *2189:B1 *549:48 0.000285406
38 *2196:C *549:48 0.000272658
39 *2196:D *549:48 0.000187893
40 *2197:B1 *549:72 4.88546e-05
41 *2198:C *549:25 4.16984e-05
42 *2219:A *2219:B 0.000430638
43 *2221:A1 *2221:A2 0.000186662
44 *2223:A2 *2221:A2 0.000181796
45 *2223:A2 *549:124 0.000194809
46 *2227:B1 *2219:B 0
47 *2227:B2 *549:124 5.7616e-05
48 *2230:A *2237:A2 0
49 *2230:A *549:48 0
50 *2231:A *549:72 4.02462e-05
51 *2231:B *2237:A2 9.80173e-05
52 *2234:A2 *549:72 5.71472e-05
53 *2235:B1 *549:72 9.25014e-06
54 *2237:B1 *2237:A2 0
55 *2258:A2 *549:48 7.57713e-05
56 *2267:C_N *549:72 2.31791e-05
57 *2271:A *549:12 0
58 *2282:B1 *549:111 7.38374e-05
59 *2294:A *549:107 8.22793e-06
60 *2295:A1 *549:107 9.75917e-05
61 *2298:C *549:12 0
62 *2300:B *549:12 0
63 *2301:B *549:107 0.000113899
64 *2304:B *549:107 0
65 *2305:B1 *549:111 0.000437927
66 *2415:B *549:6 6.42095e-05
67 *2415:B *549:12 0.000259576
68 *2415:D *549:12 2.56601e-05
69 *38:54 *549:12 0
70 *103:6 *2122:B 0.000276211
71 *161:14 *549:48 7.54156e-05
72 *181:16 *549:72 4.43256e-05
73 *183:24 *549:37 0.000162047
74 *191:28 *549:72 0.000263524
75 *192:32 *549:72 1.38323e-05
76 *192:40 *549:72 0.000225609
77 *192:61 *549:72 3.6337e-05
78 *202:10 *2219:B 3.48705e-05
79 *215:12 *2237:A2 4.21301e-05
80 *215:12 *549:48 1.19309e-05
81 *215:12 *549:72 0.000268409
82 *216:19 *549:72 0.000134788
83 *223:16 *2237:A2 6.42242e-05
84 *223:27 *549:72 0.000657852
85 *234:10 *549:124 3.69047e-06
86 *248:10 *549:72 0.000106882
87 *250:10 *549:72 0.000117981
88 *289:10 *549:107 0.000395873
89 *291:8 *549:111 0.000669033
90 *337:43 *549:25 2.07382e-05
91 *337:54 *549:25 8.40933e-05
92 *348:36 *549:25 9.71197e-05
93 *412:14 *549:12 9.56968e-05
94 *499:38 *2122:B 2.14658e-05
95 *499:38 *549:37 0.000354536
96 *516:20 *549:48 2.58997e-05
97 *516:28 *549:37 9.30878e-05
98 *516:28 *549:48 0.000930255
99 *519:44 *549:107 0
100 *523:58 *549:12 0
101 *523:58 *549:23 0
102 *524:85 *549:48 0
103 *524:134 *549:48 0
104 *526:81 *549:72 3.69697e-05
105 *527:46 *549:111 0.00185686
106 *527:89 *549:124 9.47028e-05
107 *529:14 *549:6 0.000137983
108 *529:14 *549:12 0.000482588
109 *535:23 *549:12 6.54177e-05
110 *535:23 *549:23 0.000209746
111 *535:25 *549:12 6.72808e-05
112 *538:44 *549:107 0.000146992
113 *540:130 *549:107 5.10822e-05
114 *544:29 *549:107 0
115 *545:138 *549:107 7.10831e-05
*RES
1 *2477:X *549:6 10.6571 
2 *549:6 *549:12 17.1607 
3 *549:12 *2475:A 13.8 
4 *549:12 *549:23 12.2143 
5 *549:23 *549:25 7.92857 
6 *549:25 *549:37 18.2669 
7 *549:37 *2122:B 16.8 
8 *549:37 *549:48 25.0179 
9 *549:48 *549:72 43.4464 
10 *549:72 *2260:A2 9.3 
11 *549:48 *2237:A2 18.7464 
12 *549:25 *2198:B 9.3 
13 *549:23 *549:107 35.5714 
14 *549:107 *549:111 28.3036 
15 *549:111 *2221:A2 13.1214 
16 *549:111 *549:124 9.23214 
17 *549:124 *2223:B1 13.8 
18 *549:124 *2219:B 24.5143 
19 *549:6 *2476:A 9.3 
*END

*D_NET *550 0.0174913
*CONN
*I *1991:B I *D sky130_fd_sc_hd__and2b_1
*I *2198:A I *D sky130_fd_sc_hd__or3_1
*I *1976:A I *D sky130_fd_sc_hd__inv_2
*I *2053:A I *D sky130_fd_sc_hd__nor2_1
*I *2055:A I *D sky130_fd_sc_hd__nand2_1
*I *2003:A I *D sky130_fd_sc_hd__or2_1
*I *2424:A I *D sky130_fd_sc_hd__nand2_1
*I *2044:A I *D sky130_fd_sc_hd__nand2_1
*I *2005:A I *D sky130_fd_sc_hd__nor2_1
*I *2006:A I *D sky130_fd_sc_hd__and2_1
*I *2478:X O *D sky130_fd_sc_hd__buf_4
*CAP
1 *1991:B 8.4482e-05
2 *2198:A 0.000157354
3 *1976:A 0
4 *2053:A 0
5 *2055:A 0.000860994
6 *2003:A 0
7 *2424:A 7.60382e-05
8 *2044:A 0
9 *2005:A 2.61224e-05
10 *2006:A 0.000201962
11 *2478:X 0.000194652
12 *550:97 0.00173316
13 *550:85 0.00179977
14 *550:79 0.00148149
15 *550:73 0.000985986
16 *550:46 0.000107463
17 *550:24 0.000511121
18 *550:18 0.000426364
19 *550:12 0.000143152
20 *550:10 0.000730879
21 *2005:A *554:29 2.89016e-05
22 *2006:A *2006:B 9.80173e-05
23 *2006:A *552:53 3.34295e-05
24 *2198:A *552:22 0.000325965
25 *2198:A *554:104 0.000151296
26 *550:10 *2478:A 4.14279e-05
27 *550:10 *551:6 3.18676e-05
28 *550:18 *554:75 0.000223592
29 *550:24 *552:53 0.000171375
30 *550:73 *551:10 0
31 *550:73 *552:24 0
32 *550:73 *552:32 0
33 *550:73 *554:104 0.000574323
34 *550:79 *1998:A1 7.50601e-05
35 *550:79 *2528:A 0.000124655
36 *550:79 *552:22 0.000219466
37 *550:79 *552:24 7.6644e-05
38 *550:79 *554:104 0.000101543
39 *550:85 *1996:B1 4.70078e-05
40 *1996:A1 *550:85 0.000164844
41 *1996:A2 *550:85 0.00018077
42 *2001:C *550:73 7.83587e-05
43 *2003:B *550:10 5.33005e-05
44 *2003:B *550:12 5.52238e-05
45 *2004:A *2055:A 0
46 *2018:A2 *550:12 5.52302e-05
47 *2018:A2 *550:73 0.000107503
48 *2020:A1 *2006:A 0
49 *2020:A1 *550:24 0
50 *2021:C *2006:A 2.14757e-05
51 *2028:B1 *550:97 0
52 *2048:C1 *550:24 0
53 *2051:C1 *2055:A 0
54 *2051:C1 *550:97 0
55 *2053:B *550:97 0.000122091
56 *2055:B *2055:A 2.28499e-05
57 *2059:A *550:97 0.000312215
58 *2067:A *550:97 5.52302e-05
59 *2067:B *2055:A 5.01117e-05
60 *2172:C1 *550:97 7.73662e-05
61 *2417:B *2055:A 1.76135e-05
62 *2417:D_N *2055:A 0.000199699
63 *2479:A *550:10 0.000144773
64 *2519:A *550:79 4.55995e-05
65 *38:37 *1991:B 0.00018372
66 *38:37 *550:79 0.000140933
67 *39:14 *2055:A 4.0342e-06
68 *43:8 *550:97 9.22103e-06
69 *51:12 *550:97 1.89507e-06
70 *241:20 *2055:A 0.0008837
71 *294:12 *550:97 0.000168818
72 *337:43 *2198:A 5.52302e-05
73 *369:6 *550:85 0.00022266
74 *369:8 *550:85 9.41642e-05
75 *391:12 *550:79 1.60506e-05
76 *448:27 *2006:A 0.000185643
77 *456:8 *550:73 0.000362522
78 *462:12 *2006:A 0
79 *470:12 *550:97 2.18262e-05
80 *486:6 *2424:A 5.17614e-05
81 *486:18 *550:10 8.27532e-05
82 *486:18 *550:12 0.000142856
83 *517:58 *2055:A 0
84 *517:58 *550:97 0
85 *518:57 *550:10 7.68557e-05
86 *518:70 *550:18 0
87 *518:70 *550:73 3.17148e-05
88 *518:76 *2424:A 6.5053e-05
89 *518:76 *550:24 0.000440711
90 *518:76 *550:46 8.76257e-05
91 *524:29 *550:79 9.3231e-05
92 *540:8 *550:85 5.80423e-05
93 *540:17 *550:85 2.89016e-05
94 *543:94 *550:97 0
95 *545:21 *550:85 0.000292976
96 *547:129 *2006:A 7.32955e-05
97 *549:25 *2198:A 5.30637e-06
*RES
1 *2478:X *550:10 14.4964 
2 *550:10 *550:12 1.35714 
3 *550:12 *550:18 11.8571 
4 *550:18 *550:24 10.9821 
5 *550:24 *2006:A 18.5321 
6 *550:24 *2005:A 14.3357 
7 *550:18 *550:46 0.946429 
8 *550:46 *2044:A 9.3 
9 *550:46 *2424:A 11.5143 
10 *550:12 *2003:A 9.3 
11 *550:10 *550:73 23.0893 
12 *550:73 *550:79 14.1786 
13 *550:79 *550:85 21.375 
14 *550:85 *550:97 27.4286 
15 *550:97 *2055:A 31.2107 
16 *550:97 *2053:A 13.8 
17 *550:85 *1976:A 9.3 
18 *550:79 *2198:A 18.7107 
19 *550:73 *1991:B 11.0679 
*END

*D_NET *551 0.0262284
*CONN
*I *2478:A I *D sky130_fd_sc_hd__buf_4
*I *2209:A1 I *D sky130_fd_sc_hd__a22oi_1
*I *2224:A I *D sky130_fd_sc_hd__and3_1
*I *2223:A1 I *D sky130_fd_sc_hd__a22o_1
*I *2216:A1 I *D sky130_fd_sc_hd__a32o_1
*I *2210:A1 I *D sky130_fd_sc_hd__o22a_1
*I *2237:A1 I *D sky130_fd_sc_hd__o21a_1
*I *2229:A I *D sky130_fd_sc_hd__nand2_1
*I *2260:A1 I *D sky130_fd_sc_hd__o31a_1
*I *1989:A1 I *D sky130_fd_sc_hd__a2111oi_1
*I *2479:X O *D sky130_fd_sc_hd__buf_4
*CAP
1 *2478:A 7.2982e-05
2 *2209:A1 1.14416e-05
3 *2224:A 2.28304e-05
4 *2223:A1 3.34506e-05
5 *2216:A1 0.000182007
6 *2210:A1 0
7 *2237:A1 8.28857e-05
8 *2229:A 0.000264366
9 *2260:A1 0
10 *1989:A1 0
11 *2479:X 1.03356e-05
12 *551:118 0.00109739
13 *551:93 0.00146102
14 *551:89 0.000270773
15 *551:82 0.000596001
16 *551:54 0.00132558
17 *551:37 0.00232382
18 *551:29 0.00296335
19 *551:10 0.00217513
20 *551:6 0.00121517
21 *551:10 *554:104 0
22 *551:29 *2200:A 6.27272e-06
23 *551:29 *554:130 0.000313966
24 *1992:C1 *551:10 0.0003597
25 *2200:B *551:29 0
26 *2202:A *551:29 0.000287128
27 *2209:B1 *2209:A1 5.71472e-05
28 *2209:B1 *551:93 0.000273269
29 *2209:B1 *551:118 0.000254396
30 *2209:B2 *551:89 5.52302e-05
31 *2210:A2 *2209:A1 8.76257e-05
32 *2210:A2 *551:89 0.00010096
33 *2210:A2 *551:93 3.99614e-06
34 *2214:B *551:118 0.00035206
35 *2217:B1 *2216:A1 5.52302e-05
36 *2218:A *551:29 0
37 *2219:B *551:118 3.34295e-05
38 *2223:A2 *551:118 6.8646e-06
39 *2223:B2 *551:118 0.000148196
40 *2227:B2 *2223:A1 4.58194e-05
41 *2227:B2 *2224:A 4.27437e-05
42 *2229:B *2229:A 2.8428e-05
43 *2232:A *551:54 4.59075e-05
44 *2232:B *2229:A 0.000312215
45 *2232:B *551:54 4.38128e-05
46 *2236:B *551:54 0.000197991
47 *2237:A2 *2237:A1 5.10822e-05
48 *2237:B1 *2237:A1 5.03787e-05
49 *2243:B1 *551:54 1.82549e-05
50 *2246:C *551:118 0
51 *2252:B *551:118 0
52 *2257:B1 *551:118 0.000186183
53 *2261:B *551:37 6.09572e-05
54 *2262:A *551:29 0
55 *2263:B *551:37 3.75528e-05
56 *2267:C_N *551:54 5.52302e-05
57 *2287:C1 *551:37 0.000608421
58 *2287:C1 *551:82 0.000421544
59 *2288:A_N *551:37 0.00033693
60 *2402:A2 *551:29 7.12852e-05
61 *2414:B1 *551:10 0.00010326
62 *2416:A1 *551:10 5.76181e-05
63 *2416:B1 *551:10 4.50033e-05
64 *2419:A1 *551:10 2.89623e-05
65 *2419:B1 *551:10 0.000174805
66 *2424:B *551:10 0
67 *2439:B1 *551:29 0.000280192
68 *2479:A *2478:A 0.000264311
69 *2510:A *551:37 0
70 *2538:A *551:29 0.000109728
71 *181:16 *551:54 1.02821e-05
72 *183:24 *551:29 0.000118344
73 *183:24 *551:82 4.88232e-05
74 *186:10 *551:29 0.000159444
75 *191:28 *551:54 7.91806e-05
76 *192:32 *551:37 2.1527e-05
77 *192:32 *551:54 0.000137983
78 *192:40 *551:54 0.000116862
79 *202:33 *2223:A1 9.60875e-05
80 *202:33 *2224:A 9.90431e-05
81 *205:16 *551:118 2.15245e-05
82 *207:14 *551:118 0
83 *223:16 *551:54 0.000306324
84 *223:27 *551:54 0.000101086
85 *224:10 *551:54 9.90431e-05
86 *225:6 *551:54 5.33005e-05
87 *225:10 *551:54 3.17148e-05
88 *234:10 *551:118 0.000101545
89 *326:22 *551:37 0
90 *348:10 *551:10 0.000148189
91 *348:36 *551:10 0.000240484
92 *348:36 *551:29 4.56437e-05
93 *380:10 *551:10 3.87299e-05
94 *409:8 *551:10 4.30584e-06
95 *492:10 *551:29 0.000401117
96 *492:12 *551:29 0.000136099
97 *492:18 *551:29 0.00039851
98 *497:62 *551:10 0.000112793
99 *518:57 *2478:A 0.000358977
100 *518:57 *551:6 5.52238e-05
101 *523:76 *2216:A1 0.000116268
102 *524:134 *2237:A1 0
103 *527:46 *551:118 0
104 *532:10 *551:29 0
105 *532:12 *551:29 1.19468e-05
106 *532:16 *551:10 0.00112577
107 *532:16 *551:29 0.000408569
108 *549:72 *551:54 0.00057215
109 *549:124 *551:118 0.000195562
110 *550:10 *2478:A 4.14279e-05
111 *550:10 *551:6 3.18676e-05
112 *550:73 *551:10 0
*RES
1 *2479:X *551:6 9.83571 
2 *551:6 *551:10 30.7321 
3 *551:10 *1989:A1 13.8 
4 *551:10 *551:29 32.8475 
5 *551:29 *551:37 15.0935 
6 *551:37 *2260:A1 9.3 
7 *551:37 *551:54 29.0714 
8 *551:54 *2229:A 14.2643 
9 *551:54 *2237:A1 20.2464 
10 *551:29 *551:82 9.60305 
11 *551:82 *2210:A1 9.3 
12 *551:82 *551:89 0.946429 
13 *551:89 *551:93 3.73214 
14 *551:93 *2216:A1 21.8179 
15 *551:93 *551:118 28.625 
16 *551:118 *2223:A1 10.2464 
17 *551:118 *2224:A 10.2464 
18 *551:89 *2209:A1 10.2464 
19 *551:6 *2478:A 13.1393 
*END

*D_NET *552 0.0181859
*CONN
*I *2200:D I *D sky130_fd_sc_hd__or4_1
*I *2357:B2 I *D sky130_fd_sc_hd__a32o_1
*I *1991:A_N I *D sky130_fd_sc_hd__and2b_1
*I *2014:A2 I *D sky130_fd_sc_hd__a22o_1
*I *2001:A I *D sky130_fd_sc_hd__nand3_1
*I *2000:A I *D sky130_fd_sc_hd__and3_1
*I *2379:A I *D sky130_fd_sc_hd__and3_1
*I *2380:A2 I *D sky130_fd_sc_hd__a22oi_1
*I *2378:A I *D sky130_fd_sc_hd__nand2_1
*I *2002:A2 I *D sky130_fd_sc_hd__a21o_1
*I *2480:X O *D sky130_fd_sc_hd__buf_2
*CAP
1 *2200:D 4.26984e-05
2 *2357:B2 0
3 *1991:A_N 0.000168769
4 *2014:A2 0
5 *2001:A 0.000185758
6 *2000:A 0.000554182
7 *2379:A 0.000188159
8 *2380:A2 0
9 *2378:A 2.06112e-05
10 *2002:A2 2.207e-05
11 *2480:X 0.000330424
12 *552:115 0.000185758
13 *552:74 0.000618956
14 *552:53 0.00102457
15 *552:43 0.00119759
16 *552:32 0.000455749
17 *552:24 0.000517861
18 *552:22 0.00160081
19 *552:12 0.00137972
20 *552:10 0.000475224
21 *1991:A_N *1998:B1 0.000139907
22 *2000:A *2013:A1 9.71197e-05
23 *2001:A *2014:A1 1.04232e-05
24 *552:22 *1995:A1 0.000188997
25 *552:22 *1998:B1 8.84408e-05
26 *552:22 *2528:A 5.33807e-05
27 *552:22 *554:104 0
28 *552:22 *554:130 0
29 *552:22 *580:14 2.70899e-05
30 *552:24 *1995:A1 1.41706e-05
31 *552:32 *2007:B 3.18676e-05
32 *552:32 *2013:A1 0
33 *552:53 *2018:A1 0
34 *552:53 *554:29 4.70078e-05
35 *552:53 *569:16 0
36 *552:74 *2006:B 9.90367e-05
37 *552:74 *2423:A 0.000126353
38 *552:74 *554:49 9.01334e-05
39 *1994:B *1991:A_N 0.000226507
40 *2001:B *2001:A 0.000129548
41 *2001:C *552:24 2.56601e-05
42 *2001:C *552:32 4.1331e-06
43 *2006:A *552:53 3.34295e-05
44 *2007:A *552:32 2.77258e-05
45 *2008:A *2000:A 3.10885e-05
46 *2011:A1 *2002:A2 5.52302e-05
47 *2011:A1 *552:32 0
48 *2013:A2 *2000:A 5.52302e-05
49 *2013:A2 *552:43 6.50156e-05
50 *2013:A2 *552:53 1.52978e-05
51 *2013:B1 *2000:A 5.33005e-05
52 *2015:A1 *2000:A 0.000486441
53 *2015:A2 *2000:A 0.000100831
54 *2029:A2 *2000:A 9.88193e-05
55 *2031:A2 *2000:A 0
56 *2031:B1_N *2000:A 0.000136951
57 *2047:A2 *2000:A 5.33433e-05
58 *2047:C1 *2000:A 0.00024769
59 *2047:C1 *552:53 0.000138194
60 *2048:C1 *552:53 0
61 *2198:A *552:22 0.000325965
62 *2200:B *552:12 8.03349e-06
63 *2256:A1 *552:10 2.49484e-05
64 *2256:B1 *552:12 5.49106e-05
65 *2260:A3 *552:10 0
66 *2357:A1 *552:22 6.60156e-05
67 *2379:C *2379:A 0.000101545
68 *2380:A1 *2379:A 5.33005e-05
69 *2380:B1 *2379:A 5.7661e-06
70 *2404:B1 *552:22 9.1469e-05
71 *2414:B2 *2001:A 3.99614e-06
72 *2425:A *2378:A 3.99614e-06
73 *2425:A *552:53 2.89114e-05
74 *2425:A *552:74 5.33334e-05
75 *2425:B *2378:A 0
76 *2443:A *552:22 6.74867e-05
77 *2466:A *552:12 3.39401e-05
78 *2466:A *552:22 0.000529839
79 *2519:A *1991:A_N 0.000181796
80 *31:10 *2000:A 0.000221634
81 *38:37 *1991:A_N 0.000181565
82 *183:24 *552:22 2.06112e-05
83 *413:12 *2002:A2 1.54142e-05
84 *413:12 *552:32 0.000393943
85 *439:12 *2000:A 0
86 *448:27 *2379:A 2.44791e-05
87 *448:27 *552:74 0.000707901
88 *449:8 *2002:A2 9.71197e-05
89 *449:8 *552:32 8.40933e-05
90 *449:33 *2000:A 0
91 *456:8 *552:32 0.000167275
92 *457:23 *2000:A 0.000168939
93 *473:6 *2000:A 4.43256e-05
94 *516:99 *2000:A 5.38273e-05
95 *516:99 *552:43 0.000146474
96 *516:99 *552:53 7.90803e-05
97 *520:68 *552:32 1.94945e-05
98 *520:108 *552:12 1.55339e-05
99 *520:108 *552:22 0.000533911
100 *520:108 *552:24 5.62625e-05
101 *520:108 *552:32 5.00632e-05
102 *520:135 *552:10 7.6644e-05
103 *524:29 *552:22 0.000195555
104 *526:55 *552:10 1.81818e-05
105 *529:47 *552:10 0.00010982
106 *529:57 *552:10 0.000151333
107 *529:57 *552:12 0.000123153
108 *547:110 *552:32 0
109 *547:110 *552:53 0.00014486
110 *547:129 *552:53 1.19402e-05
111 *547:129 *552:74 6.04162e-05
112 *548:38 *2379:A 0.000115586
113 *549:37 *552:22 2.64807e-05
114 *550:24 *552:53 0.000171375
115 *550:73 *552:24 0
116 *550:73 *552:32 0
117 *550:79 *552:22 0.000219466
118 *550:79 *552:24 7.6644e-05
*RES
1 *2480:X *552:10 19.1571 
2 *552:10 *552:12 2.55357 
3 *552:12 *552:22 30.8036 
4 *552:22 *552:24 3.16071 
5 *552:24 *552:32 13.4286 
6 *552:32 *2002:A2 10.2464 
7 *552:32 *552:43 6.44643 
8 *552:43 *552:53 17.375 
9 *552:53 *2378:A 9.72857 
10 *552:53 *552:74 21.75 
11 *552:74 *2380:A2 9.3 
12 *552:74 *2379:A 22.1393 
13 *552:43 *2000:A 37.7643 
14 *552:24 *552:115 4.5 
15 *552:115 *2001:A 12.7464 
16 *552:115 *2014:A2 9.3 
17 *552:22 *1991:A_N 18.8536 
18 *552:12 *2357:B2 13.8 
19 *552:10 *2200:D 14.3357 
*END

*D_NET *553 0.00747671
*CONN
*I *2399:A1 I *D sky130_fd_sc_hd__o22a_1
*I *2398:A1 I *D sky130_fd_sc_hd__a21oi_1
*I *2400:A1 I *D sky130_fd_sc_hd__a32o_1
*I *2440:A1 I *D sky130_fd_sc_hd__a211o_1
*I *2404:A1 I *D sky130_fd_sc_hd__a21oi_1
*I *2364:A I *D sky130_fd_sc_hd__xor2_1
*I *2481:X O *D sky130_fd_sc_hd__clkbuf_2
*CAP
1 *2399:A1 0.000208114
2 *2398:A1 0
3 *2400:A1 0.000157718
4 *2440:A1 0
5 *2404:A1 0
6 *2364:A 0.000300439
7 *2481:X 0
8 *553:22 0.00122093
9 *553:14 0.00109909
10 *553:12 0.00060226
11 *553:6 0.000417295
12 *553:4 0.000359463
13 *2364:A *554:116 2.9423e-05
14 *553:12 *580:77 3.04638e-05
15 *553:14 *580:77 1.14671e-05
16 *553:22 *554:116 6.68971e-06
17 *2363:A *2364:A 0.000166416
18 *2399:B2 *2399:A1 0
19 *2400:A3 *2400:A1 1.73088e-05
20 *2400:B1 *2400:A1 2.39852e-05
21 *2400:B2 *553:14 3.69573e-05
22 *2404:A2 *2364:A 0.000186662
23 *2405:A *553:22 6.05161e-06
24 *2408:A *553:22 0.000153887
25 *2437:A2 *553:14 0.000204654
26 *2437:A2 *553:22 5.31122e-05
27 *2437:B1 *553:6 9.41642e-05
28 *2437:B1 *553:12 0.000343475
29 *2437:B1 *553:14 3.06511e-05
30 *2439:A3 *2400:A1 9.90431e-05
31 *2439:A3 *553:14 4.35311e-05
32 *2439:A3 *553:22 7.92641e-05
33 *183:24 *553:22 0.00010817
34 *190:57 *2399:A1 0.000186662
35 *190:57 *553:6 0.000130419
36 *199:64 *2400:A1 8.42528e-05
37 *205:51 *2399:A1 1.38167e-05
38 *492:37 *553:22 0.000152541
39 *492:39 *553:22 0
40 *523:76 *2399:A1 3.42168e-05
41 *532:10 *553:22 0.000144038
42 *532:12 *553:22 0.000556844
43 *532:16 *553:22 8.32242e-05
*RES
1 *2481:X *553:4 9.3 
2 *553:4 *553:6 2.17857 
3 *553:6 *553:12 8.53571 
4 *553:12 *553:14 3.46429 
5 *553:14 *553:22 22.0714 
6 *553:22 *2364:A 15.1929 
7 *553:22 *2404:A1 9.3 
8 *553:14 *2440:A1 13.8 
9 *553:12 *2400:A1 16.9607 
10 *553:6 *2398:A1 9.3 
11 *553:4 *2399:A1 21.7107 
*END

*D_NET *554 0.0211983
*CONN
*I *2200:A I *D sky130_fd_sc_hd__or4_1
*I *2312:A I *D sky130_fd_sc_hd__and2_1
*I *2349:A I *D sky130_fd_sc_hd__or2_1
*I *2350:A I *D sky130_fd_sc_hd__nand2_1
*I *2007:B I *D sky130_fd_sc_hd__or2_1
*I *2423:A I *D sky130_fd_sc_hd__nand2_1
*I *2006:B I *D sky130_fd_sc_hd__and2_1
*I *2005:B I *D sky130_fd_sc_hd__nor2_1
*I *2020:B1 I *D sky130_fd_sc_hd__o21ai_1
*I *2380:B2 I *D sky130_fd_sc_hd__a22oi_1
*I *2482:X O *D sky130_fd_sc_hd__buf_2
*CAP
1 *2200:A 6.68984e-06
2 *2312:A 0.00139887
3 *2349:A 0
4 *2350:A 5.00556e-05
5 *2007:B 5.1388e-05
6 *2423:A 0.000112647
7 *2006:B 0.000113715
8 *2005:B 0
9 *2020:B1 3.93582e-05
10 *2380:B2 9.31131e-05
11 *2482:X 5.62134e-05
12 *554:130 0.00195361
13 *554:116 0.000787454
14 *554:104 0.0026338
15 *554:75 0.00193803
16 *554:49 0.000469401
17 *554:45 0.000781328
18 *554:29 0.000461062
19 *554:25 0.000979138
20 *554:8 0.000706761
21 *554:75 *2013:A1 0
22 *554:104 *1998:A1 4.94455e-05
23 *1988:B *554:104 0.000148196
24 *1992:C1 *554:104 2.58764e-05
25 *2005:A *554:29 2.89016e-05
26 *2006:A *2006:B 9.80173e-05
27 *2018:A2 *554:75 0.000107503
28 *2020:A2 *2020:B1 0
29 *2021:B *2020:B1 3.18676e-05
30 *2198:A *554:104 0.000151296
31 *2200:B *2200:A 1.24469e-05
32 *2200:B *554:130 0.000147116
33 *2255:A2 *2312:A 0.00149127
34 *2315:C1 *2312:A 0
35 *2349:B *2350:A 5.71472e-05
36 *2363:A *554:116 0.000353079
37 *2364:A *554:116 2.9423e-05
38 *2380:A1 *2380:B2 9.41918e-05
39 *2402:A2 *554:104 0.00069242
40 *2402:A2 *554:130 0.00010326
41 *2404:A2 *554:116 8.77073e-05
42 *2408:A *554:116 0.000269428
43 *2414:B1 *554:104 0
44 *2416:B1 *554:104 0
45 *2422:B1_N *2380:B2 1.02504e-05
46 *2423:B *554:8 7.3237e-05
47 *2423:B *554:25 0.000107777
48 *2423:B *554:49 4.94455e-05
49 *2425:A *554:25 1.04232e-05
50 *2425:A *554:29 0.000186669
51 *2425:B *554:25 0.000272371
52 *2425:B *554:75 0
53 *2426:A *554:49 0
54 *2426:B *554:25 4.88637e-05
55 *2427:B *554:25 0.000154027
56 *2428:B *554:8 1.02936e-05
57 *2428:B *554:25 1.33343e-05
58 *2466:A *554:130 0.000139247
59 *2482:A *554:8 9.80173e-05
60 *2519:A *554:104 8.49438e-05
61 *2521:A *554:104 6.42338e-05
62 *199:50 *2312:A 8.08996e-05
63 *341:12 *2350:A 7.61932e-05
64 *341:12 *554:116 7.61932e-05
65 *355:12 *554:116 0.000230482
66 *380:10 *554:104 0.000125304
67 *391:12 *554:104 3.14816e-05
68 *413:12 *2007:B 1.39726e-05
69 *413:12 *554:104 5.75147e-05
70 *448:27 *2006:B 4.14279e-05
71 *448:27 *2380:B2 5.83233e-05
72 *456:8 *554:75 0.000303317
73 *497:62 *554:130 0.000117648
74 *519:68 *2312:A 1.89507e-06
75 *519:98 *2312:A 0.000152206
76 *525:120 *2312:A 0
77 *537:65 *554:130 0.000149924
78 *547:110 *554:49 0
79 *547:110 *554:75 0
80 *547:129 *2006:B 5.52238e-05
81 *547:129 *554:49 0
82 *548:32 *2380:B2 4.66096e-05
83 *549:37 *554:104 2.45832e-05
84 *550:18 *554:75 0.000223592
85 *550:73 *554:104 0.000574323
86 *550:79 *554:104 0.000101543
87 *551:10 *554:104 0
88 *551:29 *2200:A 6.27272e-06
89 *551:29 *554:130 0.000313966
90 *552:22 *554:104 0
91 *552:22 *554:130 0
92 *552:32 *2007:B 3.18676e-05
93 *552:53 *554:29 4.70078e-05
94 *552:74 *2006:B 9.90367e-05
95 *552:74 *2423:A 0.000126353
96 *552:74 *554:49 9.01334e-05
97 *553:22 *554:116 6.68971e-06
*RES
1 *2482:X *554:8 11.0857 
2 *554:8 *2380:B2 20.8536 
3 *554:8 *554:25 11.1429 
4 *554:25 *554:29 5.78571 
5 *554:29 *2020:B1 10.2643 
6 *554:29 *2005:B 9.3 
7 *554:25 *554:45 4.5 
8 *554:45 *554:49 8.26786 
9 *554:49 *2006:B 12.3179 
10 *554:49 *2423:A 11.9071 
11 *554:45 *554:75 16.2143 
12 *554:75 *2007:B 10.2464 
13 *554:75 *554:104 34.9464 
14 *554:104 *554:116 17.9464 
15 *554:116 *2350:A 10.6571 
16 *554:116 *2349:A 9.3 
17 *554:104 *554:130 13.6339 
18 *554:130 *2312:A 26.0803 
19 *554:130 *2200:A 14.0768 
*END

*D_NET *555 0.0182675
*CONN
*I *2246:B I *D sky130_fd_sc_hd__and3_1
*I *2244:A2 I *D sky130_fd_sc_hd__a21o_1
*I *2255:A1 I *D sky130_fd_sc_hd__o22a_1
*I *2454:A I *D sky130_fd_sc_hd__buf_2
*I *2500:X O *D sky130_fd_sc_hd__dlymetal6s2s_1
*CAP
1 *2246:B 0.000162805
2 *2244:A2 0.00038962
3 *2255:A1 0
4 *2454:A 0
5 *2500:X 0.00114791
6 *555:68 0.00240502
7 *555:43 0.0046301
8 *555:18 0.00392542
9 *2244:B1 *2244:A2 4.1331e-06
10 *2246:A *2246:B 1.40415e-05
11 *2255:A2 *555:43 3.39401e-05
12 *2255:A2 *555:68 0.000100724
13 *2255:B2 *555:43 4.37485e-06
14 *2268:B *2246:B 0
15 *2276:B *555:68 3.3938e-05
16 *2279:B *555:68 0.000245342
17 *2305:A1 *555:68 0.000114334
18 *2305:B1 *555:68 0.000294851
19 *2358:A2 *555:43 4.38058e-05
20 *2358:A2 *555:68 3.10819e-05
21 *2376:A *555:18 0.000493915
22 *2429:A2 *555:18 8.43535e-06
23 *2431:A *555:18 2.07491e-05
24 *188:32 *555:68 1.21258e-05
25 *188:75 *555:68 5.72869e-05
26 *190:57 *555:68 0.000178847
27 *205:22 *555:68 9.18513e-05
28 *229:21 *2246:B 2.8266e-06
29 *233:12 *2246:B 4.58192e-05
30 *253:8 *555:68 0
31 *261:12 *555:68 5.91092e-05
32 *263:14 *555:68 0
33 *284:12 *555:43 0.000118315
34 *292:10 *555:68 5.52238e-05
35 *311:12 *555:18 2.32993e-05
36 *368:18 *555:18 0.000148165
37 *490:25 *555:18 0.000125731
38 *490:25 *555:43 0.000555063
39 *490:49 *555:43 4.79414e-05
40 *493:26 *2244:A2 2.22043e-05
41 *519:98 *555:43 4.8817e-05
42 *524:29 *555:43 0.000144887
43 *525:74 *555:43 0.000104082
44 *526:47 *555:43 0.000102519
45 *528:12 *2246:B 3.56119e-05
46 *528:12 *555:68 9.31149e-05
47 *537:73 *555:18 6.65398e-05
48 *537:73 *555:43 0.000554796
49 *537:90 *555:18 5.52238e-05
50 *544:16 *555:18 0.00103358
51 *545:50 *555:43 0.000104183
52 *545:109 *555:43 0.000150027
53 *545:140 *2244:A2 0.000125731
54 *545:140 *2246:B 0
*RES
1 *2500:X *555:18 38.8536 
2 *555:18 *2454:A 13.8 
3 *555:18 *555:43 22.3005 
4 *555:43 *2255:A1 13.8 
5 *555:43 *555:68 38.6786 
6 *555:68 *2244:A2 27.8536 
7 *555:68 *2246:B 16.8893 
*END

*D_NET *556 0.00115865
*CONN
*I *2525:A I *D sky130_fd_sc_hd__dlygate4sd1_1
*I *2051:A1 I *D sky130_fd_sc_hd__o211ai_2
*I *2514:X O *D sky130_fd_sc_hd__dlymetal6s2s_1
*CAP
1 *2525:A 0.000168086
2 *2051:A1 0.000101163
3 *2514:X 0
4 *556:4 0.000269249
5 *2051:A1 *2050:A2 0.000137983
6 *2051:A1 *2514:A 5.71472e-05
7 *2525:A *2049:A2 5.33005e-05
8 *2525:A *2050:A2 4.51726e-05
9 *2004:A *2525:A 0.000171368
10 *2051:A2 *2051:A1 4.43256e-05
11 *516:57 *2525:A 5.7234e-05
12 *542:115 *2525:A 5.36229e-05
*RES
1 *2514:X *556:4 9.3 
2 *556:4 *2051:A1 11.8 
3 *556:4 *2525:A 22.4429 
*END

*D_NET *557 0.00110565
*CONN
*I *2049:A2 I *D sky130_fd_sc_hd__o21ai_1
*I *2525:X O *D sky130_fd_sc_hd__dlygate4sd1_1
*CAP
1 *2049:A2 0.000108758
2 *2525:X 0.000108758
3 *2525:A *2049:A2 5.33005e-05
4 *477:16 *2049:A2 0.0004776
5 *516:99 *2049:A2 5.52302e-05
6 *542:115 *2049:A2 0.000302004
*RES
1 *2525:X *2049:A2 23.2429 
*END

*D_NET *558 0.000984928
*CONN
*I *2014:A1 I *D sky130_fd_sc_hd__a22o_1
*I *2531:X O *D sky130_fd_sc_hd__dlygate4sd1_1
*CAP
1 *2014:A1 0.000303983
2 *2531:X 0.000303983
3 *2001:A *2014:A1 1.04232e-05
4 *2001:B *2014:A1 1.74352e-05
5 *2014:B1 *2014:A1 0.000349104
*RES
1 *2531:X *2014:A1 22.85 
*END

*D_NET *559 0.000626332
*CONN
*I *1998:A1 I *D sky130_fd_sc_hd__a21oi_1
*I *2532:X O *D sky130_fd_sc_hd__dlygate4sd1_1
*CAP
1 *1998:A1 0.00019477
2 *2532:X 0.00019477
3 *1993:B *1998:A1 1.55885e-05
4 *391:12 *1998:A1 9.66977e-05
5 *550:79 *1998:A1 7.50601e-05
6 *554:104 *1998:A1 4.94455e-05
*RES
1 *2532:X *1998:A1 30.9036 
*END

*D_NET *560 0.00291189
*CONN
*I *2514:A I *D sky130_fd_sc_hd__dlymetal6s2s_1
*I *2041:S I *D sky130_fd_sc_hd__mux2_1
*I *2042:S I *D sky130_fd_sc_hd__mux2_4
*I *2533:X O *D sky130_fd_sc_hd__buf_6
*CAP
1 *2514:A 0.0001324
2 *2041:S 0.000136123
3 *2042:S 0.000105639
4 *2533:X 0.000299742
5 *560:14 0.000425763
6 *560:8 0.000616143
7 *2038:A *2042:S 4.70078e-05
8 *2038:A *560:8 5.33005e-05
9 *2042:A0 *2041:S 0
10 *2042:A0 *2042:S 5.52238e-05
11 *2042:A0 *560:14 0.000130419
12 *2042:A1 *2041:S 0.000103275
13 *2050:A1 *560:8 6.87574e-05
14 *2051:A1 *2514:A 5.71472e-05
15 *2051:A2 *2514:A 0.000142856
16 *2051:B1 *2514:A 0.000139886
17 *2051:B1 *560:14 9.22622e-05
18 *294:18 *560:8 3.65178e-05
19 *464:25 *2041:S 0
20 *484:12 *2042:S 0
21 *516:57 *560:8 0.000269428
*RES
1 *2533:X *560:8 19.2643 
2 *560:8 *560:14 8.71429 
3 *560:14 *2042:S 11.4964 
4 *560:14 *2041:S 21.1571 
5 *560:8 *2514:A 17.1036 
*END

*D_NET *561 0.00244231
*CONN
*I *2083:A1 I *D sky130_fd_sc_hd__a21o_1
*I *2068:A1 I *D sky130_fd_sc_hd__a21o_1
*I *2079:A1 I *D sky130_fd_sc_hd__a21oi_1
*I *2534:X O *D sky130_fd_sc_hd__dlygate4sd1_1
*CAP
1 *2083:A1 0.000109058
2 *2068:A1 9.30384e-05
3 *2079:A1 0.000162463
4 *2534:X 4.70928e-05
5 *561:10 0.000291062
6 *561:8 0.000191711
7 *2063:C *2083:A1 9.25014e-06
8 *2068:A2 *2068:A1 8.71377e-05
9 *2068:A2 *561:8 2.59355e-05
10 *2079:A2 *2079:A1 6.42877e-05
11 *2080:B1 *2079:A1 5.71472e-05
12 *2080:B1 *2083:A1 0
13 *2097:A2 *2079:A1 5.52238e-05
14 *2097:B1 *2079:A1 1.74352e-05
15 *2534:A *2068:A1 0.000181803
16 *2534:A *2079:A1 5.01117e-05
17 *2534:A *561:10 1.08359e-05
18 *45:42 *2068:A1 0.000440718
19 *64:22 *2068:A1 5.52302e-05
20 *64:22 *2083:A1 0.000100831
21 *64:22 *561:10 7.90803e-05
22 *471:24 *2083:A1 0
23 *513:10 *2083:A1 9.30093e-05
24 *513:10 *561:10 5.83304e-05
25 *513:12 *2079:A1 0.000102545
26 *513:12 *561:10 4.56437e-05
27 *513:27 *2079:A1 1.33343e-05
*RES
1 *2534:X *561:8 14.3357 
2 *561:8 *561:10 1.33929 
3 *561:10 *2079:A1 17.7464 
4 *561:10 *2068:A1 18.0321 
5 *561:8 *2083:A1 15.7464 
*END

*D_NET *562 0.00127352
*CONN
*I *2032:A2 I *D sky130_fd_sc_hd__a21o_1
*I *2535:X O *D sky130_fd_sc_hd__dlygate4sd1_1
*CAP
1 *2032:A2 0.000236532
2 *2535:X 0.000236532
3 *1990:A1 *2032:A2 5.62613e-05
4 *1996:A1 *2032:A2 7.83659e-05
5 *1999:A1 *2032:A2 5.52302e-05
6 *2032:B1 *2032:A2 3.29076e-05
7 *2473:A *2032:A2 0
8 *337:12 *2032:A2 0.000247564
9 *517:95 *2032:A2 0.000307343
10 *517:97 *2032:A2 1.52978e-05
11 *524:43 *2032:A2 7.48301e-06
*RES
1 *2535:X *2032:A2 34.7964 
*END

*D_NET *563 0.000987943
*CONN
*I *2157:A2 I *D sky130_fd_sc_hd__o32a_1
*I *2536:X O *D sky130_fd_sc_hd__dlygate4sd1_1
*CAP
1 *2157:A2 0.000266049
2 *2536:X 0.000266049
3 *2139:A *2157:A2 4.6361e-05
4 *117:49 *2157:A2 0.000100639
5 *498:31 *2157:A2 0.000308844
*RES
1 *2536:X *2157:A2 31.9393 
*END

*D_NET *564 0.00177527
*CONN
*I *2148:A2 I *D sky130_fd_sc_hd__o31a_1
*I *2537:X O *D sky130_fd_sc_hd__buf_1
*CAP
1 *2148:A2 0.000361764
2 *2537:X 0.000361764
3 *2148:A3 *2148:A2 6.61828e-05
4 *100:10 *2148:A2 1.02504e-05
5 *100:19 *2148:A2 0.000377174
6 *100:30 *2148:A2 4.49293e-05
7 *121:22 *2148:A2 0.000289673
8 *126:23 *2148:A2 0.00026353
*RES
1 *2537:X *2148:A2 35.7786 
*END

*D_NET *565 0.00160898
*CONN
*I *2028:A2 I *D sky130_fd_sc_hd__a21o_1
*I *2515:X O *D sky130_fd_sc_hd__dlymetal6s2s_1
*CAP
1 *2028:A2 0.000338478
2 *2515:X 0.000338478
3 *2028:A2 *2359:A3 0.000123288
4 *2028:A2 *569:16 0
5 *2014:B2 *2028:A2 4.15914e-05
6 *2516:A *2028:A2 6.2589e-06
7 *38:37 *2028:A2 0
8 *50:33 *2028:A2 0
9 *434:10 *2028:A2 1.91414e-05
10 *451:8 *2028:A2 6.32633e-05
11 *474:10 *2028:A2 0
12 *524:43 *2028:A2 0.000236746
13 *547:47 *2028:A2 0.000441731
*RES
1 *2515:X *2028:A2 36.5107 
*END

*D_NET *566 0.011415
*CONN
*I *2451:A I *D sky130_fd_sc_hd__clkbuf_4
*I *2452:A I *D sky130_fd_sc_hd__dlymetal6s2s_1
*I *2501:X O *D sky130_fd_sc_hd__buf_1
*CAP
1 *2451:A 0
2 *2452:A 0
3 *2501:X 0.000758491
4 *566:18 0.00191377
5 *566:16 0.00204407
6 *566:8 0.000888791
7 *566:16 *577:14 0.000154302
8 *2282:B1 *566:18 0.000193118
9 *2303:A_N *566:18 7.83366e-05
10 *2305:B1 *566:18 0.000428684
11 *2319:A2 *566:18 8.22793e-06
12 *2327:B1 *566:16 0
13 *2328:C *566:18 0.000171375
14 *2330:A *566:18 9.24299e-05
15 *2331:B *566:18 0
16 *2370:C1 *566:18 5.22205e-05
17 *2430:A1 *566:18 8.81343e-05
18 *2430:B1 *566:18 0.000146474
19 *2431:A *566:18 0
20 *291:8 *566:18 0.000694927
21 *309:10 *566:18 0.000115474
22 *309:12 *566:18 0.00019187
23 *310:12 *566:18 0.00029443
24 *311:12 *566:18 0
25 *317:34 *566:18 0.000121763
26 *320:12 *566:18 0.000281124
27 *323:14 *566:18 0
28 *368:18 *566:18 9.08751e-05
29 *377:8 *566:18 0.00019384
30 *378:10 *566:18 0
31 *520:12 *566:16 0.00018077
32 *527:12 *566:18 0.000106403
33 *527:46 *566:18 5.56962e-05
34 *534:109 *566:18 0.000231012
35 *544:29 *566:18 0.00155651
36 *549:111 *566:18 0.000281934
*RES
1 *2501:X *566:8 21.2464 
2 *566:8 *566:16 8.05357 
3 *566:16 *566:18 60.5357 
4 *566:18 *2452:A 13.8 
5 *566:8 *2451:A 9.3 
*END

*D_NET *567 0.00428747
*CONN
*I *2359:A3 I *D sky130_fd_sc_hd__a31o_1
*I *2516:X O *D sky130_fd_sc_hd__dlygate4sd1_1
*CAP
1 *2359:A3 0.000854013
2 *2516:X 0.000854013
3 *2359:A3 *569:16 0
4 *2028:A2 *2359:A3 0.000123288
5 *2032:A1 *2359:A3 0.000148903
6 *2359:A2 *2359:A3 0.00114954
7 *50:33 *2359:A3 0
8 *353:12 *2359:A3 0.000248486
9 *423:8 *2359:A3 9.60875e-05
10 *434:8 *2359:A3 0.000372346
11 *434:10 *2359:A3 7.6644e-05
12 *524:43 *2359:A3 0.000100474
13 *538:14 *2359:A3 0
14 *540:36 *2359:A3 0.00026367
*RES
1 *2516:X *2359:A3 49.6179 
*END

*D_NET *568 0.000481561
*CONN
*I *2531:A I *D sky130_fd_sc_hd__dlygate4sd1_1
*I *2517:X O *D sky130_fd_sc_hd__dlygate4sd1_1
*CAP
1 *2531:A 6.33312e-05
2 *2517:X 6.33312e-05
3 *2001:B *2531:A 5.33005e-05
4 *2007:A *2531:A 0.00012501
5 *2014:B1 *2531:A 5.33005e-05
6 *547:110 *2531:A 0.000123288
*RES
1 *2517:X *2531:A 29.7786 
*END

*D_NET *569 0.00642228
*CONN
*I *2315:A2 I *D sky130_fd_sc_hd__a211oi_1
*I *2518:X O *D sky130_fd_sc_hd__dlygate4sd1_1
*CAP
1 *2315:A2 0
2 *2518:X 9.00363e-05
3 *569:16 0.00176692
4 *569:8 0.00185696
5 *569:16 *1996:B1 0.000148189
6 *1995:A2 *569:16 6.09572e-05
7 *1995:B1_N *569:16 0
8 *1999:A1 *569:16 5.90111e-05
9 *2002:A1 *569:16 0.000244628
10 *2011:B1 *569:16 0
11 *2013:A2 *569:16 5.84267e-05
12 *2013:B1 *569:16 0.000173804
13 *2014:B2 *569:16 1.18358e-05
14 *2028:A2 *569:16 0
15 *2359:A1 *569:16 0
16 *2359:A2 *569:16 0.000400503
17 *2359:A3 *569:16 0
18 *2360:C *569:16 9.03706e-05
19 *2366:B1 *569:16 7.8327e-05
20 *2473:A *569:16 0
21 *38:37 *569:16 9.91086e-05
22 *326:61 *569:16 0
23 *337:12 *569:16 0.000146424
24 *337:34 *569:16 4.66203e-05
25 *343:23 *569:16 0
26 *355:12 *569:16 0
27 *434:8 *569:16 0.00011541
28 *441:10 *569:16 0.000250262
29 *441:12 *569:16 0.00011891
30 *441:14 *569:16 0.000137075
31 *449:33 *569:16 0.000146474
32 *451:8 *569:16 0
33 *453:12 *569:16 0
34 *456:27 *569:8 0.000144773
35 *501:48 *569:16 0.000169031
36 *538:14 *569:16 0
37 *546:41 *569:16 0
38 *546:52 *569:16 0
39 *547:43 *569:16 8.22793e-06
40 *552:53 *569:16 0
*RES
1 *2518:X *569:8 15.1571 
2 *569:8 *569:16 43.75 
3 *569:16 *2315:A2 9.3 
*END

*D_NET *570 0.00256341
*CONN
*I *1998:B1 I *D sky130_fd_sc_hd__a21oi_1
*I *2519:X O *D sky130_fd_sc_hd__dlygate4sd1_1
*CAP
1 *1998:B1 0.000486388
2 *2519:X 0.000486388
3 *1998:B1 *1995:A1 0.000580613
4 *1991:A_N *1998:B1 0.000139907
5 *1999:A1 *1998:B1 0.00026546
6 *1999:B1 *1998:B1 0.000137983
7 *2519:A *1998:B1 2.28499e-05
8 *412:14 *1998:B1 9.89844e-05
9 *520:108 *1998:B1 0.000236512
10 *524:43 *1998:B1 1.98839e-05
11 *552:22 *1998:B1 8.84408e-05
*RES
1 *2519:X *1998:B1 48.2964 
*END

*D_NET *571 0.00139618
*CONN
*I *2094:A1 I *D sky130_fd_sc_hd__a21o_1
*I *2093:A1 I *D sky130_fd_sc_hd__a21oi_1
*I *2520:X O *D sky130_fd_sc_hd__buf_1
*CAP
1 *2094:A1 0
2 *2093:A1 6.82088e-05
3 *2520:X 0.000345766
4 *571:10 0.000413975
5 *2092:C *571:10 1.95435e-05
6 *2093:A2 *2093:A1 5.49489e-05
7 *2093:B1 *2093:A1 5.2027e-05
8 *2093:B1 *571:10 8.45367e-05
9 *283:46 *571:10 0.00014183
10 *283:50 *571:10 0.000215346
*RES
1 *2520:X *571:10 14.9071 
2 *571:10 *2093:A1 10.6571 
3 *571:10 *2094:A1 9.3 
*END

*D_NET *572 0.00198395
*CONN
*I *1995:A1 I *D sky130_fd_sc_hd__o21bai_1
*I *2521:X O *D sky130_fd_sc_hd__dlymetal6s2s_1
*CAP
1 *1995:A1 0.0004536
2 *2521:X 0.0004536
3 *1998:B1 *1995:A1 0.000580613
4 *2521:A *1995:A1 5.52238e-05
5 *412:14 *1995:A1 4.80001e-05
6 *520:108 *1995:A1 9.55832e-05
7 *524:43 *1995:A1 9.41642e-05
8 *552:22 *1995:A1 0.000188997
9 *552:24 *1995:A1 1.41706e-05
*RES
1 *2521:X *1995:A1 37.8679 
*END

*D_NET *573 0.00181734
*CONN
*I *2008:B I *D sky130_fd_sc_hd__nand3_1
*I *2522:X O *D sky130_fd_sc_hd__dlymetal6s2s_1
*CAP
1 *2008:B 0.000468039
2 *2522:X 0.000468039
3 *2011:B1 *2008:B 1.85762e-05
4 *2029:A2 *2008:B 4.38058e-05
5 *2031:A2 *2008:B 1.63165e-05
6 *520:72 *2008:B 0.000802566
*RES
1 *2522:X *2008:B 36.8528 
*END

*D_NET *574 0.00125299
*CONN
*I *2013:A1 I *D sky130_fd_sc_hd__a21o_1
*I *2523:X O *D sky130_fd_sc_hd__clkbuf_1
*CAP
1 *2013:A1 0.000425606
2 *2523:X 0.000425606
3 *2000:A *2013:A1 9.71197e-05
4 *2047:C1 *2013:A1 4.16984e-05
5 *456:8 *2013:A1 0
6 *547:110 *2013:A1 0.000262956
7 *552:32 *2013:A1 0
8 *554:75 *2013:A1 0
*RES
1 *2523:X *2013:A1 34.0643 
*END

*D_NET *575 0.00130075
*CONN
*I *2018:A1 I *D sky130_fd_sc_hd__a21oi_2
*I *2524:X O *D sky130_fd_sc_hd__dlygate4sd1_1
*CAP
1 *2018:A1 0.000534889
2 *2524:X 0.000534889
3 *2027:A2 *2018:A1 3.69047e-06
4 *2048:C1 *2018:A1 7.6644e-05
5 *453:12 *2018:A1 0
6 *518:76 *2018:A1 0.000150636
7 *552:53 *2018:A1 0
*RES
1 *2524:X *2018:A1 35.0107 
*END

*D_NET *576 0.000753511
*CONN
*I *1996:B1 I *D sky130_fd_sc_hd__a211oi_2
*I *2526:X O *D sky130_fd_sc_hd__dlymetal6s2s_1
*CAP
1 *1996:B1 0.000171562
2 *2526:X 0.000171562
3 *1996:A1 *1996:B1 5.33005e-05
4 *337:12 *1996:B1 0.000148189
5 *540:8 *1996:B1 1.3701e-05
6 *550:85 *1996:B1 4.70078e-05
7 *569:16 *1996:B1 0.000148189
*RES
1 *2526:X *1996:B1 31.7429 
*END

*D_NET *577 0.00372792
*CONN
*I *2450:A I *D sky130_fd_sc_hd__clkbuf_4
*I *2502:X O *D sky130_fd_sc_hd__clkbuf_1
*CAP
1 *2450:A 0
2 *2502:X 0.00152744
3 *577:14 0.00152744
4 *2327:B1 *577:14 9.02133e-05
5 *2385:A *577:14 0.000101545
6 *312:6 *577:14 7.43578e-06
7 *313:8 *577:14 0.00030926
8 *313:10 *577:14 0
9 *520:12 *577:14 1.02936e-05
10 *566:16 *577:14 0.000154302
*RES
1 *2502:X *577:14 40.7643 
2 *577:14 *2450:A 9.3 
*END

*D_NET *578 0.00907265
*CONN
*I *2235:A1 I *D sky130_fd_sc_hd__a22o_1
*I *2171:A2 I *D sky130_fd_sc_hd__o211a_1
*I *2177:A1 I *D sky130_fd_sc_hd__a211o_1
*I *2172:A2 I *D sky130_fd_sc_hd__o211a_1
*I *2152:C I *D sky130_fd_sc_hd__or3_1
*I *2442:X O *D sky130_fd_sc_hd__buf_6
*CAP
1 *2235:A1 0.0013921
2 *2171:A2 0
3 *2177:A1 0.000250804
4 *2172:A2 0.000248985
5 *2152:C 0.000927052
6 *2442:X 2.23854e-05
7 *578:35 0.000529887
8 *578:33 0.000217122
9 *578:31 0.00189366
10 *578:6 0.00126397
11 *2138:A *2152:C 0.000397571
12 *2152:A *2152:C 3.69047e-06
13 *2152:B *2152:C 2.16719e-05
14 *2162:A *2152:C 0.000123288
15 *2171:A1 *2172:A2 0
16 *2171:A1 *578:33 0
17 *2171:A1 *578:35 0
18 *2171:B1 *2172:A2 7.83659e-05
19 *2171:B1 *578:35 4.73656e-05
20 *2172:A1 *2172:A2 9.25014e-06
21 *2172:B1 *2172:A2 7.6021e-05
22 *2177:A2 *2177:A1 0.000350901
23 *2179:A *578:6 0
24 *2179:A *578:31 5.52238e-05
25 *2179:C *2172:A2 0
26 *2179:C *578:33 0
27 *2188:A_N *578:31 3.48705e-05
28 *2190:B1 *2235:A1 0
29 *2190:B2 *2235:A1 0
30 *2196:A *2235:A1 0
31 *2196:C *2235:A1 0
32 *2197:A1 *2235:A1 0
33 *2235:B2 *2235:A1 5.41494e-05
34 *2238:A *578:31 0
35 *2238:A *578:33 0
36 *97:18 *2177:A1 7.84853e-05
37 *136:14 *2152:C 2.86192e-05
38 *155:14 *578:33 0
39 *161:14 *2235:A1 0
40 *161:14 *578:33 0
41 *162:6 *2152:C 1.97865e-05
42 *162:6 *578:31 5.7256e-05
43 *163:10 *2235:A1 0.000336915
44 *163:10 *578:31 9.25014e-06
45 *283:102 *2152:C 0.000493352
46 *498:31 *2152:C 2.88018e-06
47 *501:14 *2152:C 4.77728e-05
48 *543:110 *2172:A2 0
49 *549:48 *2235:A1 0
50 *549:48 *578:33 0
*RES
1 *2442:X *578:6 9.72857 
2 *578:6 *2152:C 32.2732 
3 *578:6 *578:31 9.02679 
4 *578:31 *578:33 3.00893 
5 *578:33 *578:35 0.732143 
6 *578:35 *2172:A2 18.7107 
7 *578:35 *2177:A1 17.9429 
8 *578:33 *2171:A2 13.8 
9 *578:31 *2235:A1 34.3089 
*END

*D_NET *579 0.00150087
*CONN
*I *2050:A2 I *D sky130_fd_sc_hd__o211a_1
*I *2527:X O *D sky130_fd_sc_hd__dlymetal6s4s_1
*CAP
1 *2050:A2 0.000534969
2 *2527:X 0.000534969
3 *2050:B1 *2050:A2 0.000125724
4 *2051:A1 *2050:A2 0.000137983
5 *2051:B1 *2050:A2 0.000122051
6 *2525:A *2050:A2 4.51726e-05
*RES
1 *2527:X *2050:A2 35.1179 
*END

*D_NET *580 0.0131645
*CONN
*I *2310:A2 I *D sky130_fd_sc_hd__a21oi_1
*I *2311:A2 I *D sky130_fd_sc_hd__o22a_1
*I *2313:A2 I *D sky130_fd_sc_hd__a32o_1
*I *2290:A I *D sky130_fd_sc_hd__xor2_1
*I *2347:A1 I *D sky130_fd_sc_hd__o21a_1
*I *2443:X O *D sky130_fd_sc_hd__clkbuf_1
*CAP
1 *2310:A2 0
2 *2311:A2 0.000207592
3 *2313:A2 4.70237e-05
4 *2290:A 0
5 *2347:A1 0.000492958
6 *2443:X 4.09299e-05
7 *580:77 0.00142664
8 *580:24 0.00130181
9 *580:14 0.00106408
10 *580:6 0.00146818
11 *2172:C1 *2347:A1 0.000358389
12 *2186:C1 *580:24 8.82021e-05
13 *2285:B1 *2313:A2 3.18676e-05
14 *2285:B1 *580:14 1.21289e-05
15 *2285:B1 *580:24 1.21289e-05
16 *2289:A *2347:A1 0
17 *2290:B *2347:A1 0.000129868
18 *2291:A *580:24 8.86947e-05
19 *2310:A1 *2311:A2 9.41642e-05
20 *2310:B1 *2311:A2 1.38323e-05
21 *2310:B1 *580:77 5.33005e-05
22 *2313:A3 *580:24 2.44318e-05
23 *2315:B1 *580:24 0.000186669
24 *2347:B1 *2347:A1 8.17614e-05
25 *2348:A *2347:A1 6.21659e-05
26 *2357:A1 *580:14 9.62476e-05
27 *2357:A3 *2313:A2 0
28 *2357:A3 *580:14 0.000224577
29 *2358:A2 *580:77 1.38167e-05
30 *2360:A *580:14 9.71197e-05
31 *2360:B *580:6 5.52302e-05
32 *2360:B *580:77 0.000464266
33 *2437:A2 *580:77 7.41941e-05
34 *2437:B1 *580:77 0.000183324
35 *2481:A *580:77 5.61827e-05
36 *188:32 *580:77 0.000313241
37 *190:20 *580:77 2.09413e-05
38 *190:22 *580:77 0.000113902
39 *190:24 *580:77 3.10885e-05
40 *190:57 *580:77 0.000782393
41 *191:60 *2347:A1 0
42 *191:60 *580:24 0
43 *191:75 *2347:A1 0.00010024
44 *197:72 *580:77 0
45 *199:54 *2311:A2 0.000135028
46 *199:54 *580:77 4.27338e-05
47 *205:22 *580:77 6.69988e-05
48 *219:23 *2347:A1 0.000354411
49 *219:23 *580:24 0
50 *338:10 *2347:A1 2.65105e-05
51 *492:10 *580:77 9.25014e-06
52 *492:12 *580:77 0.000144635
53 *492:18 *580:77 0.00019212
54 *519:44 *2311:A2 3.34295e-05
55 *519:55 *2311:A2 0.000113196
56 *519:68 *2311:A2 0.00022937
57 *519:118 *580:24 0.000744452
58 *520:108 *580:14 9.91086e-05
59 *525:120 *2311:A2 0.000376253
60 *529:57 *580:14 1.40034e-05
61 *537:8 *580:14 9.41642e-05
62 *537:18 *2347:A1 0.000106299
63 *546:33 *2347:A1 0.00039997
64 *552:22 *580:14 2.70899e-05
65 *553:12 *580:77 3.04638e-05
66 *553:14 *580:77 1.14671e-05
*RES
1 *2443:X *580:6 9.83571 
2 *580:6 *580:14 14.1607 
3 *580:14 *580:24 25.125 
4 *580:24 *2347:A1 34.6036 
5 *580:24 *2290:A 9.3 
6 *580:14 *2313:A2 10.6929 
7 *580:6 *580:77 44.0357 
8 *580:77 *2311:A2 25.0679 
9 *580:77 *2310:A2 9.3 
*END

*D_NET *581 0.0229018
*CONN
*I *2161:A I *D sky130_fd_sc_hd__nand2_1
*I *2160:A I *D sky130_fd_sc_hd__nor2_1
*I *2128:A I *D sky130_fd_sc_hd__xor2_1
*I *2144:B2 I *D sky130_fd_sc_hd__o2bb2a_1
*I *2317:B I *D sky130_fd_sc_hd__nand2_1
*I *2444:X O *D sky130_fd_sc_hd__clkbuf_1
*CAP
1 *2161:A 0.000102514
2 *2160:A 0
3 *2128:A 1.11927e-05
4 *2144:B2 8.51667e-05
5 *2317:B 0.0036677
6 *2444:X 4.36033e-05
7 *581:63 0.000711973
8 *581:43 0.00155428
9 *581:18 0.00533264
10 *581:8 0.000860081
11 *581:43 *2146:B1 0.000144951
12 *581:63 *2146:B1 0
13 *581:63 *584:8 0
14 *581:63 *584:47 0
15 *1987:C *2317:B 0.00230832
16 *2127:B *581:8 5.33005e-05
17 *2128:B *581:43 5.33334e-05
18 *2129:A1 *581:43 9.0145e-05
19 *2141:A1 *581:43 7.57394e-05
20 *2144:A1_N *2144:B2 0
21 *2145:B1 *2144:B2 6.09773e-05
22 *2145:B1 *581:43 6.96859e-05
23 *2146:A1 *581:43 0.000102207
24 *2152:A *581:43 5.83887e-05
25 *2161:B *2161:A 5.71472e-05
26 *2164:B *581:63 0
27 *2173:A *2317:B 7.98681e-05
28 *2174:B *2317:B 0.000125724
29 *2175:A2 *581:18 2.16719e-05
30 *2190:C1 *2161:A 1.92905e-05
31 *2190:C1 *581:63 0
32 *2536:A *581:63 0.000231948
33 *50:33 *2317:B 0.000655319
34 *110:10 *2317:B 0.000383274
35 *110:10 *581:18 0.000236799
36 *110:32 *581:18 0.000153288
37 *110:32 *581:63 9.25014e-06
38 *113:6 *2144:B2 9.41642e-05
39 *113:6 *581:43 0.000213179
40 *113:8 *2144:B2 9.60875e-05
41 *121:22 *581:43 0.000347815
42 *126:23 *581:18 9.60875e-05
43 *143:10 *2161:A 5.56697e-05
44 *144:6 *2161:A 0.00014183
45 *283:10 *2317:B 0
46 *471:42 *2317:B 0.000356011
47 *525:63 *2317:B 4.5534e-05
48 *526:47 *2317:B 4.5534e-05
49 *531:22 *581:18 7.25444e-05
50 *531:28 *2317:B 0.00101902
51 *531:28 *581:18 0.00027095
52 *531:55 *2317:B 0.00091126
53 *536:44 *2317:B 1.39148e-05
54 *542:18 *581:43 0.000111771
55 *547:33 *2317:B 0.000823965
56 *547:43 *2317:B 0.000434592
57 *547:59 *2317:B 0.000392121
*RES
1 *2444:X *581:8 14.3357 
2 *581:8 *581:18 15.0536 
3 *581:18 *2317:B 44.9706 
4 *581:18 *581:43 24.8929 
5 *581:43 *2144:B2 11.4964 
6 *581:43 *2128:A 9.72857 
7 *581:8 *581:63 14.9464 
8 *581:63 *2160:A 9.3 
9 *581:63 *2161:A 12.3357 
*END

*D_NET *582 0.000578918
*CONN
*I *2532:A I *D sky130_fd_sc_hd__dlygate4sd1_1
*I *2528:X O *D sky130_fd_sc_hd__dlygate4sd1_1
*CAP
1 *2532:A 0.000175075
2 *2528:X 0.000175075
3 *1993:B *2532:A 0.000228767
*RES
1 *2528:X *2532:A 21.6179 
*END

*D_NET *583 0.000321747
*CONN
*I *2528:A I *D sky130_fd_sc_hd__dlygate4sd1_1
*I *2529:X O *D sky130_fd_sc_hd__dlygate4sd1_1
*CAP
1 *2528:A 6.72304e-05
2 *2529:X 6.72304e-05
3 *524:29 *2528:A 9.25014e-06
4 *550:79 *2528:A 0.000124655
5 *552:22 *2528:A 5.33807e-05
*RES
1 *2529:X *2528:A 29.2429 
*END

*D_NET *584 0.00560727
*CONN
*I *2154:A I *D sky130_fd_sc_hd__and3_1
*I *2153:B1 I *D sky130_fd_sc_hd__a21oi_1
*I *2170:C1 I *D sky130_fd_sc_hd__a211o_1
*I *2175:C1 I *D sky130_fd_sc_hd__a211o_1
*I *2146:B1 I *D sky130_fd_sc_hd__a21oi_4
*I *2445:X O *D sky130_fd_sc_hd__clkbuf_1
*CAP
1 *2154:A 0.000410867
2 *2153:B1 0
3 *2170:C1 9.88699e-05
4 *2175:C1 0
5 *2146:B1 0.000363054
6 *2445:X 0
7 *584:47 0.000825801
8 *584:25 0.000396936
9 *584:8 0.000999446
10 *584:6 0.000753259
11 *2114:A *584:25 0
12 *2127:A *584:25 1.24368e-05
13 *2127:B *584:25 7.28784e-05
14 *2153:A1 *2154:A 1.90213e-05
15 *2153:A2 *2154:A 0.000271007
16 *2166:B *584:47 0
17 *2170:B1 *2170:C1 1.02504e-05
18 *2177:A2 *2170:C1 0.0001399
19 *2177:A2 *584:25 2.44073e-05
20 *2178:A1 *2170:C1 2.77173e-05
21 *2178:A1 *584:25 0.00010096
22 *2178:B1 *584:25 9.90431e-05
23 *2190:C1 *584:47 0
24 *2444:A *584:25 2.59355e-05
25 *2461:A *2146:B1 0
26 *2461:A *584:8 0
27 *97:28 *2170:C1 0.00022639
28 *110:32 *2146:B1 0
29 *136:14 *2154:A 1.95435e-05
30 *137:16 *2154:A 9.00795e-06
31 *137:16 *584:47 0
32 *283:79 *2170:C1 8.33655e-05
33 *471:97 *2146:B1 0
34 *471:97 *584:8 0
35 *471:97 *584:47 0
36 *496:12 *2146:B1 0.000114121
37 *531:22 *2146:B1 4.61925e-05
38 *542:18 *2146:B1 0.000311907
39 *581:43 *2146:B1 0.000144951
40 *581:63 *2146:B1 0
41 *581:63 *584:8 0
42 *581:63 *584:47 0
*RES
1 *2445:X *584:6 13.8 
2 *584:6 *584:8 5.28571 
3 *584:8 *2146:B1 21.9786 
4 *584:8 *584:25 10.2857 
5 *584:25 *2175:C1 9.3 
6 *584:25 *2170:C1 21.9071 
7 *584:6 *584:47 11.3036 
8 *584:47 *2153:B1 9.3 
9 *584:47 *2154:A 15.1036 
*END

*D_NET *585 0.000526417
*CONN
*I *2100:A1 I *D sky130_fd_sc_hd__a21oi_1
*I *2530:X O *D sky130_fd_sc_hd__buf_1
*CAP
1 *2100:A1 0.000148481
2 *2530:X 0.000148481
3 *2101:C *2100:A1 0.000229456
*RES
1 *2530:X *2100:A1 20.7786 
*END
