*SPEF "ieee 1481-1999"
*DESIGN "alu8bit"
*DATE "09:55:37 Wednesday August 05, 2026"
*VENDOR "The OpenROAD Project"
*PROGRAM "OpenROAD"
*VERSION "edf00dff99f6c40d67a30c0e22a8191c5d2ed9d6"
*DESIGN_FLOW "NAME_SCOPE LOCAL" "PIN_CAP NONE"
*DIVIDER /
*DELIMITER :
*BUS_DELIMITER []
*T_UNIT 1 NS
*C_UNIT 1 PF
*R_UNIT 1 OHM
*L_UNIT 1 HENRY

*NAME_MAP
*3 inst[0]
*4 inst[1]
*5 inst[2]
*6 inst[3]
*7 op_a[0]
*8 op_a[1]
*9 op_a[2]
*10 op_a[3]
*11 op_a[4]
*12 op_a[5]
*13 op_a[6]
*14 op_a[7]
*15 op_b[0]
*16 op_b[1]
*17 op_b[2]
*18 op_b[3]
*19 op_b[4]
*20 op_b[5]
*21 op_b[6]
*22 op_b[7]
*23 op_out[0]
*24 op_out[1]
*25 op_out[2]
*26 op_out[3]
*27 op_out[4]
*28 op_out[5]
*29 op_out[6]
*30 op_out[7]
*31 _000_
*32 _001_
*33 _002_
*34 _003_
*35 _004_
*36 _005_
*37 _006_
*38 _007_
*39 _008_
*40 _009_
*41 _010_
*42 _011_
*43 _012_
*44 _013_
*45 _014_
*46 _015_
*47 _016_
*48 _017_
*49 _018_
*50 _019_
*51 _020_
*52 _021_
*53 _022_
*54 _023_
*55 _024_
*56 _025_
*57 _026_
*58 _027_
*59 _028_
*60 _029_
*61 _030_
*62 _031_
*63 _032_
*64 _033_
*65 _034_
*66 _035_
*67 _036_
*68 _037_
*69 _038_
*70 _039_
*71 _040_
*72 _041_
*73 _042_
*74 _043_
*75 _044_
*76 _045_
*77 _046_
*78 _047_
*79 _048_
*80 _049_
*81 _050_
*82 _051_
*83 _052_
*84 _053_
*85 _054_
*86 _055_
*87 _056_
*88 _057_
*89 _058_
*90 _059_
*91 _060_
*92 _061_
*93 _062_
*94 _063_
*95 _064_
*96 _065_
*97 _066_
*98 _067_
*99 _068_
*100 _069_
*101 _070_
*102 _071_
*103 _072_
*104 _073_
*105 _074_
*106 _075_
*107 _076_
*108 _077_
*109 _078_
*110 _079_
*111 _080_
*112 _081_
*113 _082_
*114 _083_
*115 _084_
*116 _085_
*117 _086_
*118 _087_
*119 _088_
*120 _089_
*121 _090_
*122 _091_
*123 _092_
*124 _093_
*125 _094_
*126 _095_
*127 _096_
*128 _097_
*129 _098_
*130 _099_
*131 _100_
*132 _101_
*133 _102_
*134 _103_
*135 _104_
*136 _105_
*137 _106_
*138 _107_
*139 _108_
*140 _109_
*141 _110_
*142 _111_
*143 _112_
*144 _113_
*145 _114_
*146 _115_
*147 _116_
*148 _117_
*149 _118_
*150 _119_
*151 _120_
*152 _121_
*153 _122_
*154 _123_
*155 _124_
*156 _125_
*157 _126_
*158 _127_
*159 _128_
*160 _129_
*161 _130_
*162 _131_
*163 _132_
*164 _133_
*165 _134_
*166 _135_
*167 _136_
*168 _137_
*169 _138_
*170 _139_
*171 _140_
*172 _141_
*173 _142_
*174 _143_
*175 _144_
*176 _145_
*177 _146_
*178 _147_
*179 _148_
*180 _149_
*181 _150_
*182 _151_
*183 _152_
*184 _153_
*185 _154_
*186 _155_
*187 _156_
*188 _157_
*189 _158_
*190 _159_
*191 _160_
*192 _161_
*193 _162_
*194 _163_
*195 _164_
*196 _165_
*197 _166_
*198 _167_
*199 _168_
*200 _169_
*201 _170_
*202 _171_
*203 _172_
*204 _173_
*205 _174_
*206 _175_
*207 _176_
*208 _177_
*209 _178_
*210 _179_
*211 _180_
*212 _181_
*213 _182_
*214 _183_
*215 _184_
*216 _185_
*217 _186_
*218 _187_
*219 _188_
*220 _189_
*221 _190_
*222 _191_
*223 _192_
*224 _193_
*225 _194_
*226 _195_
*227 _196_
*228 _197_
*229 _198_
*230 _199_
*231 _200_
*232 _201_
*233 _202_
*234 _203_
*235 _204_
*236 _205_
*237 _206_
*238 _207_
*239 _208_
*240 _209_
*241 _210_
*242 _211_
*243 _212_
*244 _213_
*245 _214_
*246 _215_
*247 _216_
*248 _217_
*249 _218_
*250 _219_
*251 _220_
*252 _221_
*253 _222_
*254 _223_
*255 _224_
*256 _225_
*257 _226_
*258 _227_
*259 _228_
*260 _229_
*261 _230_
*262 _231_
*263 _232_
*264 _233_
*265 _234_
*266 _235_
*267 _236_
*268 _237_
*269 _238_
*270 _239_
*271 _240_
*272 _241_
*273 _242_
*274 _243_
*275 _244_
*276 _245_
*277 _246_
*278 _247_
*279 _248_
*280 _249_
*281 _250_
*282 _251_
*283 _252_
*284 _253_
*285 _254_
*286 _255_
*287 _256_
*288 _257_
*289 _258_
*290 _259_
*291 _260_
*292 _261_
*293 _262_
*294 _263_
*295 _264_
*296 _265_
*297 _266_
*298 _267_
*299 _268_
*300 _269_
*301 _270_
*302 _271_
*303 _272_
*304 _273_
*305 _274_
*306 _275_
*307 _276_
*308 _277_
*309 _278_
*310 _279_
*311 _280_
*312 _281_
*313 _282_
*314 _283_
*315 _284_
*316 _285_
*317 _286_
*318 _287_
*319 _288_
*320 _289_
*321 _290_
*322 _291_
*323 _292_
*324 _293_
*325 _294_
*326 _295_
*327 _296_
*328 _297_
*329 _298_
*330 _299_
*331 _300_
*332 _301_
*333 _302_
*334 _303_
*335 _304_
*336 _305_
*337 _306_
*338 _307_
*339 _308_
*340 _309_
*341 _310_
*342 _311_
*343 _312_
*344 _313_
*345 _314_
*346 _315_
*347 _316_
*348 _317_
*349 _318_
*350 _319_
*351 _320_
*352 _321_
*353 _322_
*354 _323_
*355 _324_
*356 _325_
*357 _326_
*358 _327_
*359 _328_
*360 _329_
*361 _330_
*362 _331_
*363 _332_
*364 _333_
*365 _334_
*366 _335_
*367 _336_
*368 _337_
*369 _338_
*370 _339_
*371 _340_
*372 _341_
*373 _342_
*374 _343_
*375 _344_
*376 _345_
*377 _346_
*378 _347_
*379 _348_
*380 _349_
*381 _350_
*382 _351_
*383 _352_
*384 _353_
*385 _354_
*386 _355_
*387 _356_
*388 _357_
*389 _358_
*390 _359_
*391 _360_
*392 _361_
*393 _362_
*394 _363_
*395 _364_
*396 _365_
*397 _366_
*398 _367_
*399 _368_
*400 _369_
*401 _370_
*402 _371_
*403 _372_
*404 _373_
*405 _374_
*406 _375_
*407 _376_
*408 _377_
*409 _378_
*410 _379_
*411 _380_
*412 _381_
*413 _382_
*414 _383_
*415 _384_
*416 _385_
*417 _386_
*418 _387_
*419 _388_
*420 _389_
*421 _390_
*422 _391_
*423 _392_
*424 _393_
*425 _394_
*426 _395_
*427 _396_
*428 _397_
*429 _398_
*430 _399_
*431 _400_
*432 _401_
*433 _402_
*434 _403_
*435 _404_
*436 _405_
*437 _406_
*438 _407_
*439 _408_
*440 _409_
*441 _410_
*442 _411_
*443 _412_
*444 _413_
*445 _414_
*446 _415_
*447 _416_
*448 _417_
*449 _418_
*450 _419_
*451 _420_
*452 _421_
*453 _422_
*454 _423_
*455 _424_
*456 _425_
*457 _426_
*458 _427_
*459 _428_
*460 _429_
*461 _430_
*462 _431_
*463 _432_
*464 _433_
*465 _434_
*466 _435_
*467 _436_
*468 _437_
*469 _438_
*470 _439_
*471 _440_
*472 _441_
*473 _442_
*474 _443_
*475 _444_
*476 _445_
*477 _446_
*478 _447_
*479 _448_
*480 _449_
*481 _450_
*482 _451_
*483 _452_
*484 _453_
*485 _454_
*486 _455_
*487 _456_
*488 _457_
*489 net1
*490 net10
*491 net11
*492 net12
*493 net13
*494 net14
*495 net15
*496 net16
*497 net17
*498 net18
*499 net19
*500 net2
*501 net20
*502 net21
*503 net22
*504 net23
*505 net24
*506 net25
*507 net26
*508 net27
*509 net28
*510 net29
*511 net3
*512 net30
*513 net31
*514 net32
*515 net33
*516 net34
*517 net35
*518 net36
*519 net37
*520 net38
*521 net39
*522 net4
*523 net40
*524 net41
*525 net42
*526 net43
*527 net44
*528 net45
*529 net46
*530 net47
*531 net48
*532 net49
*533 net5
*534 net50
*535 net51
*536 net52
*537 net53
*538 net54
*539 net55
*540 net56
*541 net57
*542 net58
*543 net59
*544 net6
*545 net60
*546 net61
*547 net62
*548 net63
*549 net64
*550 net65
*551 net66
*552 net67
*553 net68
*554 net69
*555 net7
*556 net70
*557 net71
*558 net72
*559 net73
*560 net74
*561 net75
*562 net76
*563 net77
*564 net78
*565 net79
*566 net8
*567 net80
*568 net81
*569 net83
*570 net89
*571 net9
*572 net95
*573 ANTENNA_1
*574 FILLER_0_109
*575 FILLER_0_113
*576 FILLER_0_125
*577 FILLER_0_137
*578 FILLER_0_141
*579 FILLER_0_15
*580 FILLER_0_153
*581 FILLER_0_165
*582 FILLER_0_169
*583 FILLER_0_181
*584 FILLER_0_193
*585 FILLER_0_197
*586 FILLER_0_209
*587 FILLER_0_221
*588 FILLER_0_225
*589 FILLER_0_237
*590 FILLER_0_249
*591 FILLER_0_253
*592 FILLER_0_27
*593 FILLER_0_29
*594 FILLER_0_3
*595 FILLER_0_41
*596 FILLER_0_53
*597 FILLER_0_57
*598 FILLER_0_69
*599 FILLER_0_81
*600 FILLER_0_85
*601 FILLER_0_97
*602 FILLER_10_109
*603 FILLER_10_121
*604 FILLER_10_133
*605 FILLER_10_139
*606 FILLER_10_141
*607 FILLER_10_15
*608 FILLER_10_153
*609 FILLER_10_165
*610 FILLER_10_177
*611 FILLER_10_189
*612 FILLER_10_195
*613 FILLER_10_197
*614 FILLER_10_209
*615 FILLER_10_221
*616 FILLER_10_233
*617 FILLER_10_245
*618 FILLER_10_251
*619 FILLER_10_253
*620 FILLER_10_27
*621 FILLER_10_29
*622 FILLER_10_3
*623 FILLER_10_41
*624 FILLER_10_53
*625 FILLER_10_65
*626 FILLER_10_77
*627 FILLER_10_83
*628 FILLER_10_85
*629 FILLER_10_97
*630 FILLER_11_105
*631 FILLER_11_111
*632 FILLER_11_113
*633 FILLER_11_125
*634 FILLER_11_137
*635 FILLER_11_149
*636 FILLER_11_15
*637 FILLER_11_161
*638 FILLER_11_167
*639 FILLER_11_169
*640 FILLER_11_181
*641 FILLER_11_193
*642 FILLER_11_205
*643 FILLER_11_217
*644 FILLER_11_223
*645 FILLER_11_225
*646 FILLER_11_237
*647 FILLER_11_249
*648 FILLER_11_255
*649 FILLER_11_27
*650 FILLER_11_3
*651 FILLER_11_39
*652 FILLER_11_51
*653 FILLER_11_55
*654 FILLER_11_57
*655 FILLER_11_69
*656 FILLER_11_81
*657 FILLER_11_93
*658 FILLER_12_109
*659 FILLER_12_121
*660 FILLER_12_133
*661 FILLER_12_139
*662 FILLER_12_141
*663 FILLER_12_15
*664 FILLER_12_153
*665 FILLER_12_165
*666 FILLER_12_177
*667 FILLER_12_189
*668 FILLER_12_195
*669 FILLER_12_197
*670 FILLER_12_209
*671 FILLER_12_221
*672 FILLER_12_233
*673 FILLER_12_245
*674 FILLER_12_251
*675 FILLER_12_253
*676 FILLER_12_27
*677 FILLER_12_29
*678 FILLER_12_3
*679 FILLER_12_41
*680 FILLER_12_53
*681 FILLER_12_65
*682 FILLER_12_77
*683 FILLER_12_83
*684 FILLER_12_85
*685 FILLER_12_97
*686 FILLER_13_105
*687 FILLER_13_111
*688 FILLER_13_113
*689 FILLER_13_125
*690 FILLER_13_137
*691 FILLER_13_149
*692 FILLER_13_15
*693 FILLER_13_161
*694 FILLER_13_167
*695 FILLER_13_169
*696 FILLER_13_181
*697 FILLER_13_188
*698 FILLER_13_196
*699 FILLER_13_208
*700 FILLER_13_214
*701 FILLER_13_222
*702 FILLER_13_229
*703 FILLER_13_241
*704 FILLER_13_253
*705 FILLER_13_27
*706 FILLER_13_3
*707 FILLER_13_39
*708 FILLER_13_51
*709 FILLER_13_55
*710 FILLER_13_57
*711 FILLER_13_69
*712 FILLER_13_81
*713 FILLER_13_93
*714 FILLER_14_107
*715 FILLER_14_119
*716 FILLER_14_138
*717 FILLER_14_144
*718 FILLER_14_15
*719 FILLER_14_159
*720 FILLER_14_168
*721 FILLER_14_180
*722 FILLER_14_204
*723 FILLER_14_231
*724 FILLER_14_243
*725 FILLER_14_251
*726 FILLER_14_253
*727 FILLER_14_27
*728 FILLER_14_29
*729 FILLER_14_3
*730 FILLER_14_41
*731 FILLER_14_53
*732 FILLER_14_65
*733 FILLER_14_77
*734 FILLER_14_83
*735 FILLER_14_85
*736 FILLER_15_107
*737 FILLER_15_111
*738 FILLER_15_116
*739 FILLER_15_136
*740 FILLER_15_15
*741 FILLER_15_153
*742 FILLER_15_166
*743 FILLER_15_176
*744 FILLER_15_193
*745 FILLER_15_205
*746 FILLER_15_221
*747 FILLER_15_232
*748 FILLER_15_244
*749 FILLER_15_27
*750 FILLER_15_3
*751 FILLER_15_39
*752 FILLER_15_51
*753 FILLER_15_55
*754 FILLER_15_57
*755 FILLER_15_69
*756 FILLER_15_81
*757 FILLER_15_93
*758 FILLER_16_105
*759 FILLER_16_113
*760 FILLER_16_137
*761 FILLER_16_141
*762 FILLER_16_15
*763 FILLER_16_153
*764 FILLER_16_161
*765 FILLER_16_180
*766 FILLER_16_192
*767 FILLER_16_197
*768 FILLER_16_209
*769 FILLER_16_220
*770 FILLER_16_229
*771 FILLER_16_241
*772 FILLER_16_249
*773 FILLER_16_253
*774 FILLER_16_27
*775 FILLER_16_29
*776 FILLER_16_3
*777 FILLER_16_41
*778 FILLER_16_53
*779 FILLER_16_72
*780 FILLER_16_76
*781 FILLER_16_80
*782 FILLER_16_85
*783 FILLER_17_104
*784 FILLER_17_121
*785 FILLER_17_129
*786 FILLER_17_144
*787 FILLER_17_15
*788 FILLER_17_152
*789 FILLER_17_166
*790 FILLER_17_181
*791 FILLER_17_187
*792 FILLER_17_195
*793 FILLER_17_207
*794 FILLER_17_225
*795 FILLER_17_233
*796 FILLER_17_245
*797 FILLER_17_253
*798 FILLER_17_27
*799 FILLER_17_3
*800 FILLER_17_39
*801 FILLER_17_47
*802 FILLER_17_68
*803 FILLER_17_80
*804 FILLER_17_92
*805 FILLER_18_101
*806 FILLER_18_112
*807 FILLER_18_127
*808 FILLER_18_137
*809 FILLER_18_141
*810 FILLER_18_15
*811 FILLER_18_153
*812 FILLER_18_165
*813 FILLER_18_177
*814 FILLER_18_197
*815 FILLER_18_203
*816 FILLER_18_207
*817 FILLER_18_222
*818 FILLER_18_231
*819 FILLER_18_244
*820 FILLER_18_253
*821 FILLER_18_27
*822 FILLER_18_29
*823 FILLER_18_3
*824 FILLER_18_41
*825 FILLER_18_56
*826 FILLER_18_68
*827 FILLER_18_72
*828 FILLER_18_93
*829 FILLER_19_104
*830 FILLER_19_109
*831 FILLER_19_116
*832 FILLER_19_134
*833 FILLER_19_146
*834 FILLER_19_15
*835 FILLER_19_158
*836 FILLER_19_166
*837 FILLER_19_169
*838 FILLER_19_177
*839 FILLER_19_219
*840 FILLER_19_223
*841 FILLER_19_225
*842 FILLER_19_237
*843 FILLER_19_244
*844 FILLER_19_248
*845 FILLER_19_27
*846 FILLER_19_3
*847 FILLER_19_39
*848 FILLER_19_51
*849 FILLER_19_55
*850 FILLER_19_57
*851 FILLER_19_69
*852 FILLER_19_98
*853 FILLER_1_105
*854 FILLER_1_111
*855 FILLER_1_113
*856 FILLER_1_125
*857 FILLER_1_137
*858 FILLER_1_149
*859 FILLER_1_15
*860 FILLER_1_161
*861 FILLER_1_167
*862 FILLER_1_169
*863 FILLER_1_181
*864 FILLER_1_193
*865 FILLER_1_205
*866 FILLER_1_217
*867 FILLER_1_223
*868 FILLER_1_225
*869 FILLER_1_237
*870 FILLER_1_249
*871 FILLER_1_257
*872 FILLER_1_27
*873 FILLER_1_3
*874 FILLER_1_39
*875 FILLER_1_51
*876 FILLER_1_55
*877 FILLER_1_57
*878 FILLER_1_69
*879 FILLER_1_81
*880 FILLER_1_93
*881 FILLER_20_100
*882 FILLER_20_114
*883 FILLER_20_126
*884 FILLER_20_132
*885 FILLER_20_15
*886 FILLER_20_162
*887 FILLER_20_170
*888 FILLER_20_184
*889 FILLER_20_226
*890 FILLER_20_232
*891 FILLER_20_251
*892 FILLER_20_253
*893 FILLER_20_27
*894 FILLER_20_29
*895 FILLER_20_3
*896 FILLER_20_41
*897 FILLER_20_67
*898 FILLER_20_83
*899 FILLER_20_88
*900 FILLER_21_108
*901 FILLER_21_116
*902 FILLER_21_128
*903 FILLER_21_15
*904 FILLER_21_152
*905 FILLER_21_164
*906 FILLER_21_183
*907 FILLER_21_194
*908 FILLER_21_202
*909 FILLER_21_208
*910 FILLER_21_213
*911 FILLER_21_221
*912 FILLER_21_225
*913 FILLER_21_238
*914 FILLER_21_27
*915 FILLER_21_3
*916 FILLER_21_39
*917 FILLER_21_55
*918 FILLER_21_60
*919 FILLER_21_78
*920 FILLER_21_84
*921 FILLER_21_96
*922 FILLER_22_111
*923 FILLER_22_123
*924 FILLER_22_139
*925 FILLER_22_152
*926 FILLER_22_164
*927 FILLER_22_168
*928 FILLER_22_181
*929 FILLER_22_189
*930 FILLER_22_195
*931 FILLER_22_203
*932 FILLER_22_215
*933 FILLER_22_227
*934 FILLER_22_239
*935 FILLER_22_244
*936 FILLER_22_253
*937 FILLER_22_26
*938 FILLER_22_29
*939 FILLER_22_3
*940 FILLER_22_59
*941 FILLER_22_71
*942 FILLER_22_75
*943 FILLER_22_83
*944 FILLER_22_91
*945 FILLER_22_99
*946 FILLER_23_107
*947 FILLER_23_111
*948 FILLER_23_113
*949 FILLER_23_121
*950 FILLER_23_128
*951 FILLER_23_132
*952 FILLER_23_138
*953 FILLER_23_147
*954 FILLER_23_159
*955 FILLER_23_167
*956 FILLER_23_169
*957 FILLER_23_181
*958 FILLER_23_193
*959 FILLER_23_205
*960 FILLER_23_213
*961 FILLER_23_231
*962 FILLER_23_235
*963 FILLER_23_241
*964 FILLER_23_251
*965 FILLER_23_3
*966 FILLER_23_36
*967 FILLER_23_54
*968 FILLER_23_60
*969 FILLER_23_68
*970 FILLER_23_78
*971 FILLER_23_87
*972 FILLER_23_98
*973 FILLER_24_112
*974 FILLER_24_124
*975 FILLER_24_13
*976 FILLER_24_136
*977 FILLER_24_141
*978 FILLER_24_170
*979 FILLER_24_182
*980 FILLER_24_188
*981 FILLER_24_194
*982 FILLER_24_201
*983 FILLER_24_222
*984 FILLER_24_233
*985 FILLER_24_24
*986 FILLER_24_258
*987 FILLER_24_3
*988 FILLER_24_53
*989 FILLER_24_65
*990 FILLER_24_78
*991 FILLER_24_94
*992 FILLER_25_116
*993 FILLER_25_120
*994 FILLER_25_124
*995 FILLER_25_136
*996 FILLER_25_150
*997 FILLER_25_160
*998 FILLER_25_17
*999 FILLER_25_180
*1000 FILLER_25_188
*1001 FILLER_25_208
*1002 FILLER_25_220
*1003 FILLER_25_225
*1004 FILLER_25_229
*1005 FILLER_25_238
*1006 FILLER_25_250
*1007 FILLER_25_258
*1008 FILLER_25_29
*1009 FILLER_25_3
*1010 FILLER_25_49
*1011 FILLER_25_55
*1012 FILLER_25_57
*1013 FILLER_25_65
*1014 FILLER_25_71
*1015 FILLER_25_83
*1016 FILLER_25_91
*1017 FILLER_26_114
*1018 FILLER_26_12
*1019 FILLER_26_125
*1020 FILLER_26_133
*1021 FILLER_26_141
*1022 FILLER_26_181
*1023 FILLER_26_193
*1024 FILLER_26_20
*1025 FILLER_26_200
*1026 FILLER_26_212
*1027 FILLER_26_224
*1028 FILLER_26_232
*1029 FILLER_26_248
*1030 FILLER_26_253
*1031 FILLER_26_29
*1032 FILLER_26_41
*1033 FILLER_26_59
*1034 FILLER_26_6
*1035 FILLER_26_66
*1036 FILLER_26_78
*1037 FILLER_26_85
*1038 FILLER_26_97
*1039 FILLER_27_110
*1040 FILLER_27_113
*1041 FILLER_27_125
*1042 FILLER_27_137
*1043 FILLER_27_14
*1044 FILLER_27_152
*1045 FILLER_27_164
*1046 FILLER_27_179
*1047 FILLER_27_191
*1048 FILLER_27_203
*1049 FILLER_27_215
*1050 FILLER_27_235
*1051 FILLER_27_247
*1052 FILLER_27_25
*1053 FILLER_27_40
*1054 FILLER_27_51
*1055 FILLER_27_55
*1056 FILLER_27_6
*1057 FILLER_27_73
*1058 FILLER_27_85
*1059 FILLER_27_97
*1060 FILLER_28_102
*1061 FILLER_28_109
*1062 FILLER_28_121
*1063 FILLER_28_131
*1064 FILLER_28_139
*1065 FILLER_28_141
*1066 FILLER_28_15
*1067 FILLER_28_153
*1068 FILLER_28_175
*1069 FILLER_28_187
*1070 FILLER_28_195
*1071 FILLER_28_197
*1072 FILLER_28_211
*1073 FILLER_28_220
*1074 FILLER_28_228
*1075 FILLER_28_251
*1076 FILLER_28_253
*1077 FILLER_28_27
*1078 FILLER_28_29
*1079 FILLER_28_3
*1080 FILLER_28_41
*1081 FILLER_28_49
*1082 FILLER_28_90
*1083 FILLER_29_111
*1084 FILLER_29_116
*1085 FILLER_29_143
*1086 FILLER_29_15
*1087 FILLER_29_155
*1088 FILLER_29_167
*1089 FILLER_29_169
*1090 FILLER_29_181
*1091 FILLER_29_189
*1092 FILLER_29_198
*1093 FILLER_29_206
*1094 FILLER_29_222
*1095 FILLER_29_230
*1096 FILLER_29_242
*1097 FILLER_29_248
*1098 FILLER_29_26
*1099 FILLER_29_3
*1100 FILLER_29_41
*1101 FILLER_29_51
*1102 FILLER_29_55
*1103 FILLER_29_57
*1104 FILLER_29_69
*1105 FILLER_29_92
*1106 FILLER_2_109
*1107 FILLER_2_121
*1108 FILLER_2_133
*1109 FILLER_2_139
*1110 FILLER_2_141
*1111 FILLER_2_15
*1112 FILLER_2_153
*1113 FILLER_2_165
*1114 FILLER_2_177
*1115 FILLER_2_189
*1116 FILLER_2_195
*1117 FILLER_2_197
*1118 FILLER_2_209
*1119 FILLER_2_221
*1120 FILLER_2_233
*1121 FILLER_2_245
*1122 FILLER_2_251
*1123 FILLER_2_253
*1124 FILLER_2_27
*1125 FILLER_2_29
*1126 FILLER_2_3
*1127 FILLER_2_41
*1128 FILLER_2_53
*1129 FILLER_2_65
*1130 FILLER_2_77
*1131 FILLER_2_83
*1132 FILLER_2_85
*1133 FILLER_2_97
*1134 FILLER_30_116
*1135 FILLER_30_124
*1136 FILLER_30_131
*1137 FILLER_30_141
*1138 FILLER_30_150
*1139 FILLER_30_155
*1140 FILLER_30_161
*1141 FILLER_30_197
*1142 FILLER_30_209
*1143 FILLER_30_224
*1144 FILLER_30_236
*1145 FILLER_30_258
*1146 FILLER_30_27
*1147 FILLER_30_29
*1148 FILLER_30_3
*1149 FILLER_30_55
*1150 FILLER_30_67
*1151 FILLER_30_71
*1152 FILLER_30_83
*1153 FILLER_30_96
*1154 FILLER_31_116
*1155 FILLER_31_128
*1156 FILLER_31_136
*1157 FILLER_31_143
*1158 FILLER_31_149
*1159 FILLER_31_164
*1160 FILLER_31_176
*1161 FILLER_31_188
*1162 FILLER_31_193
*1163 FILLER_31_205
*1164 FILLER_31_217
*1165 FILLER_31_223
*1166 FILLER_31_225
*1167 FILLER_31_233
*1168 FILLER_31_24
*1169 FILLER_31_257
*1170 FILLER_31_44
*1171 FILLER_31_66
*1172 FILLER_31_82
*1173 FILLER_31_94
*1174 FILLER_32_103
*1175 FILLER_32_115
*1176 FILLER_32_126
*1177 FILLER_32_148
*1178 FILLER_32_160
*1179 FILLER_32_172
*1180 FILLER_32_18
*1181 FILLER_32_184
*1182 FILLER_32_197
*1183 FILLER_32_209
*1184 FILLER_32_221
*1185 FILLER_32_258
*1186 FILLER_32_26
*1187 FILLER_32_29
*1188 FILLER_32_3
*1189 FILLER_32_47
*1190 FILLER_32_65
*1191 FILLER_32_73
*1192 FILLER_32_77
*1193 FILLER_32_83
*1194 FILLER_33_109
*1195 FILLER_33_113
*1196 FILLER_33_128
*1197 FILLER_33_141
*1198 FILLER_33_15
*1199 FILLER_33_153
*1200 FILLER_33_165
*1201 FILLER_33_169
*1202 FILLER_33_185
*1203 FILLER_33_197
*1204 FILLER_33_205
*1205 FILLER_33_223
*1206 FILLER_33_225
*1207 FILLER_33_233
*1208 FILLER_33_240
*1209 FILLER_33_252
*1210 FILLER_33_258
*1211 FILLER_33_27
*1212 FILLER_33_3
*1213 FILLER_33_35
*1214 FILLER_33_43
*1215 FILLER_33_55
*1216 FILLER_33_57
*1217 FILLER_33_65
*1218 FILLER_33_97
*1219 FILLER_34_102
*1220 FILLER_34_124
*1221 FILLER_34_141
*1222 FILLER_34_149
*1223 FILLER_34_157
*1224 FILLER_34_162
*1225 FILLER_34_166
*1226 FILLER_34_18
*1227 FILLER_34_185
*1228 FILLER_34_189
*1229 FILLER_34_197
*1230 FILLER_34_223
*1231 FILLER_34_235
*1232 FILLER_34_243
*1233 FILLER_34_251
*1234 FILLER_34_253
*1235 FILLER_34_26
*1236 FILLER_34_29
*1237 FILLER_34_44
*1238 FILLER_34_51
*1239 FILLER_34_59
*1240 FILLER_34_6
*1241 FILLER_34_63
*1242 FILLER_34_75
*1243 FILLER_34_83
*1244 FILLER_34_85
*1245 FILLER_34_93
*1246 FILLER_35_111
*1247 FILLER_35_122
*1248 FILLER_35_128
*1249 FILLER_35_141
*1250 FILLER_35_167
*1251 FILLER_35_169
*1252 FILLER_35_201
*1253 FILLER_35_209
*1254 FILLER_35_217
*1255 FILLER_35_223
*1256 FILLER_35_225
*1257 FILLER_35_24
*1258 FILLER_35_248
*1259 FILLER_35_256
*1260 FILLER_35_32
*1261 FILLER_35_57
*1262 FILLER_35_69
*1263 FILLER_35_7
*1264 FILLER_35_76
*1265 FILLER_35_97
*1266 FILLER_36_101
*1267 FILLER_36_105
*1268 FILLER_36_111
*1269 FILLER_36_119
*1270 FILLER_36_130
*1271 FILLER_36_138
*1272 FILLER_36_14
*1273 FILLER_36_141
*1274 FILLER_36_149
*1275 FILLER_36_158
*1276 FILLER_36_162
*1277 FILLER_36_169
*1278 FILLER_36_177
*1279 FILLER_36_188
*1280 FILLER_36_197
*1281 FILLER_36_20
*1282 FILLER_36_209
*1283 FILLER_36_221
*1284 FILLER_36_233
*1285 FILLER_36_248
*1286 FILLER_36_253
*1287 FILLER_36_38
*1288 FILLER_36_50
*1289 FILLER_36_6
*1290 FILLER_36_62
*1291 FILLER_36_85
*1292 FILLER_36_97
*1293 FILLER_37_110
*1294 FILLER_37_113
*1295 FILLER_37_125
*1296 FILLER_37_141
*1297 FILLER_37_15
*1298 FILLER_37_153
*1299 FILLER_37_159
*1300 FILLER_37_166
*1301 FILLER_37_173
*1302 FILLER_37_185
*1303 FILLER_37_205
*1304 FILLER_37_217
*1305 FILLER_37_223
*1306 FILLER_37_225
*1307 FILLER_37_229
*1308 FILLER_37_235
*1309 FILLER_37_248
*1310 FILLER_37_256
*1311 FILLER_37_27
*1312 FILLER_37_3
*1313 FILLER_37_39
*1314 FILLER_37_47
*1315 FILLER_37_54
*1316 FILLER_37_61
*1317 FILLER_37_69
*1318 FILLER_37_78
*1319 FILLER_37_86
*1320 FILLER_37_98
*1321 FILLER_38_105
*1322 FILLER_38_117
*1323 FILLER_38_129
*1324 FILLER_38_137
*1325 FILLER_38_141
*1326 FILLER_38_15
*1327 FILLER_38_153
*1328 FILLER_38_165
*1329 FILLER_38_171
*1330 FILLER_38_183
*1331 FILLER_38_195
*1332 FILLER_38_197
*1333 FILLER_38_220
*1334 FILLER_38_230
*1335 FILLER_38_234
*1336 FILLER_38_238
*1337 FILLER_38_250
*1338 FILLER_38_253
*1339 FILLER_38_27
*1340 FILLER_38_29
*1341 FILLER_38_3
*1342 FILLER_38_37
*1343 FILLER_38_45
*1344 FILLER_38_50
*1345 FILLER_38_62
*1346 FILLER_38_74
*1347 FILLER_38_82
*1348 FILLER_38_85
*1349 FILLER_38_97
*1350 FILLER_39_102
*1351 FILLER_39_111
*1352 FILLER_39_113
*1353 FILLER_39_125
*1354 FILLER_39_134
*1355 FILLER_39_15
*1356 FILLER_39_162
*1357 FILLER_39_177
*1358 FILLER_39_194
*1359 FILLER_39_206
*1360 FILLER_39_212
*1361 FILLER_39_223
*1362 FILLER_39_225
*1363 FILLER_39_232
*1364 FILLER_39_244
*1365 FILLER_39_256
*1366 FILLER_39_27
*1367 FILLER_39_3
*1368 FILLER_39_39
*1369 FILLER_39_51
*1370 FILLER_39_55
*1371 FILLER_39_57
*1372 FILLER_39_69
*1373 FILLER_39_77
*1374 FILLER_39_90
*1375 FILLER_3_105
*1376 FILLER_3_111
*1377 FILLER_3_113
*1378 FILLER_3_125
*1379 FILLER_3_137
*1380 FILLER_3_149
*1381 FILLER_3_15
*1382 FILLER_3_161
*1383 FILLER_3_167
*1384 FILLER_3_169
*1385 FILLER_3_181
*1386 FILLER_3_193
*1387 FILLER_3_205
*1388 FILLER_3_217
*1389 FILLER_3_223
*1390 FILLER_3_225
*1391 FILLER_3_237
*1392 FILLER_3_249
*1393 FILLER_3_257
*1394 FILLER_3_27
*1395 FILLER_3_3
*1396 FILLER_3_39
*1397 FILLER_3_51
*1398 FILLER_3_55
*1399 FILLER_3_57
*1400 FILLER_3_69
*1401 FILLER_3_81
*1402 FILLER_3_93
*1403 FILLER_40_102
*1404 FILLER_40_107
*1405 FILLER_40_119
*1406 FILLER_40_141
*1407 FILLER_40_15
*1408 FILLER_40_179
*1409 FILLER_40_191
*1410 FILLER_40_195
*1411 FILLER_40_217
*1412 FILLER_40_229
*1413 FILLER_40_241
*1414 FILLER_40_27
*1415 FILLER_40_29
*1416 FILLER_40_3
*1417 FILLER_40_41
*1418 FILLER_40_53
*1419 FILLER_40_65
*1420 FILLER_40_77
*1421 FILLER_40_83
*1422 FILLER_40_88
*1423 FILLER_40_94
*1424 FILLER_41_119
*1425 FILLER_41_141
*1426 FILLER_41_15
*1427 FILLER_41_153
*1428 FILLER_41_184
*1429 FILLER_41_205
*1430 FILLER_41_240
*1431 FILLER_41_257
*1432 FILLER_41_27
*1433 FILLER_41_3
*1434 FILLER_41_39
*1435 FILLER_41_51
*1436 FILLER_41_55
*1437 FILLER_41_57
*1438 FILLER_41_69
*1439 FILLER_41_75
*1440 FILLER_42_109
*1441 FILLER_42_117
*1442 FILLER_42_131
*1443 FILLER_42_138
*1444 FILLER_42_141
*1445 FILLER_42_15
*1446 FILLER_42_153
*1447 FILLER_42_157
*1448 FILLER_42_178
*1449 FILLER_42_182
*1450 FILLER_42_216
*1451 FILLER_42_228
*1452 FILLER_42_240
*1453 FILLER_42_245
*1454 FILLER_42_256
*1455 FILLER_42_27
*1456 FILLER_42_29
*1457 FILLER_42_3
*1458 FILLER_42_41
*1459 FILLER_42_53
*1460 FILLER_42_65
*1461 FILLER_42_77
*1462 FILLER_42_83
*1463 FILLER_42_85
*1464 FILLER_42_97
*1465 FILLER_43_109
*1466 FILLER_43_134
*1467 FILLER_43_141
*1468 FILLER_43_149
*1469 FILLER_43_15
*1470 FILLER_43_153
*1471 FILLER_43_163
*1472 FILLER_43_167
*1473 FILLER_43_175
*1474 FILLER_43_197
*1475 FILLER_43_213
*1476 FILLER_43_221
*1477 FILLER_43_225
*1478 FILLER_43_237
*1479 FILLER_43_249
*1480 FILLER_43_253
*1481 FILLER_43_27
*1482 FILLER_43_29
*1483 FILLER_43_3
*1484 FILLER_43_41
*1485 FILLER_43_53
*1486 FILLER_43_57
*1487 FILLER_43_69
*1488 FILLER_43_81
*1489 FILLER_43_85
*1490 FILLER_43_97
*1491 FILLER_4_109
*1492 FILLER_4_121
*1493 FILLER_4_133
*1494 FILLER_4_139
*1495 FILLER_4_141
*1496 FILLER_4_15
*1497 FILLER_4_153
*1498 FILLER_4_165
*1499 FILLER_4_177
*1500 FILLER_4_189
*1501 FILLER_4_195
*1502 FILLER_4_197
*1503 FILLER_4_209
*1504 FILLER_4_221
*1505 FILLER_4_233
*1506 FILLER_4_245
*1507 FILLER_4_251
*1508 FILLER_4_253
*1509 FILLER_4_27
*1510 FILLER_4_29
*1511 FILLER_4_3
*1512 FILLER_4_41
*1513 FILLER_4_53
*1514 FILLER_4_65
*1515 FILLER_4_77
*1516 FILLER_4_83
*1517 FILLER_4_85
*1518 FILLER_4_97
*1519 FILLER_5_105
*1520 FILLER_5_111
*1521 FILLER_5_113
*1522 FILLER_5_125
*1523 FILLER_5_137
*1524 FILLER_5_149
*1525 FILLER_5_15
*1526 FILLER_5_161
*1527 FILLER_5_167
*1528 FILLER_5_169
*1529 FILLER_5_181
*1530 FILLER_5_193
*1531 FILLER_5_205
*1532 FILLER_5_217
*1533 FILLER_5_223
*1534 FILLER_5_225
*1535 FILLER_5_237
*1536 FILLER_5_249
*1537 FILLER_5_257
*1538 FILLER_5_27
*1539 FILLER_5_3
*1540 FILLER_5_39
*1541 FILLER_5_51
*1542 FILLER_5_55
*1543 FILLER_5_57
*1544 FILLER_5_69
*1545 FILLER_5_81
*1546 FILLER_5_93
*1547 FILLER_6_109
*1548 FILLER_6_121
*1549 FILLER_6_133
*1550 FILLER_6_139
*1551 FILLER_6_141
*1552 FILLER_6_15
*1553 FILLER_6_153
*1554 FILLER_6_165
*1555 FILLER_6_177
*1556 FILLER_6_189
*1557 FILLER_6_195
*1558 FILLER_6_197
*1559 FILLER_6_209
*1560 FILLER_6_221
*1561 FILLER_6_233
*1562 FILLER_6_245
*1563 FILLER_6_251
*1564 FILLER_6_253
*1565 FILLER_6_27
*1566 FILLER_6_29
*1567 FILLER_6_3
*1568 FILLER_6_41
*1569 FILLER_6_53
*1570 FILLER_6_65
*1571 FILLER_6_77
*1572 FILLER_6_83
*1573 FILLER_6_85
*1574 FILLER_6_97
*1575 FILLER_7_105
*1576 FILLER_7_111
*1577 FILLER_7_113
*1578 FILLER_7_125
*1579 FILLER_7_137
*1580 FILLER_7_149
*1581 FILLER_7_15
*1582 FILLER_7_161
*1583 FILLER_7_167
*1584 FILLER_7_169
*1585 FILLER_7_181
*1586 FILLER_7_193
*1587 FILLER_7_205
*1588 FILLER_7_217
*1589 FILLER_7_223
*1590 FILLER_7_225
*1591 FILLER_7_237
*1592 FILLER_7_249
*1593 FILLER_7_257
*1594 FILLER_7_27
*1595 FILLER_7_3
*1596 FILLER_7_39
*1597 FILLER_7_51
*1598 FILLER_7_55
*1599 FILLER_7_57
*1600 FILLER_7_69
*1601 FILLER_7_81
*1602 FILLER_7_93
*1603 FILLER_8_109
*1604 FILLER_8_121
*1605 FILLER_8_133
*1606 FILLER_8_139
*1607 FILLER_8_141
*1608 FILLER_8_15
*1609 FILLER_8_153
*1610 FILLER_8_165
*1611 FILLER_8_177
*1612 FILLER_8_189
*1613 FILLER_8_195
*1614 FILLER_8_197
*1615 FILLER_8_209
*1616 FILLER_8_221
*1617 FILLER_8_233
*1618 FILLER_8_245
*1619 FILLER_8_251
*1620 FILLER_8_253
*1621 FILLER_8_27
*1622 FILLER_8_29
*1623 FILLER_8_3
*1624 FILLER_8_41
*1625 FILLER_8_53
*1626 FILLER_8_65
*1627 FILLER_8_77
*1628 FILLER_8_83
*1629 FILLER_8_85
*1630 FILLER_8_97
*1631 FILLER_9_105
*1632 FILLER_9_111
*1633 FILLER_9_113
*1634 FILLER_9_125
*1635 FILLER_9_137
*1636 FILLER_9_149
*1637 FILLER_9_15
*1638 FILLER_9_161
*1639 FILLER_9_167
*1640 FILLER_9_169
*1641 FILLER_9_181
*1642 FILLER_9_193
*1643 FILLER_9_205
*1644 FILLER_9_217
*1645 FILLER_9_223
*1646 FILLER_9_225
*1647 FILLER_9_237
*1648 FILLER_9_249
*1649 FILLER_9_257
*1650 FILLER_9_27
*1651 FILLER_9_3
*1652 FILLER_9_39
*1653 FILLER_9_51
*1654 FILLER_9_55
*1655 FILLER_9_57
*1656 FILLER_9_69
*1657 FILLER_9_81
*1658 FILLER_9_93
*1659 PHY_EDGE_ROW_0_Left_44
*1660 PHY_EDGE_ROW_0_Right_0
*1661 PHY_EDGE_ROW_10_Left_54
*1662 PHY_EDGE_ROW_10_Right_10
*1663 PHY_EDGE_ROW_11_Left_55
*1664 PHY_EDGE_ROW_11_Right_11
*1665 PHY_EDGE_ROW_12_Left_56
*1666 PHY_EDGE_ROW_12_Right_12
*1667 PHY_EDGE_ROW_13_Left_57
*1668 PHY_EDGE_ROW_13_Right_13
*1669 PHY_EDGE_ROW_14_Left_58
*1670 PHY_EDGE_ROW_14_Right_14
*1671 PHY_EDGE_ROW_15_Left_59
*1672 PHY_EDGE_ROW_15_Right_15
*1673 PHY_EDGE_ROW_16_Left_60
*1674 PHY_EDGE_ROW_16_Right_16
*1675 PHY_EDGE_ROW_17_Left_61
*1676 PHY_EDGE_ROW_17_Right_17
*1677 PHY_EDGE_ROW_18_Left_62
*1678 PHY_EDGE_ROW_18_Right_18
*1679 PHY_EDGE_ROW_19_Left_63
*1680 PHY_EDGE_ROW_19_Right_19
*1681 PHY_EDGE_ROW_1_Left_45
*1682 PHY_EDGE_ROW_1_Right_1
*1683 PHY_EDGE_ROW_20_Left_64
*1684 PHY_EDGE_ROW_20_Right_20
*1685 PHY_EDGE_ROW_21_Left_65
*1686 PHY_EDGE_ROW_21_Right_21
*1687 PHY_EDGE_ROW_22_Left_66
*1688 PHY_EDGE_ROW_22_Right_22
*1689 PHY_EDGE_ROW_23_Left_67
*1690 PHY_EDGE_ROW_23_Right_23
*1691 PHY_EDGE_ROW_24_Left_68
*1692 PHY_EDGE_ROW_24_Right_24
*1693 PHY_EDGE_ROW_25_Left_69
*1694 PHY_EDGE_ROW_25_Right_25
*1695 PHY_EDGE_ROW_26_Left_70
*1696 PHY_EDGE_ROW_26_Right_26
*1697 PHY_EDGE_ROW_27_Left_71
*1698 PHY_EDGE_ROW_27_Right_27
*1699 PHY_EDGE_ROW_28_Left_72
*1700 PHY_EDGE_ROW_28_Right_28
*1701 PHY_EDGE_ROW_29_Left_73
*1702 PHY_EDGE_ROW_29_Right_29
*1703 PHY_EDGE_ROW_2_Left_46
*1704 PHY_EDGE_ROW_2_Right_2
*1705 PHY_EDGE_ROW_30_Left_74
*1706 PHY_EDGE_ROW_30_Right_30
*1707 PHY_EDGE_ROW_31_Left_75
*1708 PHY_EDGE_ROW_31_Right_31
*1709 PHY_EDGE_ROW_32_Left_76
*1710 PHY_EDGE_ROW_32_Right_32
*1711 PHY_EDGE_ROW_33_Left_77
*1712 PHY_EDGE_ROW_33_Right_33
*1713 PHY_EDGE_ROW_34_Left_78
*1714 PHY_EDGE_ROW_34_Right_34
*1715 PHY_EDGE_ROW_35_Left_79
*1716 PHY_EDGE_ROW_35_Right_35
*1717 PHY_EDGE_ROW_36_Left_80
*1718 PHY_EDGE_ROW_36_Right_36
*1719 PHY_EDGE_ROW_37_Left_81
*1720 PHY_EDGE_ROW_37_Right_37
*1721 PHY_EDGE_ROW_38_Left_82
*1722 PHY_EDGE_ROW_38_Right_38
*1723 PHY_EDGE_ROW_39_Left_83
*1724 PHY_EDGE_ROW_39_Right_39
*1725 PHY_EDGE_ROW_3_Left_47
*1726 PHY_EDGE_ROW_3_Right_3
*1727 PHY_EDGE_ROW_40_Left_84
*1728 PHY_EDGE_ROW_40_Right_40
*1729 PHY_EDGE_ROW_41_Left_85
*1730 PHY_EDGE_ROW_41_Right_41
*1731 PHY_EDGE_ROW_42_Left_86
*1732 PHY_EDGE_ROW_42_Right_42
*1733 PHY_EDGE_ROW_43_Left_87
*1734 PHY_EDGE_ROW_43_Right_43
*1735 PHY_EDGE_ROW_4_Left_48
*1736 PHY_EDGE_ROW_4_Right_4
*1737 PHY_EDGE_ROW_5_Left_49
*1738 PHY_EDGE_ROW_5_Right_5
*1739 PHY_EDGE_ROW_6_Left_50
*1740 PHY_EDGE_ROW_6_Right_6
*1741 PHY_EDGE_ROW_7_Left_51
*1742 PHY_EDGE_ROW_7_Right_7
*1743 PHY_EDGE_ROW_8_Left_52
*1744 PHY_EDGE_ROW_8_Right_8
*1745 PHY_EDGE_ROW_9_Left_53
*1746 PHY_EDGE_ROW_9_Right_9
*1747 TAP_TAPCELL_ROW_0_88
*1748 TAP_TAPCELL_ROW_0_89
*1749 TAP_TAPCELL_ROW_0_90
*1750 TAP_TAPCELL_ROW_0_91
*1751 TAP_TAPCELL_ROW_0_92
*1752 TAP_TAPCELL_ROW_0_93
*1753 TAP_TAPCELL_ROW_0_94
*1754 TAP_TAPCELL_ROW_0_95
*1755 TAP_TAPCELL_ROW_0_96
*1756 TAP_TAPCELL_ROW_10_137
*1757 TAP_TAPCELL_ROW_10_138
*1758 TAP_TAPCELL_ROW_10_139
*1759 TAP_TAPCELL_ROW_10_140
*1760 TAP_TAPCELL_ROW_10_141
*1761 TAP_TAPCELL_ROW_11_142
*1762 TAP_TAPCELL_ROW_11_143
*1763 TAP_TAPCELL_ROW_11_144
*1764 TAP_TAPCELL_ROW_11_145
*1765 TAP_TAPCELL_ROW_12_146
*1766 TAP_TAPCELL_ROW_12_147
*1767 TAP_TAPCELL_ROW_12_148
*1768 TAP_TAPCELL_ROW_12_149
*1769 TAP_TAPCELL_ROW_12_150
*1770 TAP_TAPCELL_ROW_13_151
*1771 TAP_TAPCELL_ROW_13_152
*1772 TAP_TAPCELL_ROW_13_153
*1773 TAP_TAPCELL_ROW_13_154
*1774 TAP_TAPCELL_ROW_14_155
*1775 TAP_TAPCELL_ROW_14_156
*1776 TAP_TAPCELL_ROW_14_157
*1777 TAP_TAPCELL_ROW_14_158
*1778 TAP_TAPCELL_ROW_14_159
*1779 TAP_TAPCELL_ROW_15_160
*1780 TAP_TAPCELL_ROW_15_161
*1781 TAP_TAPCELL_ROW_15_162
*1782 TAP_TAPCELL_ROW_15_163
*1783 TAP_TAPCELL_ROW_16_164
*1784 TAP_TAPCELL_ROW_16_165
*1785 TAP_TAPCELL_ROW_16_166
*1786 TAP_TAPCELL_ROW_16_167
*1787 TAP_TAPCELL_ROW_16_168
*1788 TAP_TAPCELL_ROW_17_169
*1789 TAP_TAPCELL_ROW_17_170
*1790 TAP_TAPCELL_ROW_17_171
*1791 TAP_TAPCELL_ROW_17_172
*1792 TAP_TAPCELL_ROW_18_173
*1793 TAP_TAPCELL_ROW_18_174
*1794 TAP_TAPCELL_ROW_18_175
*1795 TAP_TAPCELL_ROW_18_176
*1796 TAP_TAPCELL_ROW_18_177
*1797 TAP_TAPCELL_ROW_19_178
*1798 TAP_TAPCELL_ROW_19_179
*1799 TAP_TAPCELL_ROW_19_180
*1800 TAP_TAPCELL_ROW_19_181
*1801 TAP_TAPCELL_ROW_1_100
*1802 TAP_TAPCELL_ROW_1_97
*1803 TAP_TAPCELL_ROW_1_98
*1804 TAP_TAPCELL_ROW_1_99
*1805 TAP_TAPCELL_ROW_20_182
*1806 TAP_TAPCELL_ROW_20_183
*1807 TAP_TAPCELL_ROW_20_184
*1808 TAP_TAPCELL_ROW_20_185
*1809 TAP_TAPCELL_ROW_20_186
*1810 TAP_TAPCELL_ROW_21_187
*1811 TAP_TAPCELL_ROW_21_188
*1812 TAP_TAPCELL_ROW_21_189
*1813 TAP_TAPCELL_ROW_21_190
*1814 TAP_TAPCELL_ROW_22_191
*1815 TAP_TAPCELL_ROW_22_192
*1816 TAP_TAPCELL_ROW_22_193
*1817 TAP_TAPCELL_ROW_22_194
*1818 TAP_TAPCELL_ROW_22_195
*1819 TAP_TAPCELL_ROW_23_196
*1820 TAP_TAPCELL_ROW_23_197
*1821 TAP_TAPCELL_ROW_23_198
*1822 TAP_TAPCELL_ROW_23_199
*1823 TAP_TAPCELL_ROW_24_200
*1824 TAP_TAPCELL_ROW_24_201
*1825 TAP_TAPCELL_ROW_24_202
*1826 TAP_TAPCELL_ROW_24_203
*1827 TAP_TAPCELL_ROW_24_204
*1828 TAP_TAPCELL_ROW_25_205
*1829 TAP_TAPCELL_ROW_25_206
*1830 TAP_TAPCELL_ROW_25_207
*1831 TAP_TAPCELL_ROW_25_208
*1832 TAP_TAPCELL_ROW_26_209
*1833 TAP_TAPCELL_ROW_26_210
*1834 TAP_TAPCELL_ROW_26_211
*1835 TAP_TAPCELL_ROW_26_212
*1836 TAP_TAPCELL_ROW_26_213
*1837 TAP_TAPCELL_ROW_27_214
*1838 TAP_TAPCELL_ROW_27_215
*1839 TAP_TAPCELL_ROW_27_216
*1840 TAP_TAPCELL_ROW_27_217
*1841 TAP_TAPCELL_ROW_28_218
*1842 TAP_TAPCELL_ROW_28_219
*1843 TAP_TAPCELL_ROW_28_220
*1844 TAP_TAPCELL_ROW_28_221
*1845 TAP_TAPCELL_ROW_28_222
*1846 TAP_TAPCELL_ROW_29_223
*1847 TAP_TAPCELL_ROW_29_224
*1848 TAP_TAPCELL_ROW_29_225
*1849 TAP_TAPCELL_ROW_29_226
*1850 TAP_TAPCELL_ROW_2_101
*1851 TAP_TAPCELL_ROW_2_102
*1852 TAP_TAPCELL_ROW_2_103
*1853 TAP_TAPCELL_ROW_2_104
*1854 TAP_TAPCELL_ROW_2_105
*1855 TAP_TAPCELL_ROW_30_227
*1856 TAP_TAPCELL_ROW_30_228
*1857 TAP_TAPCELL_ROW_30_229
*1858 TAP_TAPCELL_ROW_30_230
*1859 TAP_TAPCELL_ROW_30_231
*1860 TAP_TAPCELL_ROW_31_232
*1861 TAP_TAPCELL_ROW_31_233
*1862 TAP_TAPCELL_ROW_31_234
*1863 TAP_TAPCELL_ROW_31_235
*1864 TAP_TAPCELL_ROW_32_236
*1865 TAP_TAPCELL_ROW_32_237
*1866 TAP_TAPCELL_ROW_32_238
*1867 TAP_TAPCELL_ROW_32_239
*1868 TAP_TAPCELL_ROW_32_240
*1869 TAP_TAPCELL_ROW_33_241
*1870 TAP_TAPCELL_ROW_33_242
*1871 TAP_TAPCELL_ROW_33_243
*1872 TAP_TAPCELL_ROW_33_244
*1873 TAP_TAPCELL_ROW_34_245
*1874 TAP_TAPCELL_ROW_34_246
*1875 TAP_TAPCELL_ROW_34_247
*1876 TAP_TAPCELL_ROW_34_248
*1877 TAP_TAPCELL_ROW_34_249
*1878 TAP_TAPCELL_ROW_35_250
*1879 TAP_TAPCELL_ROW_35_251
*1880 TAP_TAPCELL_ROW_35_252
*1881 TAP_TAPCELL_ROW_35_253
*1882 TAP_TAPCELL_ROW_36_254
*1883 TAP_TAPCELL_ROW_36_255
*1884 TAP_TAPCELL_ROW_36_256
*1885 TAP_TAPCELL_ROW_36_257
*1886 TAP_TAPCELL_ROW_36_258
*1887 TAP_TAPCELL_ROW_37_259
*1888 TAP_TAPCELL_ROW_37_260
*1889 TAP_TAPCELL_ROW_37_261
*1890 TAP_TAPCELL_ROW_37_262
*1891 TAP_TAPCELL_ROW_38_263
*1892 TAP_TAPCELL_ROW_38_264
*1893 TAP_TAPCELL_ROW_38_265
*1894 TAP_TAPCELL_ROW_38_266
*1895 TAP_TAPCELL_ROW_38_267
*1896 TAP_TAPCELL_ROW_39_268
*1897 TAP_TAPCELL_ROW_39_269
*1898 TAP_TAPCELL_ROW_39_270
*1899 TAP_TAPCELL_ROW_39_271
*1900 TAP_TAPCELL_ROW_3_106
*1901 TAP_TAPCELL_ROW_3_107
*1902 TAP_TAPCELL_ROW_3_108
*1903 TAP_TAPCELL_ROW_3_109
*1904 TAP_TAPCELL_ROW_40_272
*1905 TAP_TAPCELL_ROW_40_273
*1906 TAP_TAPCELL_ROW_40_274
*1907 TAP_TAPCELL_ROW_40_275
*1908 TAP_TAPCELL_ROW_40_276
*1909 TAP_TAPCELL_ROW_41_277
*1910 TAP_TAPCELL_ROW_41_278
*1911 TAP_TAPCELL_ROW_41_279
*1912 TAP_TAPCELL_ROW_41_280
*1913 TAP_TAPCELL_ROW_42_281
*1914 TAP_TAPCELL_ROW_42_282
*1915 TAP_TAPCELL_ROW_42_283
*1916 TAP_TAPCELL_ROW_42_284
*1917 TAP_TAPCELL_ROW_42_285
*1918 TAP_TAPCELL_ROW_43_286
*1919 TAP_TAPCELL_ROW_43_287
*1920 TAP_TAPCELL_ROW_43_288
*1921 TAP_TAPCELL_ROW_43_289
*1922 TAP_TAPCELL_ROW_43_290
*1923 TAP_TAPCELL_ROW_43_291
*1924 TAP_TAPCELL_ROW_43_292
*1925 TAP_TAPCELL_ROW_43_293
*1926 TAP_TAPCELL_ROW_43_294
*1927 TAP_TAPCELL_ROW_4_110
*1928 TAP_TAPCELL_ROW_4_111
*1929 TAP_TAPCELL_ROW_4_112
*1930 TAP_TAPCELL_ROW_4_113
*1931 TAP_TAPCELL_ROW_4_114
*1932 TAP_TAPCELL_ROW_5_115
*1933 TAP_TAPCELL_ROW_5_116
*1934 TAP_TAPCELL_ROW_5_117
*1935 TAP_TAPCELL_ROW_5_118
*1936 TAP_TAPCELL_ROW_6_119
*1937 TAP_TAPCELL_ROW_6_120
*1938 TAP_TAPCELL_ROW_6_121
*1939 TAP_TAPCELL_ROW_6_122
*1940 TAP_TAPCELL_ROW_6_123
*1941 TAP_TAPCELL_ROW_7_124
*1942 TAP_TAPCELL_ROW_7_125
*1943 TAP_TAPCELL_ROW_7_126
*1944 TAP_TAPCELL_ROW_7_127
*1945 TAP_TAPCELL_ROW_8_128
*1946 TAP_TAPCELL_ROW_8_129
*1947 TAP_TAPCELL_ROW_8_130
*1948 TAP_TAPCELL_ROW_8_131
*1949 TAP_TAPCELL_ROW_8_132
*1950 TAP_TAPCELL_ROW_9_133
*1951 TAP_TAPCELL_ROW_9_134
*1952 TAP_TAPCELL_ROW_9_135
*1953 TAP_TAPCELL_ROW_9_136
*1954 _458_
*1955 _459_
*1956 _460_
*1957 _461_
*1958 _462_
*1959 _463_
*1960 _464_
*1961 _465_
*1962 _466_
*1963 _467_
*1964 _468_
*1965 _469_
*1966 _470_
*1967 _471_
*1968 _472_
*1969 _473_
*1970 _474_
*1971 _475_
*1972 _476_
*1973 _477_
*1974 _478_
*1975 _479_
*1976 _480_
*1977 _481_
*1978 _482_
*1979 _483_
*1980 _484_
*1981 _485_
*1982 _486_
*1983 _487_
*1984 _488_
*1985 _489_
*1986 _490_
*1987 _491_
*1988 _492_
*1989 _493_
*1990 _494_
*1991 _495_
*1992 _496_
*1993 _497_
*1994 _498_
*1995 _499_
*1996 _500_
*1997 _501_
*1998 _502_
*1999 _503_
*2000 _504_
*2001 _505_
*2002 _506_
*2003 _507_
*2004 _508_
*2005 _509_
*2006 _510_
*2007 _511_
*2008 _512_
*2009 _513_
*2010 _514_
*2011 _515_
*2012 _516_
*2013 _517_
*2014 _518_
*2015 _519_
*2016 _520_
*2017 _521_
*2018 _522_
*2019 _523_
*2020 _524_
*2021 _525_
*2022 _526_
*2023 _527_
*2024 _528_
*2025 _529_
*2026 _530_
*2027 _531_
*2028 _532_
*2029 _533_
*2030 _534_
*2031 _535_
*2032 _536_
*2033 _537_
*2034 _538_
*2035 _539_
*2036 _540_
*2037 _541_
*2038 _542_
*2039 _543_
*2040 _544_
*2041 _545_
*2042 _546_
*2043 _547_
*2044 _548_
*2045 _549_
*2046 _550_
*2047 _551_
*2048 _552_
*2049 _553_
*2050 _554_
*2051 _555_
*2052 _556_
*2053 _557_
*2054 _558_
*2055 _559_
*2056 _560_
*2057 _561_
*2058 _562_
*2059 _563_
*2060 _564_
*2061 _565_
*2062 _566_
*2063 _567_
*2064 _568_
*2065 _569_
*2066 _570_
*2067 _571_
*2068 _572_
*2069 _573_
*2070 _574_
*2071 _575_
*2072 _576_
*2073 _577_
*2074 _578_
*2075 _579_
*2076 _580_
*2077 _581_
*2078 _582_
*2079 _583_
*2080 _584_
*2081 _585_
*2082 _586_
*2083 _587_
*2084 _588_
*2085 _589_
*2086 _590_
*2087 _591_
*2088 _592_
*2089 _593_
*2090 _594_
*2091 _595_
*2092 _596_
*2093 _597_
*2094 _598_
*2095 _599_
*2096 _600_
*2097 _601_
*2098 _602_
*2099 _603_
*2100 _604_
*2101 _605_
*2102 _606_
*2103 _607_
*2104 _608_
*2105 _609_
*2106 _610_
*2107 _611_
*2108 _612_
*2109 _613_
*2110 _614_
*2111 _615_
*2112 _616_
*2113 _617_
*2114 _618_
*2115 _619_
*2116 _620_
*2117 _621_
*2118 _622_
*2119 _623_
*2120 _624_
*2121 _625_
*2122 _626_
*2123 _627_
*2124 _628_
*2125 _629_
*2126 _630_
*2127 _631_
*2128 _632_
*2129 _633_
*2130 _634_
*2131 _635_
*2132 _636_
*2133 _637_
*2134 _638_
*2135 _639_
*2136 _640_
*2137 _641_
*2138 _642_
*2139 _643_
*2140 _644_
*2141 _645_
*2142 _646_
*2143 _647_
*2144 _648_
*2145 _649_
*2146 _650_
*2147 _651_
*2148 _652_
*2149 _653_
*2150 _654_
*2151 _655_
*2152 _656_
*2153 _657_
*2154 _658_
*2155 _659_
*2156 _660_
*2157 _661_
*2158 _662_
*2159 _663_
*2160 _664_
*2161 _665_
*2162 _666_
*2163 _667_
*2164 _668_
*2165 _669_
*2166 _670_
*2167 _671_
*2168 _672_
*2169 _673_
*2170 _674_
*2171 _675_
*2172 _676_
*2173 _677_
*2174 _678_
*2175 _679_
*2176 _680_
*2177 _681_
*2178 _682_
*2179 _683_
*2180 _684_
*2181 _685_
*2182 _686_
*2183 _687_
*2184 _688_
*2185 _689_
*2186 _690_
*2187 _691_
*2188 _692_
*2189 _693_
*2190 _694_
*2191 _695_
*2192 _696_
*2193 _697_
*2194 _698_
*2195 _699_
*2196 _700_
*2197 _701_
*2198 _702_
*2199 _703_
*2200 _704_
*2201 _705_
*2202 _706_
*2203 _707_
*2204 _708_
*2205 _709_
*2206 _710_
*2207 _711_
*2208 _712_
*2209 _713_
*2210 _714_
*2211 _715_
*2212 _716_
*2213 _717_
*2214 _718_
*2215 _719_
*2216 _720_
*2217 _721_
*2218 _722_
*2219 _723_
*2220 _724_
*2221 _725_
*2222 _726_
*2223 _727_
*2224 _728_
*2225 _729_
*2226 _730_
*2227 _731_
*2228 _732_
*2229 _733_
*2230 _734_
*2231 _735_
*2232 _736_
*2233 _737_
*2234 _738_
*2235 _739_
*2236 _740_
*2237 _741_
*2238 _742_
*2239 _743_
*2240 _744_
*2241 _745_
*2242 _746_
*2243 _747_
*2244 _748_
*2245 _749_
*2246 _750_
*2247 _751_
*2248 _752_
*2249 _753_
*2250 _754_
*2251 _755_
*2252 _756_
*2253 _757_
*2254 _758_
*2255 _759_
*2256 _760_
*2257 _761_
*2258 _762_
*2259 _763_
*2260 _764_
*2261 _765_
*2262 _766_
*2263 _767_
*2264 _768_
*2265 _769_
*2266 _770_
*2267 _771_
*2268 _772_
*2269 _773_
*2270 _774_
*2271 _775_
*2272 _776_
*2273 _777_
*2274 _778_
*2275 _779_
*2276 _780_
*2277 _781_
*2278 _782_
*2279 _783_
*2280 _784_
*2281 _785_
*2282 _786_
*2283 _787_
*2284 _788_
*2285 _789_
*2286 _790_
*2287 _791_
*2288 _792_
*2289 _793_
*2290 _794_
*2291 _795_
*2292 _796_
*2293 _797_
*2294 _798_
*2295 _799_
*2296 _800_
*2297 _801_
*2298 _802_
*2299 _803_
*2300 _804_
*2301 _805_
*2302 _806_
*2303 _807_
*2304 _808_
*2305 _809_
*2306 _810_
*2307 _811_
*2308 _812_
*2309 _813_
*2310 _814_
*2311 _815_
*2312 _816_
*2313 _817_
*2314 _818_
*2315 _819_
*2316 _820_
*2317 _821_
*2318 _822_
*2319 _823_
*2320 _824_
*2321 _825_
*2322 _826_
*2323 _827_
*2324 _828_
*2325 _829_
*2326 _830_
*2327 _831_
*2328 _832_
*2329 _833_
*2330 _834_
*2331 _835_
*2332 _836_
*2333 _837_
*2334 _838_
*2335 _839_
*2336 _840_
*2337 _841_
*2338 _842_
*2339 _843_
*2340 _844_
*2341 _845_
*2342 _846_
*2343 _847_
*2344 _848_
*2345 _849_
*2346 _850_
*2347 _851_
*2348 _852_
*2349 _853_
*2350 _854_
*2351 _855_
*2352 _856_
*2353 _857_
*2354 _858_
*2355 _859_
*2356 _860_
*2357 _861_
*2358 _862_
*2359 _863_
*2360 _864_
*2361 _865_
*2362 _866_
*2363 _867_
*2364 _868_
*2365 _869_
*2366 _870_
*2367 _871_
*2368 _872_
*2369 _873_
*2370 _874_
*2371 _875_
*2372 _876_
*2373 _877_
*2374 _878_
*2375 _879_
*2376 _880_
*2377 _881_
*2378 _882_
*2379 _883_
*2380 _884_
*2381 _885_
*2382 _886_
*2383 _887_
*2384 _888_
*2385 _889_
*2386 _890_
*2387 _891_
*2388 _892_
*2389 _893_
*2390 _894_
*2391 _895_
*2392 _896_
*2393 _897_
*2394 _898_
*2395 _899_
*2396 _900_
*2397 _901_
*2398 _902_
*2399 _903_
*2400 _904_
*2401 _905_
*2402 _906_
*2403 _907_
*2404 _908_
*2405 _909_
*2406 _910_
*2407 _911_
*2408 _912_
*2409 _913_
*2410 _914_
*2411 _915_
*2412 _916_
*2413 _917_
*2414 _918_
*2415 _919_
*2416 _920_
*2417 _921_
*2418 _922_
*2419 _923_
*2420 clone10
*2421 clone11
*2422 clone12
*2423 clone26
*2424 clone9
*2425 fanout29
*2426 fanout34
*2427 fanout35
*2428 fanout36
*2429 fanout37
*2430 fanout38
*2431 fanout39
*2432 fanout40
*2433 fanout41
*2434 fanout42
*2435 fanout43
*2436 fanout44
*2437 fanout45
*2438 fanout46
*2439 fanout47
*2440 fanout48
*2441 fanout49
*2442 fanout50
*2443 fanout51
*2444 fanout52
*2445 fanout53
*2446 fanout54
*2447 fanout55
*2448 fanout56
*2449 fanout57
*2450 fanout58
*2451 fanout59
*2452 fanout60
*2453 fanout61
*2454 fanout62
*2455 fanout63
*2456 fanout64
*2457 fanout65
*2458 fanout66
*2459 fanout67
*2460 fanout68
*2461 fanout69
*2462 input1
*2463 input10
*2464 input11
*2465 input12
*2466 input13
*2467 input14
*2468 input15
*2469 input16
*2470 input17
*2471 input18
*2472 input19
*2473 input2
*2474 input20
*2475 input3
*2476 input4
*2477 input5
*2478 input6
*2479 input7
*2480 input8
*2481 input9
*2482 max_cap30
*2483 max_cap31
*2484 max_cap32
*2485 output21
*2486 output22
*2487 output23
*2488 output24
*2489 output25
*2490 output26
*2491 output27
*2492 output28
*2493 rebuffer1
*2494 rebuffer14
*2495 rebuffer2
*2496 rebuffer20
*2497 rebuffer3
*2498 rebuffer4
*2499 rebuffer5
*2500 rebuffer6
*2501 rebuffer7
*2502 rebuffer8
*2503 wire33

*PORTS
inst[0] I
inst[1] I
inst[2] I
inst[3] I
op_a[0] I
op_a[1] I
op_a[2] I
op_a[3] I
op_a[4] I
op_a[5] I
op_a[6] I
op_a[7] I
op_b[0] I
op_b[1] I
op_b[2] I
op_b[3] I
op_b[4] I
op_b[5] I
op_b[6] I
op_b[7] I
op_out[0] O
op_out[1] O
op_out[2] O
op_out[3] O
op_out[4] O
op_out[5] O
op_out[6] O
op_out[7] O

*D_NET *3 0.000933576
*CONN
*P inst[0] I
*I *2462:A I *D sky130_fd_sc_hd__dlymetal6s2s_1
*CAP
1 inst[0] 0.000466788
2 *2462:A 0.000466788
3 *2462:A *2475:A 0
*RES
1 inst[0] *2462:A 23.05 
*END

*D_NET *4 0.00192124
*CONN
*P inst[1] I
*I *2473:A I *D sky130_fd_sc_hd__buf_1
*CAP
1 inst[1] 0.000505971
2 *2473:A 0.000505971
3 *2473:A op_out[0] 0
4 *2473:A *2183:B 0
5 *2473:A *2193:B_N 9.80173e-05
6 *2473:A *2193:D 5.03829e-05
7 *2473:A *2476:A 0.000398918
8 *2473:A *489:12 0.0001526
9 *2473:A *489:35 0.000139907
10 *2473:A *491:18 6.94775e-05
*RES
1 inst[1] *2473:A 27.9607 
*END

*D_NET *5 0.001175
*CONN
*P inst[2] I
*I *2475:A I *D sky130_fd_sc_hd__clkbuf_2
*CAP
1 inst[2] 0.000576131
2 *2475:A 0.000576131
3 *2475:A *511:10 2.27416e-05
4 *2462:A *2475:A 0
*RES
1 inst[2] *2475:A 24.925 
*END

*D_NET *6 0.00137239
*CONN
*P inst[3] I
*I *2476:A I *D sky130_fd_sc_hd__clkbuf_1
*CAP
1 inst[3] 0.000457274
2 *2476:A 0.000457274
3 *2476:A op_out[0] 0
4 *2476:A *489:12 5.52302e-05
5 *2476:A *491:18 3.69047e-06
6 *2473:A *2476:A 0.000398918
*RES
1 inst[3] *2476:A 25.2286 
*END

*D_NET *7 0.000479927
*CONN
*P op_a[0] I
*I *2477:A I *D sky130_fd_sc_hd__clkbuf_1
*CAP
1 op_a[0] 0.000160124
2 *2477:A 0.000160124
3 *2477:A *2478:A 7.65171e-05
4 *2477:A *2479:A 8.31618e-05
*RES
1 op_a[0] *2477:A 18.4264 
*END

*D_NET *8 0.000503233
*CONN
*P op_a[1] I
*I *2478:A I *D sky130_fd_sc_hd__buf_1
*CAP
1 op_a[1] 0.00017049
2 *2478:A 0.00017049
3 *2478:A *2466:A 8.57347e-05
4 *2477:A *2478:A 7.65171e-05
*RES
1 op_a[1] *2478:A 18.73 
*END

*D_NET *9 0.00070872
*CONN
*P op_a[2] I
*I *2479:A I *D sky130_fd_sc_hd__dlymetal6s2s_1
*CAP
1 op_a[2] 0.000195194
2 *2479:A 0.000195194
3 *2479:A *2467:A 8.57347e-05
4 *2479:A *533:16 0.000149436
5 *2477:A *2479:A 8.31618e-05
*RES
1 op_a[2] *2479:A 19.9443 
*END

*D_NET *10 0.00064212
*CONN
*P op_a[3] I
*I *2480:A I *D sky130_fd_sc_hd__buf_1
*CAP
1 op_a[3] 0.000205091
2 *2480:A 0.000205091
3 *2480:A *2463:A 8.57347e-05
4 *2480:A *2466:A 8.31618e-05
5 *2480:A *490:12 6.30405e-05
*RES
1 op_a[3] *2480:A 19.9443 
*END

*D_NET *11 0.000542129
*CONN
*P op_a[4] I
*I *2481:A I *D sky130_fd_sc_hd__clkbuf_1
*CAP
1 op_a[4] 0.000232806
2 *2481:A 0.000232806
3 *2481:A *2463:A 7.65171e-05
*RES
1 op_a[4] *2481:A 19.0336 
*END

*D_NET *12 0.000500104
*CONN
*P op_a[5] I
*I *2463:A I *D sky130_fd_sc_hd__clkbuf_2
*CAP
1 op_a[5] 0.000168926
2 *2463:A 0.000168926
3 *2463:A *2466:A 0
4 *2480:A *2463:A 8.57347e-05
5 *2481:A *2463:A 7.65171e-05
*RES
1 op_a[5] *2463:A 18.1949 
*END

*D_NET *13 0.000935453
*CONN
*P op_a[6] I
*I *2464:A I *D sky130_fd_sc_hd__buf_1
*CAP
1 op_a[6] 0.000467726
2 *2464:A 0.000467726
3 *2464:A op_out[4] 0
4 *2464:A op_out[5] 0
5 *2464:A *2490:A 0
*RES
1 op_a[6] *2464:A 23.05 
*END

*D_NET *14 0.00131601
*CONN
*P op_a[7] I
*I *2465:A I *D sky130_fd_sc_hd__clkbuf_4
*CAP
1 op_a[7] 0.000582315
2 *2465:A 0.000582315
3 *2465:A op_out[5] 0
4 *2465:A *1963:B 5.52238e-05
5 *2465:A *2485:A 9.61554e-05
*RES
1 op_a[7] *2465:A 25.3357 
*END

*D_NET *15 0.000678856
*CONN
*P op_b[0] I
*I *2466:A I *D sky130_fd_sc_hd__buf_6
*CAP
1 op_b[0] 0.000216556
2 *2466:A 0.000216556
3 *2466:A *490:12 7.68486e-05
4 *2463:A *2466:A 0
5 *2478:A *2466:A 8.57347e-05
6 *2480:A *2466:A 8.31618e-05
*RES
1 op_b[0] *2466:A 19.7128 
*END

*D_NET *16 0.000622484
*CONN
*P op_b[1] I
*I *2467:A I *D sky130_fd_sc_hd__clkbuf_1
*CAP
1 op_b[1] 0.000209664
2 *2467:A 0.000209664
3 *2467:A *533:16 0.000117421
4 *2479:A *2467:A 8.57347e-05
*RES
1 op_b[1] *2467:A 19.3371 
*END

*D_NET *17 0.00058051
*CONN
*P op_b[2] I
*I *2468:A I *D sky130_fd_sc_hd__clkbuf_1
*CAP
1 op_b[2] 0.000276666
2 *2468:A 0.000276666
3 *2468:A *2469:A 2.71788e-05
*RES
1 op_b[2] *2468:A 20.4803 
*END

*D_NET *18 0.000584053
*CONN
*P op_b[3] I
*I *2469:A I *D sky130_fd_sc_hd__clkbuf_1
*CAP
1 op_b[3] 0.000278437
2 *2469:A 0.000278437
3 *2468:A *2469:A 2.71788e-05
*RES
1 op_b[3] *2469:A 20.4803 
*END

*D_NET *19 0.000704644
*CONN
*P op_b[4] I
*I *2470:A I *D sky130_fd_sc_hd__buf_8
*CAP
1 op_b[4] 0.000341025
2 *2470:A 0.000341025
3 *2470:A *2474:A 2.25951e-05
4 *2470:A *534:14 0
*RES
1 op_b[4] *2470:A 21.6946 
*END

*D_NET *20 0.000717566
*CONN
*P op_b[5] I
*I *2471:A I *D sky130_fd_sc_hd__clkbuf_2
*CAP
1 op_b[5] 0.000333896
2 *2471:A 0.000333896
3 *2471:A *2472:A 2.71788e-05
4 *2471:A *2474:A 2.25951e-05
*RES
1 op_b[5] *2471:A 21.8017 
*END

*D_NET *21 0.000584088
*CONN
*P op_b[6] I
*I *2472:A I *D sky130_fd_sc_hd__buf_1
*CAP
1 op_b[6] 0.000278455
2 *2472:A 0.000278455
3 *2471:A *2472:A 2.71788e-05
*RES
1 op_b[6] *2472:A 20.4803 
*END

*D_NET *22 0.000628259
*CONN
*P op_b[7] I
*I *2474:A I *D sky130_fd_sc_hd__clkbuf_1
*CAP
1 op_b[7] 0.000291534
2 *2474:A 0.000291534
3 *2474:A *499:10 0
4 *2470:A *2474:A 2.25951e-05
5 *2471:A *2474:A 2.25951e-05
*RES
1 op_b[7] *2474:A 19.9443 
*END

*D_NET *23 0.00125729
*CONN
*P op_out[0] O
*I *2485:X O *D sky130_fd_sc_hd__buf_8
*CAP
1 op_out[0] 0.000588278
2 *2485:X 0.000588278
3 op_out[0] *491:18 8.07313e-05
4 *2473:A op_out[0] 0
5 *2476:A op_out[0] 0
*RES
1 *2485:X op_out[0] 25.5321 
*END

*D_NET *24 0.00143068
*CONN
*P op_out[1] O
*I *2486:X O *D sky130_fd_sc_hd__buf_8
*CAP
1 op_out[1] 0.000676915
2 *2486:X 0.000676915
3 op_out[1] op_out[2] 0
4 op_out[1] *2486:A 9.69119e-06
5 op_out[1] *2487:A 6.71612e-05
*RES
1 *2486:X op_out[1] 26.7643 
*END

*D_NET *25 0.000901216
*CONN
*P op_out[2] O
*I *2487:X O *D sky130_fd_sc_hd__buf_6
*CAP
1 op_out[2] 0.000450608
2 *2487:X 0.000450608
3 op_out[1] op_out[2] 0
*RES
1 *2487:X op_out[2] 22.7464 
*END

*D_NET *26 0.0010214
*CONN
*P op_out[3] O
*I *2488:X O *D sky130_fd_sc_hd__buf_2
*CAP
1 op_out[3] 0.000499332
2 *2488:X 0.000499332
3 op_out[3] op_out[4] 0
4 op_out[3] *2489:A 2.27416e-05
*RES
1 *2488:X op_out[3] 23.3893 
*END

*D_NET *27 0.00108212
*CONN
*P op_out[4] O
*I *2489:X O *D sky130_fd_sc_hd__buf_4
*CAP
1 op_out[4] 0.000541061
2 *2489:X 0.000541061
3 op_out[3] op_out[4] 0
4 *2464:A op_out[4] 0
*RES
1 *2489:X op_out[4] 24.1036 
*END

*D_NET *28 0.00109943
*CONN
*P op_out[5] O
*I *2490:X O *D sky130_fd_sc_hd__buf_4
*CAP
1 op_out[5] 0.000523041
2 *2490:X 0.000523041
3 op_out[5] *2485:A 5.33433e-05
4 *2464:A op_out[5] 0
5 *2465:A op_out[5] 0
*RES
1 *2490:X op_out[5] 24.1036 
*END

*D_NET *29 0.00156482
*CONN
*P op_out[6] O
*I *2491:X O *D sky130_fd_sc_hd__buf_6
*CAP
1 op_out[6] 0.000549049
2 *2491:X 0.000549049
3 op_out[6] op_out[7] 8.57347e-05
4 op_out[6] *2373:B 9.26121e-05
5 op_out[6] *2374:A 9.1025e-05
6 op_out[6] *2374:B 7.72855e-05
7 op_out[6] *2419:A2 0.000120065
8 op_out[6] *2491:A 0
9 op_out[6] *545:134 0
*RES
1 *2491:X op_out[6] 26.105 
*END

*D_NET *30 0.000521064
*CONN
*P op_out[7] O
*I *2492:X O *D sky130_fd_sc_hd__buf_6
*CAP
1 op_out[7] 0.000205668
2 *2492:X 0.000205668
3 op_out[7] *2375:B 2.39923e-05
4 op_out[6] op_out[7] 8.57347e-05
*RES
1 *2492:X op_out[7] 18.4985 
*END

*D_NET *31 0.00254749
*CONN
*I *2027:B1 I *D sky130_fd_sc_hd__o21ai_1
*I *2028:B1 I *D sky130_fd_sc_hd__o211a_1
*I *2025:X O *D sky130_fd_sc_hd__a211o_1
*CAP
1 *2027:B1 0.000337091
2 *2028:B1 6.46312e-05
3 *2025:X 0.000315207
4 *31:8 0.000716929
5 *2027:B1 *1994:A 5.30637e-06
6 *2027:B1 *2027:A1 0.000314139
7 *2027:B1 *294:10 0.000106542
8 *2027:B1 *477:16 0.00018372
9 *2027:B1 *518:101 0.000144931
10 *2028:B1 *294:10 1.08359e-05
11 *2028:B1 *294:12 6.74815e-05
12 *2028:B1 *518:88 5.80706e-06
13 *2028:B1 *518:101 8.06331e-05
14 *31:8 *2013:S 9.71197e-05
15 *31:8 *294:36 9.71197e-05
*RES
1 *2025:X *31:8 18.8536 
2 *31:8 *2028:B1 15.7464 
3 *31:8 *2027:B1 22.2464 
*END

*D_NET *32 0.00278369
*CONN
*I *2029:B1 I *D sky130_fd_sc_hd__o211ai_2
*I *2026:X O *D sky130_fd_sc_hd__a211o_1
*CAP
1 *2029:B1 0.00102378
2 *2026:X 0.00102378
3 *2029:B1 *1982:A 0
4 *2029:B1 *2020:A0 1.92789e-05
5 *2029:B1 *2029:C1 4.46186e-06
6 *2029:B1 *475:14 0.000102315
7 *2029:B1 *475:24 0
8 *2029:B1 *518:75 0.000610071
*RES
1 *2026:X *2029:B1 42.0643 
*END

*D_NET *33 0.00289965
*CONN
*I *2075:B1 I *D sky130_fd_sc_hd__a21o_1
*I *2027:Y O *D sky130_fd_sc_hd__o21ai_1
*CAP
1 *2075:B1 0.00109588
2 *2027:Y 0.00109588
3 *2075:B1 *2029:C1 0.000160722
4 *2075:B1 *2057:A1 2.07382e-05
5 *2075:B1 *2057:A2 5.41609e-05
6 *2075:B1 *2057:B1 0.000279933
7 *2075:B1 *2058:B1 3.57603e-06
8 *2075:B1 *2075:A1 2.80368e-05
9 *2075:B1 *475:73 0.000160722
*RES
1 *2027:Y *2075:B1 46.6714 
*END

*D_NET *34 0.00428551
*CONN
*I *2035:C1 I *D sky130_fd_sc_hd__a221o_1
*I *2034:B1 I *D sky130_fd_sc_hd__a21oi_1
*I *2030:A_N I *D sky130_fd_sc_hd__and2b_1
*I *2028:X O *D sky130_fd_sc_hd__o211a_1
*CAP
1 *2035:C1 0
2 *2034:B1 0
3 *2030:A_N 0.000136944
4 *2028:X 0.00115119
5 *34:20 0.000361267
6 *34:12 0.00137551
7 *2030:A_N *2030:B 0.000326521
8 *2030:A_N *2066:A 5.23142e-05
9 *34:12 *2034:A2 0
10 *34:12 *2065:A 0
11 *34:12 *35:16 0.000183188
12 *34:12 *475:14 0.000148105
13 *34:20 *2034:A2 5.03694e-05
14 *34:20 *2065:A 9.92409e-05
15 *34:20 *2068:C 0
16 *34:20 *2074:B 0.000140933
17 *34:20 *39:16 0.000259934
*RES
1 *2028:X *34:12 36.8 
2 *34:12 *34:20 14.7679 
3 *34:20 *2030:A_N 13.1214 
4 *34:20 *2034:B1 9.3 
5 *34:12 *2035:C1 9.3 
*END

*D_NET *35 0.00435883
*CONN
*I *2035:B1 I *D sky130_fd_sc_hd__a221o_1
*I *2034:A1 I *D sky130_fd_sc_hd__a21oi_1
*I *2030:B I *D sky130_fd_sc_hd__and2b_1
*I *2029:Y O *D sky130_fd_sc_hd__o211ai_2
*CAP
1 *2035:B1 0
2 *2034:A1 0
3 *2030:B 0.000475656
4 *2029:Y 0.000610324
5 *35:16 0.000886931
6 *35:8 0.0010216
7 *2030:B *2021:A 0
8 *2030:B *2034:A2 0
9 *2030:B *2066:B 0
10 *2030:B *2068:C 1.02504e-05
11 *35:8 *2029:C1 2.89016e-05
12 *35:8 *2035:A2 1.45297e-05
13 *35:8 *2035:B2 1.97695e-05
14 *35:8 *2039:A2 9.90431e-05
15 *35:8 *2040:A2 1.39726e-05
16 *35:8 *2040:A3 0.000273269
17 *35:8 *2056:B 5.52238e-05
18 *35:8 *2065:A 1.82657e-05
19 *35:8 *294:36 0.000146809
20 *35:8 *475:24 4.88546e-05
21 *35:8 *485:19 0
22 *35:16 *2067:B1 2.48938e-05
23 *35:16 *484:12 0.000100831
24 *2030:A_N *2030:B 0.000326521
25 *34:12 *35:16 0.000183188
*RES
1 *2029:Y *35:8 21.2464 
2 *35:8 *35:16 14.875 
3 *35:16 *2030:B 25.6393 
4 *35:16 *2034:A1 9.3 
5 *35:8 *2035:B1 9.3 
*END

*D_NET *36 0.000366817
*CONN
*I *2074:A I *D sky130_fd_sc_hd__xnor2_1
*I *2030:X O *D sky130_fd_sc_hd__and2b_1
*CAP
1 *2074:A 0.000119332
2 *2030:X 0.000119332
3 *2074:A *2021:A 0.000128154
4 *2074:A *2068:C 0
*RES
1 *2030:X *2074:A 29.7786 
*END

*D_NET *37 0.000457872
*CONN
*I *2045:A I *D sky130_fd_sc_hd__or4_1
*I *2031:Y O *D sky130_fd_sc_hd__nor2_1
*CAP
1 *2045:A 0.000120897
2 *2031:Y 0.000120897
3 *2045:A *2037:B 9.71197e-05
4 *2045:A *2045:C 3.57366e-05
5 *2045:A *43:6 5.72869e-05
6 *2045:A *550:80 2.59355e-05
*RES
1 *2031:Y *2045:A 21.2071 
*END

*D_NET *38 0.0104111
*CONN
*I *2045:B I *D sky130_fd_sc_hd__or4_1
*I *2276:A I *D sky130_fd_sc_hd__and3_1
*I *2250:B1 I *D sky130_fd_sc_hd__a21oi_1
*I *2249:C I *D sky130_fd_sc_hd__and3_1
*I *2032:Y O *D sky130_fd_sc_hd__nor2_4
*CAP
1 *2045:B 6.27721e-05
2 *2276:A 0.000236396
3 *2250:B1 0.000207519
4 *2249:C 0
5 *2032:Y 0
6 *38:20 0.000468225
7 *38:12 0.00352646
8 *38:6 0.00309213
9 *2045:B *2029:C1 0.000129868
10 *2045:B *52:10 0
11 *2045:B *542:92 0
12 *2250:B1 *2250:A2 8.56752e-05
13 *2250:B1 *523:51 9.19364e-05
14 *2250:B1 *523:57 0
15 *2276:A *2276:C 9.25014e-06
16 *2276:A *2278:B 1.33776e-05
17 *2276:A *2393:B 0.000199392
18 *2276:A *497:89 0
19 *38:12 *1986:C 0.000515385
20 *38:12 *2029:C1 9.02021e-05
21 *38:12 *2393:B 0.000477173
22 *38:12 *50:37 0
23 *38:12 *449:27 0.000339195
24 *38:12 *542:92 0
25 *38:12 *567:56 0
26 *38:20 *493:48 0.000274259
27 *38:20 *523:40 0.000114024
28 *38:20 *523:51 8.88341e-05
29 *38:20 *545:50 0.000389018
*RES
1 *2032:Y *38:6 13.8 
2 *38:6 *38:12 10.8422 
3 *38:12 *38:20 14.4725 
4 *38:20 *2249:C 9.3 
5 *38:20 *2250:B1 12.2464 
6 *38:12 *2276:A 18.3982 
7 *38:6 *2045:B 15.4429 
*END

*D_NET *39 0.00350672
*CONN
*I *2035:B2 I *D sky130_fd_sc_hd__a221o_1
*I *2034:A2 I *D sky130_fd_sc_hd__a21oi_1
*I *2074:B I *D sky130_fd_sc_hd__xnor2_1
*I *2033:Y O *D sky130_fd_sc_hd__nand2_1
*CAP
1 *2035:B2 1.72403e-05
2 *2034:A2 0.000108379
3 *2074:B 0.000327102
4 *2033:Y 0.000523928
5 *39:16 0.000556306
6 *39:14 0.000661993
7 *2034:A2 *2065:A 6.65302e-05
8 *2034:A2 *2068:C 0
9 *2035:B2 *2065:A 7.70134e-06
10 *2074:B *2076:C 0.00014183
11 *39:14 *2065:A 1.72457e-05
12 *39:14 *2067:B1 0.000262079
13 *39:14 *45:8 4.79842e-05
14 *39:14 *49:20 1.57523e-05
15 *39:14 *283:24 0.000271345
16 *39:16 *2065:A 1.02936e-05
17 *2030:B *2034:A2 0
18 *34:12 *2034:A2 0
19 *34:20 *2034:A2 5.03694e-05
20 *34:20 *2074:B 0.000140933
21 *34:20 *39:16 0.000259934
22 *35:8 *2035:B2 1.97695e-05
*RES
1 *2033:Y *39:14 27.1393 
2 *39:14 *39:16 3 
3 *39:16 *2074:B 15.5857 
4 *39:16 *2034:A2 20.8536 
5 *39:14 *2035:B2 9.85804 
*END

*D_NET *40 0.000280263
*CONN
*I *2066:A I *D sky130_fd_sc_hd__xnor2_1
*I *2034:Y O *D sky130_fd_sc_hd__a21oi_1
*CAP
1 *2066:A 0.000113974
2 *2034:Y 0.000113974
3 *2030:A_N *2066:A 5.23142e-05
*RES
1 *2034:Y *2066:A 20.6893 
*END

*D_NET *41 0.0015433
*CONN
*I *2039:A3 I *D sky130_fd_sc_hd__a311oi_2
*I *2036:B I *D sky130_fd_sc_hd__nand2_1
*I *2040:A2 I *D sky130_fd_sc_hd__a311o_1
*I *2035:X O *D sky130_fd_sc_hd__a221o_1
*CAP
1 *2039:A3 1.99572e-05
2 *2036:B 0
3 *2040:A2 5.88998e-05
4 *2035:X 2.68394e-05
5 *41:20 0.000245729
6 *41:8 0.000233626
7 *2039:A3 *2039:A2 7.22594e-05
8 *2039:A3 *2056:B 8.07951e-05
9 *2040:A2 *2035:A2 0
10 *2040:A2 *2040:A3 9.77274e-05
11 *2040:A2 *294:36 0.000230475
12 *2040:A2 *485:19 5.7661e-06
13 *41:8 *2039:A2 8.00806e-05
14 *41:8 *2056:B 7.83587e-05
15 *41:20 *2039:A2 1.46717e-05
16 *41:20 *2040:A3 5.52302e-05
17 *41:20 *2056:B 7.6644e-05
18 *41:20 *2067:B1 0
19 *41:20 *46:8 2.34204e-05
20 *41:20 *294:36 2.44318e-05
21 *41:20 *479:10 9.41642e-05
22 *41:20 *485:12 1.02504e-05
23 *35:8 *2040:A2 1.39726e-05
*RES
1 *2035:X *41:8 14.8357 
2 *41:8 *41:20 16.9286 
3 *41:20 *2040:A2 11.9071 
4 *41:20 *2036:B 9.3 
5 *41:8 *2039:A3 14.8357 
*END

*D_NET *42 0.0010456
*CONN
*I *2056:B I *D sky130_fd_sc_hd__xnor2_1
*I *2036:Y O *D sky130_fd_sc_hd__nand2_1
*CAP
1 *2056:B 0.000283045
2 *2036:Y 0.000283045
3 *2056:B *2056:A 3.83748e-05
4 *2056:B *2498:A 0
5 *2056:B *46:8 0
6 *2056:B *49:20 7.6696e-05
7 *2056:B *283:24 7.34161e-05
8 *2039:A3 *2056:B 8.07951e-05
9 *35:8 *2056:B 5.52238e-05
10 *41:8 *2056:B 7.83587e-05
11 *41:20 *2056:B 7.6644e-05
*RES
1 *2036:Y *2056:B 33.4571 
*END

*D_NET *43 0.00404014
*CONN
*I *2038:A2 I *D sky130_fd_sc_hd__a21oi_1
*I *2041:C I *D sky130_fd_sc_hd__and3_1
*I *2061:B1 I *D sky130_fd_sc_hd__a21o_1
*I *2037:X O *D sky130_fd_sc_hd__or2_1
*CAP
1 *2038:A2 3.97264e-05
2 *2041:C 0.000228804
3 *2061:B1 7.77426e-05
4 *2037:X 0.000369206
5 *43:10 0.000751389
6 *43:6 0.000853774
7 *2038:A2 *2045:C 0
8 *2038:A2 *2045:D 0
9 *2041:C *2016:A 0
10 *2041:C *2041:A 5.52238e-05
11 *2041:C *2043:D 5.31127e-05
12 *2041:C *2058:B1 3.47641e-06
13 *2041:C *2061:A1 1.59312e-05
14 *2041:C *471:43 0
15 *2061:B1 *2061:A2 8.01893e-05
16 *2061:B1 *513:10 0.0001399
17 *43:6 *2045:C 2.32517e-05
18 *43:6 *2045:D 6.62868e-05
19 *43:6 *2051:B 0.000136951
20 *43:6 *51:12 5.52302e-05
21 *43:6 *524:31 9.90431e-05
22 *43:6 *550:80 0.00035013
23 *43:10 *2045:D 0.000197501
24 *43:10 *2058:A1 3.98547e-05
25 *43:10 *2058:A2 0.000186669
26 *43:10 *44:10 0.000137983
27 *43:10 *49:36 2.14757e-05
28 *2045:A *43:6 5.72869e-05
*RES
1 *2037:X *43:6 17.2286 
2 *43:6 *43:10 8.33482 
3 *43:10 *2061:B1 11.5188 
4 *43:10 *2041:C 21.675 
5 *43:6 *2038:A2 10.0321 
*END

*D_NET *44 0.00403818
*CONN
*I *2039:B1 I *D sky130_fd_sc_hd__a311oi_2
*I *2040:B1 I *D sky130_fd_sc_hd__a311o_1
*I *2038:Y O *D sky130_fd_sc_hd__a21oi_1
*CAP
1 *2039:B1 0.000557765
2 *2040:B1 9.67558e-05
3 *2038:Y 0.000369012
4 *44:10 0.00102353
5 *2039:B1 *2039:C1 0.000697327
6 *2040:B1 *2016:A 0
7 *2040:B1 *2040:A1 0.000105229
8 *2040:B1 *2040:C1 0.000247771
9 *2040:B1 *2057:B1 5.41794e-05
10 *44:10 *2014:A 0
11 *44:10 *2057:B1 0.000329108
12 *44:10 *2395:D_N 0.000157578
13 *44:10 *45:42 9.91086e-05
14 *44:10 *49:20 0.000162823
15 *44:10 *542:92 0
16 *43:10 *44:10 0.000137983
*RES
1 *2038:Y *44:10 23.4786 
2 *44:10 *2040:B1 17.2643 
3 *44:10 *2039:B1 21.6393 
*END

*D_NET *45 0.00551031
*CONN
*I *2045:C I *D sky130_fd_sc_hd__or4_1
*I *2044:A I *D sky130_fd_sc_hd__nor2_2
*I *2076:A I *D sky130_fd_sc_hd__or3_4
*I *2068:A I *D sky130_fd_sc_hd__or3_4
*I *2039:Y O *D sky130_fd_sc_hd__a311oi_2
*CAP
1 *2045:C 0.00044269
2 *2044:A 0
3 *2076:A 0
4 *2068:A 0.000191406
5 *2039:Y 9.88652e-05
6 *45:42 0.00123114
7 *45:16 0.000398273
8 *45:8 0.00109418
9 *2045:C *2045:D 0.00035013
10 *2045:C *2395:D_N 1.02504e-05
11 *2045:C *49:10 0
12 *2045:C *50:37 9.54798e-06
13 *2045:C *539:76 2.0953e-05
14 *2068:A *82:10 0.000161937
15 *45:8 *2067:B1 0
16 *45:8 *46:16 3.48918e-06
17 *45:16 *49:20 0.000192489
18 *45:16 *82:10 0.00010096
19 *45:42 *2046:A1 2.77258e-05
20 *45:42 *2046:A2 0.000356035
21 *45:42 *2057:A1 0
22 *45:42 *2075:A1 7.5404e-05
23 *45:42 *2086:C1 4.46186e-06
24 *45:42 *2395:D_N 7.68221e-05
25 *45:42 *46:16 8.50795e-06
26 *45:42 *49:10 2.8266e-06
27 *45:42 *49:20 2.47093e-05
28 *45:42 *52:10 9.60875e-05
29 *45:42 *73:12 8.15939e-05
30 *45:42 *241:27 9.31209e-05
31 *45:42 *471:43 9.73258e-05
32 *45:42 *513:12 0
33 *45:42 *559:8 5.33005e-05
34 *2038:A2 *2045:C 0
35 *2045:A *2045:C 3.57366e-05
36 *39:14 *45:8 4.79842e-05
37 *43:6 *2045:C 2.32517e-05
38 *44:10 *45:42 9.91086e-05
*RES
1 *2039:Y *45:8 15.8982 
2 *45:8 *45:16 9.54464 
3 *45:16 *2068:A 13.1571 
4 *45:16 *2076:A 9.3 
5 *45:8 *45:42 25.3304 
6 *45:42 *2044:A 13.8 
7 *45:42 *2045:C 20.0321 
*END

*D_NET *46 0.00331064
*CONN
*I *2498:A I *D sky130_fd_sc_hd__dlygate4sd1_1
*I *2075:A1 I *D sky130_fd_sc_hd__a21o_1
*I *2067:A2 I *D sky130_fd_sc_hd__a21o_1
*I *2040:X O *D sky130_fd_sc_hd__a311o_1
*CAP
1 *2498:A 0.000297675
2 *2075:A1 0.000186632
3 *2067:A2 0
4 *2040:X 0.000199219
5 *46:16 0.000592394
6 *46:8 0.000902658
7 *2075:A1 *2056:A 2.83284e-06
8 *2075:A1 *2057:A1 1.33343e-05
9 *2075:A1 *2067:A1 9.36269e-05
10 *2498:A *2016:A 0.000205043
11 *2498:A *2046:A1 9.90431e-05
12 *2498:A *2046:A2 9.90431e-05
13 *2498:A *2058:A2 0.000117054
14 *46:8 *2016:A 0.000149101
15 *46:16 *2056:A 5.7903e-06
16 *46:16 *283:24 0.000208334
17 *2056:B *2498:A 0
18 *2056:B *46:8 0
19 *2075:B1 *2075:A1 2.80368e-05
20 *41:20 *46:8 2.34204e-05
21 *45:8 *46:16 3.48918e-06
22 *45:42 *2075:A1 7.5404e-05
23 *45:42 *46:16 8.50795e-06
*RES
1 *2040:X *46:8 17.7196 
2 *46:8 *46:16 7.86445 
3 *46:16 *2067:A2 13.8 
4 *46:16 *2075:A1 17.1929 
5 *46:8 *2498:A 20.4161 
*END

*D_NET *47 0.0014114
*CONN
*I *2043:D I *D sky130_fd_sc_hd__or4_4
*I *2042:D I *D sky130_fd_sc_hd__nor4_1
*I *2041:X O *D sky130_fd_sc_hd__and3_1
*CAP
1 *2043:D 8.09623e-05
2 *2042:D 2.52229e-05
3 *2041:X 3.99336e-05
4 *47:6 0.000146119
5 *2042:D *536:57 5.52238e-05
6 *2043:D *2041:A 0.000363837
7 *2043:D *536:57 0.000537171
8 *2043:D *543:59 0.000109812
9 *2041:C *2043:D 5.31127e-05
*RES
1 *2041:X *47:6 10.0321 
2 *47:6 *2042:D 9.83571 
3 *47:6 *2043:D 14.3536 
*END

*D_NET *48 0.0011171
*CONN
*I *2061:A2 I *D sky130_fd_sc_hd__a21o_1
*I *2483:A I *D sky130_fd_sc_hd__buf_1
*I *2042:Y O *D sky130_fd_sc_hd__nor4_1
*CAP
1 *2061:A2 0.000235319
2 *2483:A 0
3 *2042:Y 0.000165239
4 *48:12 0.000400558
5 *2061:A2 *2058:A1 0
6 *2061:A2 *67:16 2.15245e-05
7 *2061:A2 *513:10 4.70078e-05
8 *48:12 *2042:B 2.59355e-05
9 *48:12 *2086:C1 0.000125724
10 *48:12 *283:10 0
11 *48:12 *536:57 1.56e-05
12 *2061:B1 *2061:A2 8.01893e-05
*RES
1 *2042:Y *48:12 20.8893 
2 *48:12 *2483:A 9.3 
3 *48:12 *2061:A2 13.5679 
*END

*D_NET *49 0.00541689
*CONN
*I *2044:B I *D sky130_fd_sc_hd__nor2_2
*I *2045:D I *D sky130_fd_sc_hd__or4_1
*I *2076:B I *D sky130_fd_sc_hd__or3_4
*I *2068:B I *D sky130_fd_sc_hd__or3_4
*I *2043:X O *D sky130_fd_sc_hd__or4_4
*CAP
1 *2044:B 0
2 *2045:D 0.000181611
3 *2076:B 0
4 *2068:B 5.9799e-05
5 *2043:X 0.000168334
6 *49:36 0.000194591
7 *49:20 0.00102402
8 *49:10 0.00114554
9 *2045:D *2058:A1 5.63208e-05
10 *2068:B *82:10 0.000144773
11 *49:10 *2016:A 6.07328e-05
12 *49:10 *2041:A 0.000142856
13 *49:10 *50:37 8.49861e-06
14 *49:20 *2016:A 0.000113887
15 *49:20 *2033:A 9.31209e-05
16 *49:20 *2033:B 0.000315887
17 *49:20 *2057:B1 0.000148903
18 *49:20 *2067:A1 0.000139907
19 *49:20 *2067:B1 3.14193e-05
20 *49:20 *82:10 0.000175251
21 *49:20 *283:24 4.55215e-05
22 *49:36 *2058:A1 5.52302e-05
23 *2038:A2 *2045:D 0
24 *2045:C *2045:D 0.00035013
25 *2045:C *49:10 0
26 *2056:B *49:20 7.6696e-05
27 *39:14 *49:20 1.57523e-05
28 *43:6 *2045:D 6.62868e-05
29 *43:10 *2045:D 0.000197501
30 *43:10 *49:36 2.14757e-05
31 *44:10 *49:20 0.000162823
32 *45:16 *49:20 0.000192489
33 *45:42 *49:10 2.8266e-06
34 *45:42 *49:20 2.47093e-05
*RES
1 *2043:X *49:10 16.8 
2 *49:10 *49:20 24.3036 
3 *49:20 *2068:B 10.6571 
4 *49:20 *2076:B 9.3 
5 *49:10 *49:36 5.03571 
6 *49:36 *2045:D 15.2286 
7 *49:36 *2044:B 9.3 
*END

*D_NET *50 0.0118035
*CONN
*I *2265:A2 I *D sky130_fd_sc_hd__a211o_1
*I *2058:A1 I *D sky130_fd_sc_hd__a21oi_2
*I *2044:Y O *D sky130_fd_sc_hd__nor2_2
*CAP
1 *2265:A2 0.000608802
2 *2058:A1 0.000224798
3 *2044:Y 0
4 *50:37 0.00298803
5 *50:4 0.00260403
6 *2058:A1 *2058:A2 5.62995e-05
7 *2265:A2 *2241:A 5.52302e-05
8 *2265:A2 *2265:C1 0
9 *2265:A2 *2293:C1 0.000113277
10 *2265:A2 *2294:B1 0.000364967
11 *2265:A2 *197:12 0
12 *2265:A2 *197:18 0
13 *2265:A2 *326:22 4.46186e-06
14 *2265:A2 *326:26 5.52302e-05
15 *2265:A2 *326:79 0.000365533
16 *2265:A2 *538:14 0
17 *2265:A2 *542:139 0.00039487
18 *50:37 *1965:C 0.000158705
19 *50:37 *2010:A1 0
20 *50:37 *2329:A 0.000125724
21 *50:37 *2331:B 0.000251127
22 *50:37 *2332:C 2.49484e-05
23 *50:37 *2337:A1 0.000160484
24 *50:37 *2337:A3 0
25 *50:37 *326:79 1.92931e-05
26 *50:37 *326:100 1.94879e-05
27 *50:37 *341:12 2.4958e-05
28 *50:37 *342:10 7.83587e-05
29 *50:37 *353:16 0.000217163
30 *50:37 *423:10 0.000148281
31 *50:37 *423:14 3.95183e-05
32 *50:37 *474:8 0
33 *50:37 *516:85 0.00194529
34 *50:37 *534:75 0
35 *50:37 *538:14 1.84886e-05
36 *50:37 *539:76 2.95076e-06
37 *50:37 *540:33 0
38 *50:37 *542:139 0.000468478
39 *50:37 *543:59 4.57975e-05
40 *50:37 *567:56 4.94884e-05
41 *2045:C *50:37 9.54798e-06
42 *2045:D *2058:A1 5.63208e-05
43 *2061:A2 *2058:A1 0
44 *38:12 *50:37 0
45 *43:10 *2058:A1 3.98547e-05
46 *49:10 *50:37 8.49861e-06
47 *49:36 *2058:A1 5.52302e-05
*RES
1 *2044:Y *50:4 9.3 
2 *50:4 *2058:A1 13.5679 
3 *50:4 *50:37 40.6916 
4 *50:37 *2265:A2 28.8804 
*END

*D_NET *51 0.00206941
*CONN
*I *2051:B I *D sky130_fd_sc_hd__and3_1
*I *2050:A1 I *D sky130_fd_sc_hd__a21o_1
*I *2047:A I *D sky130_fd_sc_hd__nand2_1
*I *2045:X O *D sky130_fd_sc_hd__or4_1
*CAP
1 *2051:B 0.000315637
2 *2050:A1 0
3 *2047:A 8.80978e-05
4 *2045:X 0
5 *51:12 0.000254103
6 *51:4 0.000481643
7 *2047:A *2055:B1 1.72894e-05
8 *2047:A *52:14 0.000227532
9 *2047:A *547:37 3.32631e-05
10 *2051:B *2031:B 7.83659e-05
11 *2051:B *2033:A 7.83659e-05
12 *2051:B *475:73 2.0953e-05
13 *2051:B *475:98 7.91647e-05
14 *2051:B *517:62 0
15 *51:12 *2029:C1 0.000102839
16 *51:12 *475:73 6.54357e-05
17 *51:12 *475:98 3.45423e-05
18 *43:6 *2051:B 0.000136951
19 *43:6 *51:12 5.52302e-05
*RES
1 *2045:X *51:4 9.3 
2 *51:4 *51:12 12.3929 
3 *51:12 *2047:A 11.9071 
4 *51:12 *2050:A1 9.3 
5 *51:4 *2051:B 23.7286 
*END

*D_NET *52 0.00252924
*CONN
*I *2047:B I *D sky130_fd_sc_hd__nand2_1
*I *2051:C I *D sky130_fd_sc_hd__and3_1
*I *2050:A2 I *D sky130_fd_sc_hd__a21o_1
*I *2046:X O *D sky130_fd_sc_hd__a21o_1
*CAP
1 *2047:B 4.34878e-05
2 *2051:C 9.3827e-05
3 *2050:A2 4.06336e-05
4 *2046:X 0.000444036
5 *52:14 0.000386767
6 *52:10 0.00073983
7 *2047:B *542:92 4.63759e-05
8 *2051:C *547:37 3.32213e-05
9 *52:10 *2029:C1 0
10 *52:10 *241:27 8.87062e-05
11 *52:10 *542:92 0.000259549
12 *52:14 *2055:B1 3.61629e-06
13 *52:14 *53:14 1.40415e-05
14 *52:14 *547:37 1.15281e-05
15 *2045:B *52:10 0
16 *2047:A *52:14 0.000227532
17 *45:42 *52:10 9.60875e-05
*RES
1 *2046:X *52:10 20.675 
2 *52:10 *52:14 7.91071 
3 *52:14 *2050:A2 10.0321 
4 *52:14 *2051:C 10.5411 
5 *52:10 *2047:B 14.5321 
*END

*D_NET *53 0.00206637
*CONN
*I *2048:A I *D sky130_fd_sc_hd__inv_2
*I *2049:B I *D sky130_fd_sc_hd__and2_1
*I *2047:Y O *D sky130_fd_sc_hd__nand2_1
*CAP
1 *2048:A 0.000286885
2 *2049:B 7.10792e-05
3 *2047:Y 0.000118409
4 *53:14 0.000476373
5 *2048:A *2052:B 9.56446e-06
6 *2048:A *2055:A2 0.000224583
7 *2048:A *2091:A0 9.54798e-06
8 *2048:A *2427:A 6.32633e-05
9 *2048:A *61:16 8.36572e-05
10 *2048:A *475:98 0.00021523
11 *2048:A *517:6 5.52302e-05
12 *2048:A *517:12 0
13 *2048:A *542:128 7.84156e-05
14 *2049:B *2055:A2 0
15 *2049:B *61:16 9.60875e-05
16 *2049:B *542:88 1.92789e-05
17 *2049:B *542:128 1.21258e-05
18 *53:14 *2055:B1 0.000111374
19 *53:14 *542:92 0.000121227
20 *52:14 *53:14 1.40415e-05
*RES
1 *2047:Y *53:14 20.9071 
2 *53:14 *2049:B 10.9786 
3 *53:14 *2048:A 25.3893 
*END

*D_NET *54 0.000757113
*CONN
*I *2091:A0 I *D sky130_fd_sc_hd__mux2_1
*I *2048:Y O *D sky130_fd_sc_hd__inv_2
*CAP
1 *2091:A0 0.000186824
2 *2048:Y 0.000186824
3 *2091:A0 *1965:B 2.42516e-05
4 *2091:A0 *2052:B 4.6025e-06
5 *2091:A0 *2090:B 0.000171368
6 *2091:A0 *2091:A1 5.71472e-05
7 *2091:A0 *2091:S 2.14658e-05
8 *2091:A0 *475:98 2.0586e-05
9 *2091:A0 *517:12 7.44962e-05
10 *2048:A *2091:A0 9.54798e-06
*RES
1 *2048:Y *2091:A0 32.225 
*END

*D_NET *55 0.00184435
*CONN
*I *2052:A I *D sky130_fd_sc_hd__nor2_1
*I *2049:X O *D sky130_fd_sc_hd__and2_1
*CAP
1 *2052:A 0.000509657
2 *2049:X 0.000509657
3 *2052:A *2052:B 0.000265447
4 *2052:A *2053:B 7.43578e-06
5 *2052:A *2055:A2 3.45483e-05
6 *2052:A *517:12 0.000120506
7 *2052:A *524:50 0.000122814
8 *2052:A *542:128 0.000274288
*RES
1 *2049:X *2052:A 35.5286 
*END

*D_NET *56 0.00049026
*CONN
*I *2055:B1 I *D sky130_fd_sc_hd__o21ai_2
*I *2050:X O *D sky130_fd_sc_hd__a21o_1
*CAP
1 *2055:B1 0.000165363
2 *2050:X 0.000165363
3 *2055:B1 *57:12 0
4 *2055:B1 *542:92 2.72545e-05
5 *2047:A *2055:B1 1.72894e-05
6 *52:14 *2055:B1 3.61629e-06
7 *53:14 *2055:B1 0.000111374
*RES
1 *2050:X *2055:B1 30.4929 
*END

*D_NET *57 0.00151527
*CONN
*I *2052:B I *D sky130_fd_sc_hd__nor2_1
*I *2055:A1 I *D sky130_fd_sc_hd__o21ai_2
*I *2051:X O *D sky130_fd_sc_hd__and3_1
*CAP
1 *2052:B 0.000156654
2 *2055:A1 0
3 *2051:X 0.000181238
4 *57:12 0.000337892
5 *2052:B *2055:A2 0.000147751
6 *2052:B *2427:A 9.91086e-05
7 *2052:B *517:12 0.000142971
8 *57:12 *475:98 7.10038e-05
9 *57:12 *547:37 9.90367e-05
10 *2048:A *2052:B 9.56446e-06
11 *2052:A *2052:B 0.000265447
12 *2055:B1 *57:12 0
13 *2091:A0 *2052:B 4.6025e-06
*RES
1 *2051:X *57:12 21.1929 
2 *57:12 *2055:A1 9.3 
3 *57:12 *2052:B 23.2643 
*END

*D_NET *58 0.000549704
*CONN
*I *2090:A I *D sky130_fd_sc_hd__xnor2_1
*I *2052:Y O *D sky130_fd_sc_hd__nor2_1
*CAP
1 *2090:A 0.000183921
2 *2052:Y 0.000183921
3 *2090:A *2090:B 3.14048e-05
4 *2090:A *2427:A 9.41642e-05
5 *2090:A *542:128 5.62934e-05
*RES
1 *2052:Y *2090:A 22.0286 
*END

*D_NET *59 0.00093771
*CONN
*I *2055:A2 I *D sky130_fd_sc_hd__o21ai_2
*I *2053:Y O *D sky130_fd_sc_hd__nor2_1
*CAP
1 *2055:A2 0.000139959
2 *2053:Y 0.000139959
3 *2055:A2 *2053:A 5.52238e-05
4 *2055:A2 *2053:B 5.52238e-05
5 *2055:A2 *517:6 0.000108594
6 *2055:A2 *542:128 3.18676e-05
7 *2048:A *2055:A2 0.000224583
8 *2049:B *2055:A2 0
9 *2052:A *2055:A2 3.45483e-05
10 *2052:B *2055:A2 0.000147751
*RES
1 *2053:Y *2055:A2 23.6714 
*END

*D_NET *60 0.00148534
*CONN
*I *2096:A I *D sky130_fd_sc_hd__nand2_1
*I *2090:B I *D sky130_fd_sc_hd__xnor2_1
*I *2054:X O *D sky130_fd_sc_hd__or2_1
*CAP
1 *2096:A 0.000140434
2 *2090:B 0.000179058
3 *2054:X 0
4 *60:6 0.000319492
5 *2090:B *475:98 0.000287849
6 *2090:B *517:12 0
7 *2090:B *542:128 9.60875e-05
8 *2096:A *475:98 0.000259647
9 *2096:A *517:12 0
10 *2096:A *517:23 0
11 *2090:A *2090:B 3.14048e-05
12 *2091:A0 *2090:B 0.000171368
*RES
1 *2054:X *60:6 13.8 
2 *60:6 *2090:B 18.9429 
3 *60:6 *2096:A 17.2643 
*END

*D_NET *61 0.00625801
*CONN
*I *2109:A1 I *D sky130_fd_sc_hd__a21o_1
*I *2087:A1 I *D sky130_fd_sc_hd__a31o_1
*I *2114:A I *D sky130_fd_sc_hd__xnor2_1
*I *2082:D_N I *D sky130_fd_sc_hd__or4b_4
*I *2055:Y O *D sky130_fd_sc_hd__o21ai_2
*CAP
1 *2109:A1 9.25602e-06
2 *2087:A1 0
3 *2114:A 0.000180905
4 *2082:D_N 0.000248635
5 *2055:Y 0.00144395
6 *61:24 0.00042954
7 *61:22 0.000125992
8 *61:16 0.0015792
9 *2082:D_N *2084:C_N 5.38444e-06
10 *2082:D_N *2087:A2 1.98839e-05
11 *2082:D_N *2109:A2 0.000112797
12 *2082:D_N *86:14 5.01148e-05
13 *2082:D_N *89:10 5.25372e-05
14 *2109:A1 *2109:A2 1.00733e-05
15 *2114:A *2088:B 7.6612e-06
16 *2114:A *2110:B 5.42961e-05
17 *2114:A *89:10 3.27526e-05
18 *61:16 *2109:A2 1.74352e-05
19 *61:16 *471:43 1.36251e-05
20 *61:16 *471:94 3.25078e-05
21 *61:16 *516:73 9.31893e-05
22 *61:16 *531:24 9.97669e-05
23 *61:16 *531:66 0.000833097
24 *61:16 *534:45 5.52238e-05
25 *61:16 *534:56 4.08637e-05
26 *61:16 *536:50 5.52302e-05
27 *61:16 *536:57 0.00014183
28 *61:16 *542:88 1.57523e-05
29 *61:22 *2084:C_N 3.61487e-05
30 *61:22 *2109:A2 0.000183232
31 *61:22 *2109:B1 5.52302e-05
32 *61:22 *2110:B 4.21613e-05
33 *2048:A *61:16 8.36572e-05
34 *2049:B *61:16 9.60875e-05
*RES
1 *2055:Y *61:16 40.4429 
2 *61:16 *61:22 3.55357 
3 *61:22 *61:24 4.5 
4 *61:24 *2082:D_N 17.6929 
5 *61:24 *2114:A 16.6571 
6 *61:22 *2087:A1 9.3 
7 *61:16 *2109:A1 9.72857 
*END

*D_NET *62 0.00129038
*CONN
*I *2058:A2 I *D sky130_fd_sc_hd__a21oi_2
*I *2056:Y O *D sky130_fd_sc_hd__xnor2_1
*CAP
1 *2058:A2 0.000381541
2 *2056:Y 0.000381541
3 *2058:A2 *2016:A 0
4 *2058:A2 *2058:B1 0.000146655
5 *2058:A2 *2067:A1 0
6 *2058:A2 *64:12 2.06178e-05
7 *2058:A2 *513:12 0
8 *2058:A1 *2058:A2 5.62995e-05
9 *2498:A *2058:A2 0.000117054
10 *43:10 *2058:A2 0.000186669
*RES
1 *2056:Y *2058:A2 36.1714 
*END

*D_NET *63 0.000810686
*CONN
*I *2058:B1 I *D sky130_fd_sc_hd__a21oi_2
*I *2057:Y O *D sky130_fd_sc_hd__a21oi_1
*CAP
1 *2058:B1 0.000240498
2 *2057:Y 0.000240498
3 *2058:B1 *2057:A1 5.71472e-05
4 *2058:B1 *64:12 2.06178e-05
5 *2058:B1 *513:10 4.55995e-05
6 *2058:B1 *513:12 5.26184e-05
7 *2041:C *2058:B1 3.47641e-06
8 *2058:A2 *2058:B1 0.000146655
9 *2075:B1 *2058:B1 3.57603e-06
*RES
1 *2057:Y *2058:B1 32.5866 
*END

*D_NET *64 0.00775276
*CONN
*I *2059:B I *D sky130_fd_sc_hd__or2_1
*I *2089:A0 I *D sky130_fd_sc_hd__mux2_2
*I *2060:B I *D sky130_fd_sc_hd__xnor2_1
*I *2058:Y O *D sky130_fd_sc_hd__a21oi_2
*CAP
1 *2059:B 0.000161398
2 *2089:A0 0.000512119
3 *2060:B 0
4 *2058:Y 0.0014737
5 *64:18 0.00124713
6 *64:12 0.00237011
7 *2059:B *2086:C1 0
8 *2059:B *2107:B1 9.27921e-05
9 *2059:B *471:43 5.33433e-05
10 *2059:B *471:45 6.05161e-06
11 *2089:A0 *2060:A 0.000142797
12 *2089:A0 *2085:A2 0.000108848
13 *2089:A0 *2088:A 0
14 *2089:A0 *2089:A1 5.52302e-05
15 *2089:A0 *95:10 7.16452e-05
16 *2089:A0 *496:18 0.000235232
17 *2089:A0 *536:8 0
18 *64:12 *67:16 0.00047177
19 *64:12 *543:16 0.000126465
20 *64:12 *543:59 0.000274172
21 *64:18 *2060:A 3.51442e-05
22 *64:18 *2062:A 0
23 *64:18 *2064:A_N 5.58941e-05
24 *64:18 *2085:A2 7.71321e-05
25 *64:18 *67:16 0.0001235
26 *64:18 *69:10 1.70474e-05
27 *2058:A2 *64:12 2.06178e-05
28 *2058:B1 *64:12 2.06178e-05
*RES
1 *2058:Y *64:12 21.4254 
2 *64:12 *64:18 7.76313 
3 *64:18 *2060:B 13.8 
4 *64:18 *2089:A0 25.8536 
5 *64:12 *2059:B 20.5582 
*END

*D_NET *65 0.00173837
*CONN
*I *2085:A1 I *D sky130_fd_sc_hd__a21o_1
*I *2059:X O *D sky130_fd_sc_hd__or2_1
*CAP
1 *2085:A1 0.000432466
2 *2059:X 0.000432466
3 *2085:A1 *2059:A 0.000107506
4 *2085:A1 *2060:A 0.000142856
5 *2085:A1 *2086:A2 0.000154762
6 *2085:A1 *67:29 0.000125304
7 *2085:A1 *70:22 0.000117492
8 *2085:A1 *536:16 5.76372e-05
9 *2085:A1 *536:50 0.000140933
10 *2085:A1 *539:40 2.6949e-05
*RES
1 *2059:X *2085:A1 38.5286 
*END

*D_NET *66 0.00278083
*CONN
*I *2088:A I *D sky130_fd_sc_hd__xor2_1
*I *2082:A I *D sky130_fd_sc_hd__or4b_4
*I *2084:A I *D sky130_fd_sc_hd__or3b_1
*I *2060:Y O *D sky130_fd_sc_hd__xnor2_1
*CAP
1 *2088:A 0.000157039
2 *2082:A 0.000113862
3 *2084:A 0
4 *2060:Y 0.000161634
5 *66:10 0.000259544
6 *66:6 0.000464355
7 *2082:A *2082:C 0.000509303
8 *2082:A *2084:C_N 0.000551192
9 *2082:A *70:22 5.52238e-05
10 *2088:A *2085:B1 0.000150625
11 *2088:A *2086:A3 7.83659e-05
12 *2088:A *536:8 4.06782e-05
13 *2088:A *536:16 4.38604e-05
14 *66:10 *2084:B 0
15 *66:10 *2084:C_N 0.000139913
16 *66:10 *70:22 5.52302e-05
17 *2089:A0 *2088:A 0
*RES
1 *2060:Y *66:6 11.0679 
2 *66:6 *66:10 2.91071 
3 *66:10 *2084:A 9.3 
4 *66:10 *2082:A 14.7643 
5 *66:6 *2088:A 22.3714 
*END

*D_NET *67 0.0145664
*CONN
*I *2107:A1 I *D sky130_fd_sc_hd__o21ai_1
*I *2130:A I *D sky130_fd_sc_hd__or3_1
*I *2062:C I *D sky130_fd_sc_hd__and3_1
*I *2063:A2 I *D sky130_fd_sc_hd__a21o_1
*I *2061:X O *D sky130_fd_sc_hd__a21o_1
*CAP
1 *2107:A1 1.96206e-05
2 *2130:A 0.00131121
3 *2062:C 0.000275037
4 *2063:A2 2.01385e-05
5 *2061:X 0.00190204
6 *67:48 0.00194107
7 *67:29 0.000956577
8 *67:16 0.00199347
9 *2062:C *2062:B 0.0001119
10 *2062:C *2064:B 1.28809e-05
11 *2062:C *2085:B1 0.000171283
12 *2062:C *68:6 5.33005e-05
13 *2062:C *70:22 0.000104044
14 *2063:A2 *2059:A 0
15 *2063:A2 *2062:B 4.75911e-05
16 *2107:A1 *2125:B 4.73656e-05
17 *2107:A1 *2129:A2 2.84494e-05
18 *2130:A *2119:B2 0.000389705
19 *2130:A *2124:A1 0.000238003
20 *2130:A *2130:B 0.000397016
21 *2130:A *471:94 0.00070115
22 *2130:A *531:14 0.000125731
23 *2130:A *542:18 2.42662e-05
24 *2130:A *567:22 0.000458107
25 *67:16 *2070:C 7.96925e-05
26 *67:16 *2086:C1 0
27 *67:16 *283:10 0.000113061
28 *67:16 *283:24 0
29 *67:16 *513:10 5.71472e-05
30 *67:29 *2059:A 0
31 *67:29 *2062:B 0.000105449
32 *67:29 *70:22 8.6229e-06
33 *67:29 *536:16 1.02415e-05
34 *67:48 *2086:B1 0.000314458
35 *67:48 *2086:C1 0
36 *67:48 *2107:B1 0.000809932
37 *67:48 *2125:B 0.000126963
38 *67:48 *2128:A2 1.87493e-05
39 *67:48 *2129:A2 3.92757e-05
40 *67:48 *534:24 0.000810709
41 *2061:A2 *67:16 2.15245e-05
42 *2085:A1 *67:29 0.000125304
43 *64:12 *67:16 0.00047177
44 *64:18 *67:16 0.0001235
*RES
1 *2061:X *67:16 29.7557 
2 *67:16 *2063:A2 14.3804 
3 *67:16 *67:29 6.59821 
4 *67:29 *2062:C 15.6036 
5 *67:29 *67:48 23.6071 
6 *67:48 *2130:A 46.6571 
7 *67:48 *2107:A1 14.5321 
*END

*D_NET *68 0.00134783
*CONN
*I *2085:B1 I *D sky130_fd_sc_hd__a21o_1
*I *2064:A_N I *D sky130_fd_sc_hd__nand2b_1
*I *2062:X O *D sky130_fd_sc_hd__and3_1
*CAP
1 *2085:B1 0.000254355
2 *2064:A_N 1.92398e-05
3 *2062:X 4.36033e-05
4 *68:6 0.000317198
5 *2064:A_N *2085:A2 4.56437e-05
6 *2064:A_N *69:10 1.02504e-05
7 *2085:B1 *2085:A2 0.000123409
8 *2085:B1 *2086:A3 0.000103032
9 *2062:C *2085:B1 0.000171283
10 *2062:C *68:6 5.33005e-05
11 *2088:A *2085:B1 0.000150625
12 *64:18 *2064:A_N 5.58941e-05
*RES
1 *2062:X *68:6 9.83571 
2 *68:6 *2064:A_N 19.0321 
3 *68:6 *2085:B1 24.4429 
*END

*D_NET *69 0.00131346
*CONN
*I *2085:A2 I *D sky130_fd_sc_hd__a21o_1
*I *2064:B I *D sky130_fd_sc_hd__nand2b_1
*I *2063:X O *D sky130_fd_sc_hd__a21o_1
*CAP
1 *2085:A2 0.000160954
2 *2064:B 4.94028e-06
3 *2063:X 0.000225163
4 *69:10 0.000391057
5 *2064:B *2062:B 6.26774e-06
6 *69:10 *2062:A 7.50473e-05
7 *69:10 *70:22 5.48198e-05
8 *69:10 *536:16 0
9 *2062:C *2064:B 1.28809e-05
10 *2064:A_N *2085:A2 4.56437e-05
11 *2064:A_N *69:10 1.02504e-05
12 *2085:B1 *2085:A2 0.000123409
13 *2089:A0 *2085:A2 0.000108848
14 *64:18 *2085:A2 7.71321e-05
15 *64:18 *69:10 1.70474e-05
*RES
1 *2063:X *69:10 17.5143 
2 *69:10 *2064:B 13.9295 
3 *69:10 *2085:A2 18.7821 
*END

*D_NET *70 0.00264252
*CONN
*I *2082:C I *D sky130_fd_sc_hd__or4b_4
*I *2084:B I *D sky130_fd_sc_hd__or3b_1
*I *2064:Y O *D sky130_fd_sc_hd__nand2b_1
*CAP
1 *2082:C 0.000287152
2 *2084:B 2.23854e-05
3 *2064:Y 0.000395286
4 *70:22 0.000704824
5 *2082:C *2082:B 5.65955e-05
6 *2082:C *2084:C_N 4.73286e-05
7 *70:22 *2062:B 9.7659e-05
8 *70:22 *536:16 0.000126551
9 *2062:C *70:22 0.000104044
10 *2082:A *2082:C 0.000509303
11 *2082:A *70:22 5.52238e-05
12 *2085:A1 *70:22 0.000117492
13 *66:10 *2084:B 0
14 *66:10 *70:22 5.52302e-05
15 *67:29 *70:22 8.6229e-06
16 *69:10 *70:22 5.48198e-05
*RES
1 *2064:Y *70:22 35.2643 
2 *70:22 *2084:B 9.72857 
3 *70:22 *2082:C 15.175 
*END

*D_NET *71 0.000550433
*CONN
*I *2066:B I *D sky130_fd_sc_hd__xnor2_1
*I *2065:Y O *D sky130_fd_sc_hd__xnor2_1
*CAP
1 *2066:B 0.000246689
2 *2065:Y 0.000246689
3 *2066:B *2021:A 5.70551e-05
4 *2066:B *2065:A 0
5 *2030:B *2066:B 0
*RES
1 *2065:Y *2066:B 31.0107 
*END

*D_NET *72 0.00094016
*CONN
*I *2068:C I *D sky130_fd_sc_hd__or3_4
*I *2066:Y O *D sky130_fd_sc_hd__xnor2_1
*CAP
1 *2068:C 0.000292489
2 *2066:Y 0.000292489
3 *2068:C *2021:A 0
4 *2068:C *2076:C 0.000344932
5 *2030:B *2068:C 1.02504e-05
6 *2034:A2 *2068:C 0
7 *2074:A *2068:C 0
8 *34:20 *2068:C 0
*RES
1 *2066:Y *2068:C 34.1 
*END

*D_NET *73 0.00195042
*CONN
*I *2502:A I *D sky130_fd_sc_hd__buf_1
*I *2070:C I *D sky130_fd_sc_hd__and3_1
*I *2069:A I *D sky130_fd_sc_hd__nand2_1
*I *2067:X O *D sky130_fd_sc_hd__a21o_1
*CAP
1 *2502:A 0
2 *2070:C 0.000207091
3 *2069:A 7.87273e-05
4 *2067:X 0.000263226
5 *73:16 0.000306615
6 *73:12 0.000284022
7 *2069:A *2069:B 8.37373e-05
8 *2069:A *81:10 0.000127446
9 *2069:A *283:10 6.6477e-06
10 *2069:A *283:24 1.19191e-05
11 *2070:C *2021:A 9.87983e-06
12 *2070:C *82:10 1.90936e-05
13 *2070:C *283:54 2.0954e-05
14 *2070:C *563:10 1.95435e-05
15 *73:12 *81:10 0.00023978
16 *73:12 *283:24 0
17 *73:12 *283:48 5.52238e-05
18 *73:16 *283:48 5.52302e-05
19 *45:42 *73:12 8.15939e-05
20 *67:16 *2070:C 7.96925e-05
*RES
1 *2067:X *73:12 24.8893 
2 *73:12 *73:16 5.03571 
3 *73:16 *2069:A 16.05 
4 *73:16 *2070:C 21.5726 
5 *73:12 *2502:A 9.3 
*END

*D_NET *74 0.00199345
*CONN
*I *2069:B I *D sky130_fd_sc_hd__nand2_1
*I *2070:B I *D sky130_fd_sc_hd__and3_1
*I *2072:A2 I *D sky130_fd_sc_hd__a21o_1
*I *2071:A2 I *D sky130_fd_sc_hd__a21oi_1
*I *2068:X O *D sky130_fd_sc_hd__or3_4
*CAP
1 *2069:B 0.000273003
2 *2070:B 0
3 *2072:A2 0
4 *2071:A2 1.21804e-05
5 *2068:X 4.26326e-05
6 *74:18 0.000326742
7 *74:10 0.000630198
8 *2069:B *82:10 7.87505e-05
9 *2069:B *82:21 4.1331e-06
10 *2069:B *283:24 0
11 *2069:B *283:48 2.32517e-05
12 *2069:B *283:54 2.73444e-05
13 *2071:A2 *2071:A1 5.49489e-05
14 *2071:A2 *2071:B1 5.49489e-05
15 *74:10 *2021:A 6.74815e-05
16 *74:10 *82:10 0.000128146
17 *74:18 *2071:B1 4.0022e-05
18 *74:18 *76:14 0.000116361
19 *74:18 *283:54 2.95726e-05
20 *2069:A *2069:B 8.37373e-05
*RES
1 *2068:X *74:10 19.9429 
2 *74:10 *74:18 13.4464 
3 *74:18 *2071:A2 9.83571 
4 *74:18 *2072:A2 9.3 
5 *74:10 *2070:B 9.3 
6 *74:10 *2069:B 23.2286 
*END

*D_NET *75 0.00242254
*CONN
*I *2111:A0 I *D sky130_fd_sc_hd__mux2_2
*I *2069:Y O *D sky130_fd_sc_hd__nand2_1
*CAP
1 *2111:A0 0.000571822
2 *2069:Y 0.000571822
3 *2111:A0 *2115:A0 0.000348353
4 *2111:A0 *2151:B 0.000176234
5 *2111:A0 *2482:A 3.9846e-05
6 *2111:A0 *2494:A 3.55152e-05
7 *2111:A0 *81:21 3.92757e-05
8 *2111:A0 *92:26 2.89114e-05
9 *2111:A0 *283:10 4.90937e-05
10 *2111:A0 *512:8 0.000269422
11 *2111:A0 *543:10 0.000292244
*RES
1 *2069:Y *2111:A0 42.9036 
*END

*D_NET *76 0.00212632
*CONN
*I *2083:B1 I *D sky130_fd_sc_hd__a21o_1
*I *2081:D I *D sky130_fd_sc_hd__or4_4
*I *2073:A I *D sky130_fd_sc_hd__nor2_1
*I *2070:X O *D sky130_fd_sc_hd__and3_1
*CAP
1 *2083:B1 1.12434e-05
2 *2081:D 0
3 *2073:A 0.000120078
4 *2070:X 0.000223149
5 *76:16 0.000137076
6 *76:14 0.00025139
7 *2073:A *2073:B 0.000156302
8 *2073:A *2081:A 5.49544e-05
9 *2073:A *2086:C1 0.00040919
10 *2073:A *471:43 0.000169538
11 *2083:B1 *2086:C1 3.52966e-05
12 *2083:B1 *471:43 4.27935e-05
13 *76:14 *2021:A 0
14 *76:14 *2071:B1 5.52302e-05
15 *76:14 *2083:A1 2.79092e-05
16 *76:14 *2083:A2 2.8266e-06
17 *76:14 *283:54 0.000129515
18 *76:16 *2086:C1 9.83388e-05
19 *76:16 *471:43 8.51331e-05
20 *74:18 *76:14 0.000116361
*RES
1 *2070:X *76:14 23.05 
2 *76:14 *76:16 0.946429 
3 *76:16 *2073:A 14.925 
4 *76:16 *2081:D 9.3 
5 *76:14 *2083:B1 9.83571 
*END

*D_NET *77 0.00120513
*CONN
*I *2081:B I *D sky130_fd_sc_hd__or4_4
*I *2073:B I *D sky130_fd_sc_hd__nor2_1
*I *2071:Y O *D sky130_fd_sc_hd__a21oi_1
*CAP
1 *2081:B 0.000135256
2 *2073:B 5.83882e-05
3 *2071:Y 0.000147727
4 *77:10 0.000341371
5 *2073:B *471:43 0.000229354
6 *2081:B *2081:A 5.1353e-05
7 *2081:B *2082:B 1.02504e-05
8 *2081:B *2083:A2 0
9 *2081:B *2086:C1 5.33005e-05
10 *77:10 *2071:B1 2.18272e-05
11 *2073:A *2073:B 0.000156302
*RES
1 *2071:Y *77:10 15.7018 
2 *77:10 *2073:B 16.4071 
3 *77:10 *2081:B 15.675 
*END

*D_NET *78 0.000171094
*CONN
*I *2083:A1 I *D sky130_fd_sc_hd__a21o_1
*I *2072:X O *D sky130_fd_sc_hd__a21o_1
*CAP
1 *2083:A1 3.15519e-05
2 *2072:X 3.15519e-05
3 *2083:A1 *2021:A 8.00806e-05
4 *76:14 *2083:A1 2.79092e-05
*RES
1 *2072:X *2083:A1 28.6357 
*END

*D_NET *79 0.0020102
*CONN
*I *2110:A I *D sky130_fd_sc_hd__xnor2_1
*I *2087:A2 I *D sky130_fd_sc_hd__a31o_1
*I *2073:Y O *D sky130_fd_sc_hd__nor2_1
*CAP
1 *2110:A 0.000172819
2 *2087:A2 6.28555e-05
3 *2073:Y 0.000284599
4 *79:10 0.000520273
5 *2087:A2 *2084:C_N 0.000223461
6 *2087:A2 *2109:A2 2.36643e-05
7 *2087:A2 *86:14 9.83442e-05
8 *2110:A *2082:B 5.41794e-05
9 *2110:A *2088:B 1.85854e-05
10 *2110:A *2114:B 4.56594e-05
11 *2110:A *92:10 0
12 *79:10 *2082:B 0.000342225
13 *79:10 *2086:C1 0.000143652
14 *79:10 *92:10 0
15 *2082:D_N *2087:A2 1.98839e-05
*RES
1 *2073:Y *79:10 19.5321 
2 *79:10 *2087:A2 15.9786 
3 *79:10 *2110:A 16.8893 
*END

*D_NET *80 0.000971929
*CONN
*I *2076:C I *D sky130_fd_sc_hd__or3_4
*I *2074:Y O *D sky130_fd_sc_hd__xnor2_1
*CAP
1 *2076:C 0.000242584
2 *2074:Y 0.000242584
3 *2068:C *2076:C 0.000344932
4 *2074:B *2076:C 0.00014183
*RES
1 *2074:Y *2076:C 33.3321 
*END

*D_NET *81 0.00361517
*CONN
*I *2494:A I *D sky130_fd_sc_hd__buf_1
*I *2079:B I *D sky130_fd_sc_hd__and3_1
*I *2077:A I *D sky130_fd_sc_hd__and2_1
*I *2075:X O *D sky130_fd_sc_hd__a21o_1
*CAP
1 *2494:A 2.67829e-05
2 *2079:B 0.000439589
3 *2077:A 7.63943e-05
4 *2075:X 0.000458624
5 *81:21 0.000530775
6 *81:10 0.000599422
7 *2077:A *2086:C1 0.000358971
8 *2077:A *471:43 0.0001863
9 *2079:B *2078:A1 1.65437e-05
10 *2079:B *2079:C 3.0166e-05
11 *2079:B *84:12 4.52872e-05
12 *2494:A *283:10 7.98175e-05
13 *81:10 *82:21 0
14 *81:10 *283:10 0.000147835
15 *81:10 *283:48 5.52238e-05
16 *81:21 *82:21 0
17 *81:21 *283:10 0.000121416
18 *2069:A *81:10 0.000127446
19 *2111:A0 *2494:A 3.55152e-05
20 *2111:A0 *81:21 3.92757e-05
21 *73:12 *81:10 0.00023978
*RES
1 *2075:X *81:10 21.2107 
2 *81:10 *2077:A 17.2107 
3 *81:10 *81:21 1.64286 
4 *81:21 *2079:B 18.8536 
5 *81:21 *2494:A 14.8357 
*END

*D_NET *82 0.00256311
*CONN
*I *2079:C I *D sky130_fd_sc_hd__and3_1
*I *2078:A2 I *D sky130_fd_sc_hd__a21oi_1
*I *2077:B I *D sky130_fd_sc_hd__and2_1
*I *2076:X O *D sky130_fd_sc_hd__or3_4
*CAP
1 *2079:C 0.00021309
2 *2078:A2 0
3 *2077:B 0
4 *2076:X 0.000324778
5 *82:21 0.000345657
6 *82:10 0.000457346
7 *2079:C *2078:A1 5.71472e-05
8 *2079:C *2078:B1 5.52302e-05
9 *2079:C *2079:A 2.39852e-05
10 *2079:C *84:12 4.32375e-05
11 *82:10 *2021:A 6.87516e-05
12 *82:10 *283:24 0
13 *82:21 *2021:A 5.58829e-05
14 *82:21 *2115:A0 7.47909e-05
15 *2068:A *82:10 0.000161937
16 *2068:B *82:10 0.000144773
17 *2069:B *82:10 7.87505e-05
18 *2069:B *82:21 4.1331e-06
19 *2070:C *82:10 1.90936e-05
20 *2079:B *2079:C 3.0166e-05
21 *45:16 *82:10 0.00010096
22 *49:20 *82:10 0.000175251
23 *74:10 *82:10 0.000128146
24 *81:10 *82:21 0
25 *81:21 *82:21 0
*RES
1 *2076:X *82:10 22.7107 
2 *82:10 *2077:B 13.8 
3 *82:10 *82:21 7.35714 
4 *82:21 *2078:A2 9.3 
5 *82:21 *2079:C 12.9429 
*END

*D_NET *83 0.00138234
*CONN
*I *2115:A0 I *D sky130_fd_sc_hd__mux2_4
*I *2077:X O *D sky130_fd_sc_hd__and2_1
*CAP
1 *2115:A0 0.00040038
2 *2077:X 0.00040038
3 *2115:A0 *2115:A1 0.000123295
4 *2115:A0 *2115:S 0
5 *2115:A0 *2151:B 3.51442e-05
6 *2115:A0 *543:16 0
7 *2111:A0 *2115:A0 0.000348353
8 *82:21 *2115:A0 7.47909e-05
*RES
1 *2077:X *2115:A0 36.8321 
*END

*D_NET *84 0.0027225
*CONN
*I *2080:A I *D sky130_fd_sc_hd__nor2_1
*I *2109:B1 I *D sky130_fd_sc_hd__a21o_1
*I *2083:A2 I *D sky130_fd_sc_hd__a21o_1
*I *2081:C I *D sky130_fd_sc_hd__or4_4
*I *2078:Y O *D sky130_fd_sc_hd__a21oi_1
*CAP
1 *2080:A 0
2 *2109:B1 0.000220299
3 *2083:A2 7.48505e-05
4 *2081:C 5.31932e-05
5 *2078:Y 0.00016819
6 *84:29 0.000447501
7 *84:18 0.000278368
8 *84:12 0.000241014
9 *2081:C *2086:C1 4.26986e-05
10 *2083:A2 *2021:A 7.57946e-05
11 *2083:A2 *2086:C1 2.59355e-05
12 *2083:A2 *89:10 0
13 *2083:A2 *471:43 5.52238e-05
14 *2109:B1 *2021:A 0.000158115
15 *2109:B1 *2109:A2 5.33005e-05
16 *2109:B1 *89:10 6.96586e-05
17 *2109:B1 *543:16 0.000126706
18 *84:12 *2078:B1 3.88615e-05
19 *84:12 *2079:A 2.14978e-05
20 *84:12 *85:10 5.33005e-05
21 *84:18 *2081:A 4.1993e-05
22 *84:18 *89:10 0.000146171
23 *84:29 *2086:C1 0.000183245
24 *2079:B *84:12 4.52872e-05
25 *2079:C *84:12 4.32375e-05
26 *2081:B *2083:A2 0
27 *61:22 *2109:B1 5.52302e-05
28 *76:14 *2083:A2 2.8266e-06
*RES
1 *2078:Y *84:12 12.8714 
2 *84:12 *84:18 10.9464 
3 *84:18 *2081:C 10.0411 
4 *84:18 *84:29 6.67857 
5 *84:29 *2083:A2 15.3714 
6 *84:29 *2109:B1 19.0679 
7 *84:12 *2080:A 9.3 
*END

*D_NET *85 0.000955561
*CONN
*I *2080:B I *D sky130_fd_sc_hd__nor2_1
*I *2081:A I *D sky130_fd_sc_hd__or4_4
*I *2079:X O *D sky130_fd_sc_hd__and3_1
*CAP
1 *2080:B 0
2 *2081:A 0.000168833
3 *2079:X 0.00010647
4 *85:10 0.000275303
5 *2081:A *2082:B 7.22508e-05
6 *2081:A *2086:C1 5.33005e-05
7 *2081:A *86:10 2.12087e-05
8 *2081:A *89:10 0
9 *85:10 *86:10 5.65955e-05
10 *2073:A *2081:A 5.49544e-05
11 *2081:B *2081:A 5.1353e-05
12 *84:12 *85:10 5.33005e-05
13 *84:18 *2081:A 4.1993e-05
*RES
1 *2079:X *85:10 11.5143 
2 *85:10 *2081:A 21.925 
3 *85:10 *2080:B 9.3 
*END

*D_NET *86 0.0024493
*CONN
*I *2114:B I *D sky130_fd_sc_hd__xnor2_1
*I *2087:A3 I *D sky130_fd_sc_hd__a31o_1
*I *2109:A2 I *D sky130_fd_sc_hd__a21o_1
*I *2080:Y O *D sky130_fd_sc_hd__nor2_1
*CAP
1 *2114:B 0.000156446
2 *2087:A3 0
3 *2109:A2 0.000236081
4 *2080:Y 0.000200676
5 *86:14 0.000257117
6 *86:10 0.000378158
7 *2109:A2 *2084:C_N 9.76435e-06
8 *2114:B *2082:B 6.81083e-05
9 *2114:B *2088:B 9.76123e-05
10 *2114:B *2110:B 9.41642e-05
11 *2114:B *534:45 0.000136682
12 *2114:B *536:50 1.46231e-05
13 *86:10 *2082:B 0.000127446
14 *2081:A *86:10 2.12087e-05
15 *2082:D_N *2109:A2 0.000112797
16 *2082:D_N *86:14 5.01148e-05
17 *2087:A2 *2109:A2 2.36643e-05
18 *2087:A2 *86:14 9.83442e-05
19 *2109:A1 *2109:A2 1.00733e-05
20 *2109:B1 *2109:A2 5.33005e-05
21 *2110:A *2114:B 4.56594e-05
22 *61:16 *2109:A2 1.74352e-05
23 *61:22 *2109:A2 0.000183232
24 *85:10 *86:10 5.65955e-05
*RES
1 *2080:Y *86:10 16.8 
2 *86:10 *86:14 5.44643 
3 *86:14 *2109:A2 14.3893 
4 *86:14 *2087:A3 9.3 
5 *86:10 *2114:B 17.8357 
*END

*D_NET *87 0.00147058
*CONN
*I *2082:B I *D sky130_fd_sc_hd__or4b_4
*I *2081:X O *D sky130_fd_sc_hd__or4_4
*CAP
1 *2082:B 0.000308345
2 *2081:X 0.000308345
3 *2082:B *2084:C_N 0.000122837
4 *2082:B *89:10 0
5 *2081:A *2082:B 7.22508e-05
6 *2081:B *2082:B 1.02504e-05
7 *2082:C *2082:B 5.65955e-05
8 *2110:A *2082:B 5.41794e-05
9 *2114:B *2082:B 6.81083e-05
10 *79:10 *2082:B 0.000342225
11 *86:10 *2082:B 0.000127446
*RES
1 *2081:X *2082:B 34.7607 
*END

*D_NET *88 0.00102217
*CONN
*I *2086:A2 I *D sky130_fd_sc_hd__a311oi_4
*I *2082:X O *D sky130_fd_sc_hd__or4b_4
*CAP
1 *2086:A2 0.000209711
2 *2082:X 0.000209711
3 *2086:A2 *2059:A 1.17968e-05
4 *2086:A2 *2084:C_N 0.000306317
5 *2086:A2 *2086:A1 0.000129868
6 *2085:A1 *2086:A2 0.000154762
*RES
1 *2082:X *2086:A2 32.5464 
*END

*D_NET *89 0.00341731
*CONN
*I *2084:C_N I *D sky130_fd_sc_hd__or3b_1
*I *2087:B1 I *D sky130_fd_sc_hd__a31o_1
*I *2083:X O *D sky130_fd_sc_hd__a21o_1
*CAP
1 *2084:C_N 0.000473679
2 *2087:B1 0
3 *2083:X 0.000265338
4 *89:10 0.000739017
5 *2084:C_N *2088:B 5.49544e-05
6 *2084:C_N *2110:B 0.000140856
7 *2081:A *89:10 0
8 *2082:A *2084:C_N 0.000551192
9 *2082:B *2084:C_N 0.000122837
10 *2082:B *89:10 0
11 *2082:C *2084:C_N 4.73286e-05
12 *2082:D_N *2084:C_N 5.38444e-06
13 *2082:D_N *89:10 5.25372e-05
14 *2083:A2 *89:10 0
15 *2086:A2 *2084:C_N 0.000306317
16 *2087:A2 *2084:C_N 0.000223461
17 *2109:A2 *2084:C_N 9.76435e-06
18 *2109:B1 *89:10 6.96586e-05
19 *2114:A *89:10 3.27526e-05
20 *61:22 *2084:C_N 3.61487e-05
21 *66:10 *2084:C_N 0.000139913
22 *84:18 *89:10 0.000146171
*RES
1 *2083:X *89:10 22.9786 
2 *89:10 *2087:B1 9.3 
3 *89:10 *2084:C_N 22.2107 
*END

*D_NET *90 0.000323664
*CONN
*I *2086:A1 I *D sky130_fd_sc_hd__a311oi_4
*I *2084:X O *D sky130_fd_sc_hd__or3b_1
*CAP
1 *2086:A1 3.19637e-05
2 *2084:X 3.19637e-05
3 *2086:A1 *2059:A 0.000129868
4 *2086:A2 *2086:A1 0.000129868
*RES
1 *2084:X *2086:A1 29.2429 
*END

*D_NET *91 0.000752231
*CONN
*I *2086:A3 I *D sky130_fd_sc_hd__a311oi_4
*I *2085:X O *D sky130_fd_sc_hd__a21o_1
*CAP
1 *2086:A3 0.000139994
2 *2085:X 0.000139994
3 *2086:A3 *536:16 0.000290846
4 *2085:B1 *2086:A3 0.000103032
5 *2088:A *2086:A3 7.83659e-05
*RES
1 *2085:X *2086:A3 31.6714 
*END

*D_NET *92 0.00373723
*CONN
*I *2482:A I *D sky130_fd_sc_hd__buf_6
*I *2111:S I *D sky130_fd_sc_hd__mux2_2
*I *2495:A I *D sky130_fd_sc_hd__dlygate4sd1_1
*I *2089:S I *D sky130_fd_sc_hd__mux2_2
*I *2086:Y O *D sky130_fd_sc_hd__a311oi_4
*CAP
1 *2482:A 7.58787e-05
2 *2111:S 0
3 *2495:A 0
4 *2089:S 6.26319e-05
5 *2086:Y 0.000525725
6 *92:26 0.000357751
7 *92:12 0.000158421
8 *92:10 0.000903387
9 *2089:S *496:18 7.48091e-05
10 *2482:A *496:18 0.000218246
11 *2482:A *512:8 0.000315165
12 *92:10 *2086:B1 0
13 *92:10 *2088:B 0
14 *92:10 *534:24 0
15 *92:10 *539:34 0.000246071
16 *92:12 *2493:A 6.05161e-06
17 *92:12 *496:18 0.000119125
18 *92:26 *2493:A 4.22431e-05
19 *92:26 *117:14 9.94037e-05
20 *92:26 *496:18 0.000463568
21 *2110:A *92:10 0
22 *2111:A0 *2482:A 3.9846e-05
23 *2111:A0 *92:26 2.89114e-05
24 *79:10 *92:10 0
*RES
1 *2086:Y *92:10 27.8357 
2 *92:10 *92:12 2.17857 
3 *92:12 *2089:S 10.6571 
4 *92:12 *2495:A 9.3 
5 *92:10 *92:26 7.51786 
6 *92:26 *2111:S 9.3 
7 *92:26 *2482:A 13.1214 
*END

*D_NET *93 0.00242033
*CONN
*I *2088:B I *D sky130_fd_sc_hd__xor2_1
*I *2087:X O *D sky130_fd_sc_hd__a31o_1
*CAP
1 *2088:B 0.000808768
2 *2087:X 0.000808768
3 *2088:B *2110:B 0.000119738
4 *2088:B *495:10 0.000132337
5 *2088:B *539:40 0.000178776
6 *2088:B *539:72 0.000193132
7 *2084:C_N *2088:B 5.49544e-05
8 *2110:A *2088:B 1.85854e-05
9 *2114:A *2088:B 7.6612e-06
10 *2114:B *2088:B 9.76123e-05
11 *92:10 *2088:B 0
*RES
1 *2087:X *2088:B 43.1536 
*END

*D_NET *94 0.000660381
*CONN
*I *2089:A1 I *D sky130_fd_sc_hd__mux2_2
*I *2088:X O *D sky130_fd_sc_hd__xor2_1
*CAP
1 *2089:A1 0.000115698
2 *2088:X 0.000115698
3 *2089:A1 *2107:B1 0
4 *2089:A1 *95:10 5.80104e-05
5 *2089:A1 *496:18 0.000140933
6 *2089:A1 *536:8 0.000174812
7 *2089:A0 *2089:A1 5.52302e-05
*RES
1 *2088:X *2089:A1 31.2071 
*END

*D_NET *95 0.00204691
*CONN
*I *2106:B I *D sky130_fd_sc_hd__xor2_1
*I *2125:A I *D sky130_fd_sc_hd__nor2_1
*I *2121:B1_N I *D sky130_fd_sc_hd__o21bai_1
*I *2089:X O *D sky130_fd_sc_hd__mux2_2
*CAP
1 *2106:B 0.000152691
2 *2125:A 3.04135e-05
3 *2121:B1_N 0
4 *2089:X 0.000300504
5 *95:19 0.000222803
6 *95:10 0.000340202
7 *2106:B *2107:B1 0.000193424
8 *2106:B *536:8 0
9 *2106:B *539:26 9.90367e-05
10 *2106:B *567:22 7.77652e-05
11 *2125:A *534:24 5.33005e-05
12 *95:10 *2107:B1 0.000367389
13 *95:10 *536:8 0
14 *95:19 *2107:B1 7.97198e-05
15 *95:19 *536:8 0
16 *2089:A0 *95:10 7.16452e-05
17 *2089:A1 *95:10 5.80104e-05
*RES
1 *2089:X *95:10 20.6571 
2 *95:10 *2121:B1_N 13.8 
3 *95:10 *95:19 1.03571 
4 *95:19 *2125:A 14.3357 
5 *95:19 *2106:B 17.7107 
*END

*D_NET *96 0.000587452
*CONN
*I *2091:A1 I *D sky130_fd_sc_hd__mux2_1
*I *2090:Y O *D sky130_fd_sc_hd__xnor2_1
*CAP
1 *2091:A1 0.000150351
2 *2090:Y 0.000150351
3 *2091:A1 *2091:S 0.000186669
4 *2091:A1 *97:36 3.69047e-06
5 *2091:A1 *475:98 0
6 *2091:A1 *512:40 3.34366e-05
7 *2091:A1 *542:128 5.80706e-06
8 *2091:A0 *2091:A1 5.71472e-05
*RES
1 *2090:Y *2091:A1 31.0107 
*END

*D_NET *97 0.00840394
*CONN
*I *2154:A I *D sky130_fd_sc_hd__nor2_1
*I *2092:A I *D sky130_fd_sc_hd__inv_2
*I *2093:B I *D sky130_fd_sc_hd__nor2_2
*I *2094:B I *D sky130_fd_sc_hd__and2_1
*I *2091:X O *D sky130_fd_sc_hd__mux2_1
*CAP
1 *2154:A 2.04741e-05
2 *2092:A 0.000403243
3 *2093:B 0.000109966
4 *2094:B 0.000166123
5 *2091:X 0
6 *97:36 0.000803517
7 *97:12 0.00121086
8 *97:4 0.00131457
9 *2092:A *2149:A1 0.000230475
10 *2092:A *2149:C1 9.60939e-05
11 *2092:A *2155:A1 7.84853e-05
12 *2092:A *2155:A2 0.000268968
13 *2092:A *2155:B1 0.000177567
14 *2092:A *2155:C1 0.000898414
15 *2092:A *568:29 0
16 *2093:B *2151:A 3.34366e-05
17 *2093:B *2451:A 6.88463e-06
18 *2093:B *99:8 0.000139653
19 *2093:B *110:16 1.17968e-05
20 *2093:B *543:90 7.29042e-05
21 *2094:B *2094:A 0.000268396
22 *2094:B *2451:A 9.90367e-05
23 *2094:B *110:16 3.69047e-06
24 *2154:A *2154:B 5.80706e-06
25 *2154:A *516:48 1.18451e-05
26 *2154:A *524:74 3.17163e-05
27 *97:12 *2091:S 3.69047e-06
28 *97:12 *2151:A 0.000148911
29 *97:12 *2152:B 4.58194e-05
30 *97:12 *158:12 5.52238e-05
31 *97:12 *512:36 0.000609963
32 *97:12 *543:10 3.79467e-05
33 *97:12 *543:90 1.87955e-05
34 *97:36 *2054:B 9.2668e-05
35 *97:36 *2091:S 5.74499e-06
36 *97:36 *2497:A 0.000175036
37 *97:36 *475:98 0
38 *97:36 *512:40 0.000342857
39 *97:36 *516:48 0.000116094
40 *97:36 *524:65 2.61408e-05
41 *97:36 *524:74 0.000257437
42 *2091:A1 *97:36 3.69047e-06
*RES
1 *2091:X *97:4 9.3 
2 *97:4 *97:12 23.0179 
3 *97:12 *2094:B 17.6214 
4 *97:12 *2093:B 16.6571 
5 *97:4 *97:36 15.7857 
6 *97:36 *2092:A 26.1929 
7 *97:36 *2154:A 14.5321 
*END

*D_NET *98 0.000759173
*CONN
*I *2156:A1 I *D sky130_fd_sc_hd__o211a_1
*I *2092:Y O *D sky130_fd_sc_hd__inv_2
*CAP
1 *2156:A1 0.000268189
2 *2092:Y 0.000268189
3 *2156:A1 *2148:C1 4.8843e-05
4 *2156:A1 *2156:B1 7.29922e-05
5 *2156:A1 *283:104 0
6 *2156:A1 *568:29 0.00010096
*RES
1 *2092:Y *2156:A1 31.725 
*END

*D_NET *99 0.00111998
*CONN
*I *2104:B1 I *D sky130_fd_sc_hd__a211oi_4
*I *2151:A I *D sky130_fd_sc_hd__or2_1
*I *2093:Y O *D sky130_fd_sc_hd__nor2_2
*CAP
1 *2104:B1 0
2 *2151:A 0.000194174
3 *2093:Y 4.8748e-05
4 *99:8 0.000242922
5 *2151:A *2152:B 6.65398e-05
6 *2151:A *2451:A 3.17163e-05
7 *2151:A *495:10 8.58088e-05
8 *2151:A *543:10 0
9 *99:8 *2451:A 2.72449e-05
10 *99:8 *110:16 0.000100831
11 *2093:B *2151:A 3.34366e-05
12 *2093:B *99:8 0.000139653
13 *97:12 *2151:A 0.000148911
*RES
1 *2093:Y *99:8 15.7464 
2 *99:8 *2151:A 19.0857 
3 *99:8 *2104:B1 4.5 
*END

*D_NET *100 0.00543493
*CONN
*I *2123:A1 I *D sky130_fd_sc_hd__o31a_1
*I *2105:A I *D sky130_fd_sc_hd__nor2_1
*I *2135:A1 I *D sky130_fd_sc_hd__o32a_1
*I *2126:A1 I *D sky130_fd_sc_hd__o31a_1
*I *2151:B I *D sky130_fd_sc_hd__or2_1
*I *2094:X O *D sky130_fd_sc_hd__and2_1
*CAP
1 *2123:A1 0
2 *2105:A 0.000170087
3 *2135:A1 0.000106856
4 *2126:A1 4.78443e-05
5 *2151:B 0.000291558
6 *2094:X 3.92359e-05
7 *100:44 0.000375636
8 *100:38 0.00023245
9 *100:25 0.000444527
10 *100:8 0.000593719
11 *2105:A *2105:B 5.52238e-05
12 *2105:A *2123:A2 0.000101545
13 *2105:A *2130:B 3.75052e-05
14 *2105:A *121:38 8.0089e-05
15 *2105:A *126:29 4.73656e-05
16 *2105:A *498:25 0.000139632
17 *2126:A1 *2126:A2 5.52238e-05
18 *2126:A1 *110:16 5.52302e-05
19 *2135:A1 *2126:A3 4.48647e-05
20 *2135:A1 *2135:A2 2.05612e-05
21 *2135:A1 *2425:A 0.000339717
22 *2135:A1 *123:14 5.45307e-05
23 *2135:A1 *126:29 2.59355e-05
24 *2151:B *2115:S 0
25 *2151:B *2130:B 0
26 *2151:B *496:18 3.69697e-05
27 *2151:B *539:72 0.000226513
28 *2151:B *543:10 2.7814e-05
29 *100:8 *2094:A 5.52238e-05
30 *100:25 *2130:B 0
31 *100:25 *110:16 0.000255068
32 *100:25 *471:94 3.85665e-05
33 *100:25 *496:18 0.000135064
34 *100:38 *2123:A2 3.34295e-05
35 *100:38 *2130:B 0.00038045
36 *100:38 *110:33 0.000308184
37 *100:38 *126:29 1.40849e-05
38 *100:44 *2123:A2 0.000148903
39 *100:44 *2500:A 5.33334e-05
40 *100:44 *126:29 0.000150611
41 *2111:A0 *2151:B 0.000176234
42 *2115:A0 *2151:B 3.51442e-05
*RES
1 *2094:X *100:8 14.3357 
2 *100:8 *2151:B 20.3536 
3 *100:8 *100:25 10.5536 
4 *100:25 *2126:A1 10.2464 
5 *100:25 *100:38 13.9821 
6 *100:38 *100:44 7.39286 
7 *100:44 *2135:A1 17.2286 
8 *100:44 *2105:A 18.4429 
9 *100:38 *2123:A1 9.3 
*END

*D_NET *101 0.000414427
*CONN
*I *2096:B I *D sky130_fd_sc_hd__nand2_1
*I *2095:Y O *D sky130_fd_sc_hd__nand2_1
*CAP
1 *2096:B 8.01097e-05
2 *2095:Y 8.01097e-05
3 *2096:B *2095:A 5.52302e-05
4 *2096:B *2095:B 1.33343e-05
5 *2096:B *524:54 0.000185643
*RES
1 *2095:Y *2096:B 20.7964 
*END

*D_NET *102 0.000442023
*CONN
*I *2097:A1 I *D sky130_fd_sc_hd__mux2_4
*I *2096:Y O *D sky130_fd_sc_hd__nand2_1
*CAP
1 *2097:A1 0.000181799
2 *2096:Y 0.000181799
3 *2097:A1 *524:54 7.84241e-05
*RES
1 *2096:Y *2097:A1 21.6179 
*END

*D_NET *103 0.00214559
*CONN
*I *2098:A I *D sky130_fd_sc_hd__inv_2
*I *2150:A1 I *D sky130_fd_sc_hd__o211a_1
*I *2099:B I *D sky130_fd_sc_hd__and2_1
*I *2100:A I *D sky130_fd_sc_hd__xnor2_4
*I *2097:X O *D sky130_fd_sc_hd__mux2_4
*CAP
1 *2098:A 0
2 *2150:A1 0.000176666
3 *2099:B 0.00019765
4 *2100:A 6.38308e-05
5 *2097:X 0
6 *103:34 0.000284954
7 *103:6 0.00045819
8 *103:4 0.000304996
9 *2099:B *2103:A2 0
10 *2099:B *107:12 0
11 *2099:B *516:52 1.02504e-05
12 *2099:B *549:51 0
13 *2150:A1 *2145:B 0
14 *2150:A1 *2150:B1 6.04891e-05
15 *2150:A1 *2150:C1 7.72917e-05
16 *2150:A1 *107:10 2.95641e-05
17 *103:6 *2100:B 0.000276211
18 *103:34 *2150:A2 0
19 *103:34 *2150:C1 5.52238e-05
20 *103:34 *549:62 0.000150269
*RES
1 *2097:X *103:4 9.3 
2 *103:4 *103:6 3.82143 
3 *103:6 *2100:A 10.2643 
4 *103:6 *2099:B 21.4607 
5 *103:4 *103:34 11.4821 
6 *103:34 *2150:A1 13.1571 
7 *103:34 *2098:A 9.3 
*END

*D_NET *104 0.00107218
*CONN
*I *2149:A1 I *D sky130_fd_sc_hd__o211a_1
*I *2098:Y O *D sky130_fd_sc_hd__inv_2
*CAP
1 *2149:A1 0.000250527
2 *2098:Y 0.000250527
3 *2149:A1 *2150:A2 0
4 *2149:A1 *2155:A2 0.000230475
5 *2149:A1 *549:62 0.00011018
6 *2149:A1 *564:37 0
7 *2149:A1 *564:39 0
8 *2092:A *2149:A1 0.000230475
*RES
1 *2098:Y *2149:A1 33.85 
*END

*D_NET *105 0.00153337
*CONN
*I *2103:B1 I *D sky130_fd_sc_hd__a21o_1
*I *2104:C1 I *D sky130_fd_sc_hd__a211oi_4
*I *2099:X O *D sky130_fd_sc_hd__and2_1
*CAP
1 *2103:B1 2.03441e-05
2 *2104:C1 0.000261255
3 *2099:X 0.000119194
4 *105:6 0.000400793
5 *2103:B1 *2103:A1 5.7661e-06
6 *2103:B1 *2104:A1 0
7 *2104:C1 *2094:A 0
8 *2104:C1 *2103:A1 2.44318e-05
9 *2104:C1 *2104:A1 0.000151226
10 *2104:C1 *2104:A2 5.62995e-05
11 *2104:C1 *2152:A 0.000437762
12 *105:6 *2103:A1 5.62995e-05
*RES
1 *2099:X *105:6 11.4786 
2 *105:6 *2104:C1 15.6036 
3 *105:6 *2103:B1 9.72857 
*END

*D_NET *106 0.00208837
*CONN
*I *2102:A I *D sky130_fd_sc_hd__nand2_1
*I *2145:A I *D sky130_fd_sc_hd__or2_1
*I *2103:A1 I *D sky130_fd_sc_hd__a21o_1
*I *2104:A2 I *D sky130_fd_sc_hd__a211oi_4
*I *2100:Y O *D sky130_fd_sc_hd__xnor2_4
*CAP
1 *2102:A 0
2 *2145:A 7.66344e-05
3 *2103:A1 4.69958e-05
4 *2104:A2 1.62167e-05
5 *2100:Y 5.41093e-05
6 *106:34 0.000263897
7 *106:12 0.000134965
8 *106:8 0.000313125
9 *2103:A1 *2104:A1 0.000140933
10 *2104:A2 *2104:A1 9.90367e-05
11 *2145:A *2145:B 0.000284669
12 *2145:A *2146:A 5.52238e-05
13 *2145:A *2146:B 0.000138881
14 *2145:A *2150:B1 3.88771e-05
15 *106:8 *543:103 2.72859e-05
16 *106:12 *2103:A2 9.69119e-06
17 *106:12 *107:12 4.06875e-05
18 *106:12 *283:87 5.48581e-05
19 *106:34 *2146:A 9.25014e-06
20 *106:34 *107:12 6.78298e-05
21 *106:34 *108:12 9.30603e-06
22 *106:34 *283:87 6.31005e-05
23 *2103:B1 *2103:A1 5.7661e-06
24 *2104:C1 *2103:A1 2.44318e-05
25 *2104:C1 *2104:A2 5.62995e-05
26 *105:6 *2103:A1 5.62995e-05
*RES
1 *2100:Y *106:8 14.7464 
2 *106:8 *106:12 6.44643 
3 *106:12 *2104:A2 10.2464 
4 *106:12 *2103:A1 11.0857 
5 *106:8 *106:34 7.89286 
6 *106:34 *2145:A 12.3179 
7 *106:34 *2102:A 9.3 
*END

*D_NET *107 0.00576872
*CONN
*I *2160:A I *D sky130_fd_sc_hd__nand2_1
*I *2102:B I *D sky130_fd_sc_hd__nand2_1
*I *2145:B I *D sky130_fd_sc_hd__or2_1
*I *2104:A1 I *D sky130_fd_sc_hd__a211oi_4
*I *2103:A2 I *D sky130_fd_sc_hd__a21o_1
*I *2101:X O *D sky130_fd_sc_hd__or2_2
*CAP
1 *2160:A 7.12703e-05
2 *2102:B 0
3 *2145:B 0.000374219
4 *2104:A1 0.000226712
5 *2103:A2 9.12283e-05
6 *2101:X 0
7 *107:38 0.000374219
8 *107:12 0.000534362
9 *107:10 0.000797771
10 *107:4 0.000652621
11 *2103:A2 *283:87 0
12 *2145:B *2146:B 2.44318e-05
13 *2145:B *2147:B1 3.81416e-06
14 *2145:B *2150:B1 3.14078e-05
15 *2160:A *2101:B 5.94923e-05
16 *2160:A *2159:A 0.000173083
17 *107:10 *2146:A 0
18 *107:10 *2150:B1 0.000356028
19 *107:10 *2150:C1 0.000828116
20 *107:10 *2157:B 5.71472e-05
21 *107:10 *2236:A2 9.90367e-05
22 *107:10 *108:12 8.50795e-06
23 *107:10 *543:103 5.58941e-05
24 *107:12 *543:103 0.000125724
25 *2099:B *2103:A2 0
26 *2099:B *107:12 0
27 *2103:A1 *2104:A1 0.000140933
28 *2103:B1 *2104:A1 0
29 *2104:A2 *2104:A1 9.90367e-05
30 *2104:C1 *2104:A1 0.000151226
31 *2145:A *2145:B 0.000284669
32 *2150:A1 *2145:B 0
33 *2150:A1 *107:10 2.95641e-05
34 *106:12 *2103:A2 9.69119e-06
35 *106:12 *107:12 4.06875e-05
36 *106:34 *107:12 6.78298e-05
*RES
1 *2101:X *107:4 9.3 
2 *107:4 *107:10 17.2679 
3 *107:10 *107:12 4.375 
4 *107:12 *2103:A2 15.0679 
5 *107:12 *2104:A1 18.4786 
6 *107:10 *107:38 4.5 
7 *107:38 *2145:B 14.6929 
8 *107:38 *2102:B 9.3 
9 *107:4 *2160:A 20.55 
*END

*D_NET *108 0.0020892
*CONN
*I *2147:B2 I *D sky130_fd_sc_hd__a221o_1
*I *2146:A I *D sky130_fd_sc_hd__nand2_1
*I *2102:Y O *D sky130_fd_sc_hd__nand2_1
*CAP
1 *2147:B2 0.000436582
2 *2146:A 4.83435e-05
3 *2102:Y 0.000130533
4 *108:12 0.000615458
5 *2146:A *2150:B1 4.99609e-05
6 *2146:A *283:87 1.83776e-05
7 *2147:B2 *2147:A1 5.63784e-05
8 *2147:B2 *2147:A2 1.53184e-05
9 *2147:B2 *2148:A1 0.000103039
10 *2147:B2 *2148:A2 8.5021e-05
11 *2147:B2 *2148:C1 4.1479e-07
12 *2147:B2 *2150:B1 0.00011294
13 *2147:B2 *2443:A 7.30841e-05
14 *2147:B2 *158:12 2.69485e-05
15 *2147:B2 *283:87 1.96732e-05
16 *2147:B2 *531:14 1.97695e-05
17 *2147:B2 *542:77 0.000119015
18 *108:12 *2148:B1 1.02504e-05
19 *108:12 *2150:B1 5.83117e-05
20 *108:12 *283:87 7.49162e-06
21 *108:12 *543:103 0
22 *2145:A *2146:A 5.52238e-05
23 *106:34 *2146:A 9.25014e-06
24 *106:34 *108:12 9.30603e-06
25 *107:10 *2146:A 0
26 *107:10 *108:12 8.50795e-06
*RES
1 *2102:Y *108:12 15.8625 
2 *108:12 *2146:A 14.9161 
3 *108:12 *2147:B2 27.2863 
*END

*D_NET *109 0.00132301
*CONN
*I *2152:A I *D sky130_fd_sc_hd__xnor2_1
*I *2103:X O *D sky130_fd_sc_hd__a21o_1
*CAP
1 *2152:A 0.000366072
2 *2103:X 0.000366072
3 *2152:A *158:12 2.56601e-05
4 *2152:A *531:22 0.000127446
5 *2152:A *542:77 0
6 *2104:C1 *2152:A 0.000437762
*RES
1 *2103:X *2152:A 33.475 
*END

*D_NET *110 0.00336165
*CONN
*I *2500:A I *D sky130_fd_sc_hd__buf_1
*I *2123:A3 I *D sky130_fd_sc_hd__o31a_1
*I *2126:A2 I *D sky130_fd_sc_hd__o31a_1
*I *2104:Y O *D sky130_fd_sc_hd__a211oi_4
*CAP
1 *2500:A 0.000171069
2 *2123:A3 0
3 *2126:A2 3.18819e-05
4 *2104:Y 0.000385385
5 *110:33 0.000385198
6 *110:16 0.000631396
7 *2126:A2 *132:6 5.33433e-05
8 *2500:A *129:23 0.000136958
9 *2500:A *531:14 4.70048e-05
10 *110:16 *2451:A 0.000142579
11 *110:16 *132:6 2.44318e-05
12 *110:16 *471:94 0.000223112
13 *110:16 *543:90 5.52302e-05
14 *110:16 *543:103 6.09804e-05
15 *110:33 *2130:B 1.01417e-05
16 *110:33 *121:8 8.42817e-05
17 *110:33 *121:25 7.0835e-05
18 *110:33 *126:29 4.46186e-06
19 *2093:B *110:16 1.17968e-05
20 *2094:B *110:16 3.69047e-06
21 *2126:A1 *2126:A2 5.52238e-05
22 *2126:A1 *110:16 5.52302e-05
23 *99:8 *110:16 0.000100831
24 *100:25 *110:16 0.000255068
25 *100:38 *110:33 0.000308184
26 *100:44 *2500:A 5.33334e-05
*RES
1 *2104:Y *110:16 27.6036 
2 *110:16 *2126:A2 10.2464 
3 *110:16 *110:33 14.3393 
4 *110:33 *2123:A3 9.3 
5 *110:33 *2500:A 13.0321 
*END

*D_NET *111 0.00105366
*CONN
*I *2140:A I *D sky130_fd_sc_hd__xnor2_1
*I *2105:Y O *D sky130_fd_sc_hd__nor2_1
*CAP
1 *2140:A 0.000220529
2 *2105:Y 0.000220529
3 *2140:A *2117:B 4.64895e-05
4 *2140:A *2130:B 0.000100247
5 *2140:A *2141:A0 2.84026e-05
6 *2140:A *117:51 0
7 *2140:A *121:38 0.000146891
8 *2140:A *121:51 0.000122077
9 *2140:A *136:14 0
10 *2140:A *510:27 1.17968e-05
11 *2140:A *510:45 3.07555e-05
12 *2140:A *539:140 0.000125942
*RES
1 *2105:Y *2140:A 33.7429 
*END

*D_NET *112 0.00425145
*CONN
*I *2128:B1_N I *D sky130_fd_sc_hd__o21bai_1
*I *2120:C_N I *D sky130_fd_sc_hd__or4bb_4
*I *2127:C_N I *D sky130_fd_sc_hd__or3b_1
*I *2118:A I *D sky130_fd_sc_hd__nand4_1
*I *2106:X O *D sky130_fd_sc_hd__xor2_1
*CAP
1 *2128:B1_N 0.000213352
2 *2120:C_N 1.90849e-05
3 *2127:C_N 0.000200641
4 *2118:A 0.000170124
5 *2106:X 0
6 *112:36 0.000320421
7 *112:21 0.000569604
8 *112:4 0.000451104
9 *2118:A *2128:A2 0
10 *2118:A *2129:B1 4.03577e-05
11 *2118:A *2444:A 0.000177234
12 *2118:A *497:12 7.83462e-05
13 *2118:A *536:8 1.37644e-05
14 *2118:A *539:26 0.000135506
15 *2120:C_N *2120:D_N 2.36643e-05
16 *2120:C_N *2129:A3 5.49544e-05
17 *2120:C_N *510:67 9.83442e-05
18 *2127:C_N *2112:A 0.000141734
19 *2127:C_N *2127:A 5.32721e-05
20 *2127:C_N *2128:A2 0.000137367
21 *2127:C_N *132:6 2.28499e-05
22 *2127:C_N *539:30 0.000217756
23 *2128:B1_N *2128:A2 2.91255e-05
24 *2128:B1_N *2129:A3 0.000306156
25 *2128:B1_N *135:14 0.000261227
26 *2128:B1_N *498:25 9.41642e-05
27 *2128:B1_N *510:67 0
28 *112:21 *2107:A2 0.000266479
29 *112:21 *539:26 9.95346e-05
30 *112:36 *2128:A1 0
31 *112:36 *2128:A2 5.52793e-05
32 *112:36 *118:19 0
*RES
1 *2106:X *112:4 9.3 
2 *112:4 *2118:A 22.9071 
3 *112:4 *112:21 8.32143 
4 *112:21 *2127:C_N 19.4607 
5 *112:21 *112:36 1.64286 
6 *112:36 *2120:C_N 14.7464 
7 *112:36 *2128:B1_N 19.1214 
*END

*D_NET *113 0.00281732
*CONN
*I *2121:A2 I *D sky130_fd_sc_hd__o21bai_1
*I *2122:A2_N I *D sky130_fd_sc_hd__o2bb2a_1
*I *2108:B I *D sky130_fd_sc_hd__xnor2_1
*I *2107:Y O *D sky130_fd_sc_hd__o21ai_1
*CAP
1 *2121:A2 0.0001105
2 *2122:A2_N 0
3 *2108:B 0.000213652
4 *2107:Y 0.000209166
5 *113:8 0.000437144
6 *113:6 0.000543159
7 *2108:B *2123:B1 5.92181e-05
8 *2108:B *2443:A 0.000236165
9 *2108:B *499:10 1.08359e-05
10 *2108:B *534:10 9.90367e-05
11 *2108:B *534:14 0.000106855
12 *2108:B *534:24 2.10446e-05
13 *2121:A2 *2121:A1 5.71472e-05
14 *2121:A2 *2122:B1 0.000216557
15 *2121:A2 *2443:A 0
16 *2121:A2 *534:24 4.43256e-05
17 *2121:A2 *536:8 4.61329e-05
18 *113:6 *2122:B2 9.71197e-05
19 *113:6 *567:22 0.000213172
20 *113:8 *2122:B2 9.60875e-05
*RES
1 *2107:Y *113:6 12.3 
2 *113:6 *113:8 2.58929 
3 *113:8 *2108:B 25.1393 
4 *113:8 *2122:A2_N 9.3 
5 *113:6 *2121:A2 21.425 
*END

*D_NET *114 0.00204019
*CONN
*I *2118:B I *D sky130_fd_sc_hd__nand4_1
*I *2120:D_N I *D sky130_fd_sc_hd__or4bb_4
*I *2108:Y O *D sky130_fd_sc_hd__xnor2_1
*CAP
1 *2118:B 0
2 *2120:D_N 0.000326168
3 *2108:Y 0.000416348
4 *114:12 0.000742516
5 *2120:D_N *2125:B 1.74352e-05
6 *2120:D_N *2128:A2 0
7 *2120:D_N *2129:A3 0.000137983
8 *2120:D_N *2129:B1 5.33433e-05
9 *2120:D_N *2444:A 0.000104974
10 *2120:D_N *135:14 5.52238e-05
11 *2120:D_N *510:67 4.36516e-05
12 *114:12 *2136:B 4.70048e-05
13 *114:12 *534:10 7.18788e-05
14 *2120:C_N *2120:D_N 2.36643e-05
*RES
1 *2108:Y *114:12 15.3357 
2 *114:12 *2120:D_N 24.7107 
3 *114:12 *2118:B 9.3 
*END

*D_NET *115 0.00113964
*CONN
*I *2110:B I *D sky130_fd_sc_hd__xnor2_1
*I *2109:X O *D sky130_fd_sc_hd__a21o_1
*CAP
1 *2110:B 0.000282459
2 *2109:X 0.000282459
3 *2110:B *534:45 4.43256e-05
4 *2110:B *536:50 7.91848e-05
5 *2084:C_N *2110:B 0.000140856
6 *2088:B *2110:B 0.000119738
7 *2114:A *2110:B 5.42961e-05
8 *2114:B *2110:B 9.41642e-05
9 *61:22 *2110:B 4.21613e-05
*RES
1 *2109:X *2110:B 33.1893 
*END

*D_NET *116 0.00144694
*CONN
*I *2111:A1 I *D sky130_fd_sc_hd__mux2_2
*I *2110:Y O *D sky130_fd_sc_hd__xnor2_1
*CAP
1 *2111:A1 0.000426916
2 *2110:Y 0.000426916
3 *2111:A1 *2115:A1 0
4 *2111:A1 *2115:S 7.49332e-05
5 *2111:A1 *2130:B 1.69115e-05
6 *2111:A1 *121:8 0.000227021
7 *2111:A1 *536:50 0.000274245
*RES
1 *2110:Y *2111:A1 35.5286 
*END

*D_NET *117 0.00786317
*CONN
*I *2112:B I *D sky130_fd_sc_hd__and2_1
*I *2137:A0 I *D sky130_fd_sc_hd__mux2_1
*I *2113:B I *D sky130_fd_sc_hd__xor2_1
*I *2119:A2 I *D sky130_fd_sc_hd__o22a_1
*I *2111:X O *D sky130_fd_sc_hd__mux2_2
*CAP
1 *2112:B 0
2 *2137:A0 0.000117847
3 *2113:B 0.000209545
4 *2119:A2 3.98109e-05
5 *2111:X 0.000399133
6 *117:51 0.0010412
7 *117:22 0.000968561
8 *117:14 0.000614078
9 *2113:B *2113:A 0.000219456
10 *2113:B *2117:A 9.58181e-05
11 *2113:B *2118:C 0.000228558
12 *2113:B *2137:A1 0.000175789
13 *2113:B *119:8 0.000153608
14 *2113:B *498:10 4.70078e-05
15 *2113:B *539:140 0.000729676
16 *2119:A2 *2107:A2 5.49489e-05
17 *2137:A0 *2137:A1 0.000103664
18 *2137:A0 *497:33 1.21258e-05
19 *117:14 *2107:A2 0.000341413
20 *117:14 *2112:A 1.98839e-05
21 *117:14 *2126:A3 0
22 *117:14 *118:19 2.59355e-05
23 *117:14 *121:8 0
24 *117:22 *2107:A2 0.000212755
25 *117:22 *2112:A 2.84026e-05
26 *117:22 *118:19 3.48579e-05
27 *117:22 *539:30 0
28 *117:51 *2107:A2 4.08637e-05
29 *117:51 *2117:A 0.000208736
30 *117:51 *2117:B 3.77042e-05
31 *117:51 *2118:D 7.83587e-05
32 *117:51 *2120:A 0.000112963
33 *117:51 *2126:B1 9.11048e-06
34 *117:51 *2128:A1 0.00024673
35 *117:51 *2140:B 0.000271999
36 *117:51 *118:19 7.6644e-05
37 *117:51 *121:38 0
38 *117:51 *123:14 0.000529904
39 *117:51 *510:27 0
40 *117:51 *539:140 0.00022729
41 *117:51 *542:41 7.14981e-06
42 *117:51 *567:22 4.22431e-05
43 *2140:A *117:51 0
44 *92:26 *117:14 9.94037e-05
*RES
1 *2111:X *117:14 26.1929 
2 *117:14 *117:22 12.6964 
3 *117:22 *2119:A2 9.83571 
4 *117:22 *117:51 35.2321 
5 *117:51 *2113:B 18.7821 
6 *117:51 *2137:A0 20.175 
7 *117:14 *2112:B 9.3 
*END

*D_NET *118 0.00296159
*CONN
*I *2128:A1 I *D sky130_fd_sc_hd__o21bai_1
*I *2120:B I *D sky130_fd_sc_hd__or4bb_4
*I *2127:A I *D sky130_fd_sc_hd__or3b_1
*I *2112:X O *D sky130_fd_sc_hd__and2_1
*CAP
1 *2128:A1 0.0002322
2 *2120:B 4.8639e-05
3 *2127:A 0.000171834
4 *2112:X 0
5 *118:19 0.000526919
6 *118:4 0.000417913
7 *2120:B *2120:A 6.05161e-06
8 *2127:A *2112:A 1.13883e-05
9 *2128:A1 *2117:A 0.000225982
10 *2128:A1 *2118:D 0.00019384
11 *2128:A1 *123:14 0.000195555
12 *2128:A1 *498:25 0.000119279
13 *2128:A1 *510:67 6.80532e-05
14 *118:19 *2107:A2 0.000168939
15 *118:19 *2112:A 7.92229e-06
16 *118:19 *2126:B1 0.000129638
17 *2127:C_N *2127:A 5.32721e-05
18 *112:36 *2128:A1 0
19 *112:36 *118:19 0
20 *117:14 *118:19 2.59355e-05
21 *117:22 *118:19 3.48579e-05
22 *117:51 *2128:A1 0.00024673
23 *117:51 *118:19 7.6644e-05
*RES
1 *2112:X *118:4 9.3 
2 *118:4 *2127:A 11.8 
3 *118:4 *118:19 9.32143 
4 *118:19 *2120:B 14.3357 
5 *118:19 *2128:A1 21.8714 
*END

*D_NET *119 0.00178191
*CONN
*I *2118:C I *D sky130_fd_sc_hd__nand4_1
*I *2136:A I *D sky130_fd_sc_hd__xor2_1
*I *2113:X O *D sky130_fd_sc_hd__xor2_1
*CAP
1 *2118:C 0.00040016
2 *2136:A 0
3 *2113:X 5.18916e-05
4 *119:8 0.000452052
5 *2118:C *2136:B 0
6 *2118:C *2137:A1 5.52238e-05
7 *2118:C *2444:A 9.24395e-05
8 *2118:C *497:12 0
9 *2118:C *498:10 0.000274754
10 *2118:C *510:14 0
11 *119:8 *498:10 7.32272e-05
12 *2113:B *2118:C 0.000228558
13 *2113:B *119:8 0.000153608
*RES
1 *2113:X *119:8 11.0857 
2 *119:8 *2136:A 9.3 
3 *119:8 *2118:C 28.1929 
*END

*D_NET *120 0.000902077
*CONN
*I *2115:A1 I *D sky130_fd_sc_hd__mux2_4
*I *2114:Y O *D sky130_fd_sc_hd__xnor2_1
*CAP
1 *2115:A1 0.000249872
2 *2114:Y 0.000249872
3 *2115:A1 *2115:S 2.8266e-06
4 *2115:A1 *536:50 0.000276211
5 *2111:A1 *2115:A1 0
6 *2115:A0 *2115:A1 0.000123295
*RES
1 *2114:Y *2115:A1 31.8321 
*END

*D_NET *121 0.00628923
*CONN
*I *2141:A0 I *D sky130_fd_sc_hd__mux2_1
*I *2117:B I *D sky130_fd_sc_hd__xnor2_1
*I *2116:B I *D sky130_fd_sc_hd__xnor2_1
*I *2135:B1 I *D sky130_fd_sc_hd__o32a_1
*I *2119:B2 I *D sky130_fd_sc_hd__o22a_1
*I *2115:X O *D sky130_fd_sc_hd__mux2_4
*CAP
1 *2141:A0 0.000161751
2 *2117:B 0.000330167
3 *2116:B 4.39614e-05
4 *2135:B1 0
5 *2119:B2 0.000107132
6 *2115:X 0.000442637
7 *121:51 0.000569128
8 *121:38 0.000377616
9 *121:25 0.000480023
10 *121:8 0.000773348
11 *2116:B *2116:A 0.000141729
12 *2116:B *501:14 5.65955e-05
13 *2117:B *2140:B 4.22431e-05
14 *2117:B *123:14 5.33005e-05
15 *2117:B *539:140 2.94709e-06
16 *2119:B2 *2119:B1 0.000225995
17 *2119:B2 *542:18 0.000126426
18 *2119:B2 *567:22 3.83448e-05
19 *2141:A0 *147:8 0
20 *2141:A0 *510:45 8.6638e-05
21 *2141:A0 *539:140 0.000138903
22 *121:8 *2126:A3 8.99211e-05
23 *121:8 *2130:B 0
24 *121:25 *2126:A3 0.000338605
25 *121:25 *126:29 0.000239154
26 *121:38 *2117:A 0.000110071
27 *121:38 *2126:A3 2.2443e-05
28 *121:38 *2130:B 1.50164e-05
29 *121:38 *126:29 3.39451e-05
30 *121:51 *501:14 7.69776e-06
31 *2105:A *121:38 8.0089e-05
32 *2111:A1 *121:8 0.000227021
33 *2130:A *2119:B2 0.000389705
34 *2140:A *2117:B 4.64895e-05
35 *2140:A *2141:A0 2.84026e-05
36 *2140:A *121:38 0.000146891
37 *2140:A *121:51 0.000122077
38 *110:33 *121:8 8.42817e-05
39 *110:33 *121:25 7.0835e-05
40 *117:14 *121:8 0
41 *117:51 *2117:B 3.77042e-05
42 *117:51 *121:38 0
*RES
1 *2115:X *121:8 23.0321 
2 *121:8 *2119:B2 18.05 
3 *121:8 *121:25 5.94643 
4 *121:25 *2135:B1 13.8 
5 *121:25 *121:38 5.94643 
6 *121:38 *2116:B 15.1571 
7 *121:38 *121:51 6.14286 
8 *121:51 *2117:B 13.9786 
9 *121:51 *2141:A0 13.175 
*END

*D_NET *122 0.00283685
*CONN
*I *2140:B I *D sky130_fd_sc_hd__xnor2_1
*I *2118:D I *D sky130_fd_sc_hd__nand4_1
*I *2116:Y O *D sky130_fd_sc_hd__xnor2_1
*CAP
1 *2140:B 0.000171204
2 *2118:D 0.000361349
3 *2116:Y 4.50417e-05
4 *122:8 0.000577594
5 *2118:D *2136:B 0.000564125
6 *2118:D *2425:A 5.68722e-05
7 *2118:D *123:14 1.81805e-05
8 *2118:D *135:14 0
9 *2118:D *510:14 0.000135028
10 *2118:D *510:67 0.000224341
11 *2140:B *123:14 5.33005e-05
12 *2140:B *539:140 3.05605e-05
13 *122:8 *501:14 1.28171e-05
14 *2117:B *2140:B 4.22431e-05
15 *2128:A1 *2118:D 0.00019384
16 *117:51 *2118:D 7.83587e-05
17 *117:51 *2140:B 0.000271999
*RES
1 *2116:Y *122:8 14.3357 
2 *122:8 *2118:D 23.7643 
3 *122:8 *2140:B 18.3179 
*END

*D_NET *123 0.00331492
*CONN
*I *2126:A3 I *D sky130_fd_sc_hd__o31a_1
*I *2135:A3 I *D sky130_fd_sc_hd__o32a_1
*I *2117:Y O *D sky130_fd_sc_hd__xnor2_1
*CAP
1 *2126:A3 0.000378777
2 *2135:A3 0
3 *2117:Y 0.000296535
4 *123:14 0.000675312
5 *2126:A3 *2117:A 3.19909e-05
6 *2126:A3 *2126:B1 6.05161e-06
7 *2126:A3 *2135:A2 9.58126e-05
8 *2126:A3 *132:6 5.68722e-05
9 *2126:A3 *542:41 0.000247659
10 *123:14 *2123:A2 4.10926e-05
11 *123:14 *2135:A2 5.65955e-05
12 *123:14 *2425:A 2.18128e-05
13 *123:14 *501:14 5.80858e-06
14 *2117:B *123:14 5.33005e-05
15 *2118:D *123:14 1.81805e-05
16 *2128:A1 *123:14 0.000195555
17 *2135:A1 *2126:A3 4.48647e-05
18 *2135:A1 *123:14 5.45307e-05
19 *2140:B *123:14 5.33005e-05
20 *117:14 *2126:A3 0
21 *117:51 *123:14 0.000529904
22 *121:8 *2126:A3 8.99211e-05
23 *121:25 *2126:A3 0.000338605
24 *121:38 *2126:A3 2.2443e-05
*RES
1 *2117:Y *123:14 26.9964 
2 *123:14 *2135:A3 9.3 
3 *123:14 *2126:A3 27.8 
*END

*D_NET *124 0.00318644
*CONN
*I *2123:A2 I *D sky130_fd_sc_hd__o31a_1
*I *2118:Y O *D sky130_fd_sc_hd__nand4_1
*CAP
1 *2123:A2 0.000882377
2 *2118:Y 0.000882377
3 *2123:A2 *2130:B 0.000121446
4 *2123:A2 *2135:A2 0.000308146
5 *2123:A2 *2136:B 0.000646884
6 *2123:A2 *2425:A 8.43535e-06
7 *2123:A2 *126:29 1.18064e-05
8 *2105:A *2123:A2 0.000101545
9 *100:38 *2123:A2 3.34295e-05
10 *100:44 *2123:A2 0.000148903
11 *123:14 *2123:A2 4.10926e-05
*RES
1 *2118:Y *2123:A2 41.4571 
*END

*D_NET *125 0.00133608
*CONN
*I *2120:A I *D sky130_fd_sc_hd__or4bb_4
*I *2126:B1 I *D sky130_fd_sc_hd__o31a_1
*I *2119:X O *D sky130_fd_sc_hd__o22a_1
*CAP
1 *2120:A 0.0001269
2 *2126:B1 0.000312168
3 *2119:X 0
4 *125:6 0.000439068
5 *2120:A *2123:B1 1.94879e-05
6 *2120:A *2124:A2 3.84349e-05
7 *2120:A *542:41 7.95696e-06
8 *2126:B1 *2107:A2 1.10856e-05
9 *2126:B1 *2112:A 7.20217e-06
10 *2126:B1 *2124:A2 2.93304e-05
11 *2126:B1 *132:6 7.48362e-05
12 *2126:B1 *542:41 5.79582e-06
13 *2120:B *2120:A 6.05161e-06
14 *2126:A3 *2126:B1 6.05161e-06
15 *117:51 *2120:A 0.000112963
16 *117:51 *2126:B1 9.11048e-06
17 *118:19 *2126:B1 0.000129638
*RES
1 *2119:X *125:6 13.8 
2 *125:6 *2126:B1 19.925 
3 *125:6 *2120:A 16.3893 
*END

*D_NET *126 0.00485642
*CONN
*I *2153:A1 I *D sky130_fd_sc_hd__a211o_1
*I *2148:A1 I *D sky130_fd_sc_hd__a211o_1
*I *2147:A2 I *D sky130_fd_sc_hd__a221o_1
*I *2124:A2 I *D sky130_fd_sc_hd__a21oi_4
*I *2120:X O *D sky130_fd_sc_hd__or4bb_4
*CAP
1 *2153:A1 0
2 *2148:A1 0.000250513
3 *2147:A2 3.19192e-05
4 *2124:A2 7.68611e-05
5 *2120:X 4.22068e-05
6 *126:37 0.000458098
7 *126:29 0.000758721
8 *126:6 0.000702123
9 *2124:A2 *542:41 0.000123489
10 *2147:A2 *2148:C1 1.63539e-05
11 *2147:A2 *158:12 5.7616e-05
12 *2147:A2 *542:77 3.69047e-06
13 *2148:A1 *2148:A2 9.96422e-06
14 *2148:A1 *2148:B1 3.23206e-05
15 *2148:A1 *546:31 1.30652e-05
16 *126:6 *2123:B1 2.84026e-05
17 *126:29 *2123:B1 8.55871e-05
18 *126:29 *2135:A2 0.000683976
19 *126:29 *2153:A2 9.90431e-05
20 *126:29 *2155:A2 5.7661e-06
21 *126:29 *2425:A 0.000105805
22 *126:29 *2440:A 0.000137427
23 *126:29 *568:29 0.000234648
24 *126:37 *2148:C1 2.34204e-05
25 *126:37 *2155:A2 7.30699e-05
26 *126:37 *158:12 6.81083e-05
27 *126:37 *568:29 2.07382e-05
28 *2105:A *126:29 4.73656e-05
29 *2120:A *2124:A2 3.84349e-05
30 *2123:A2 *126:29 1.18064e-05
31 *2126:B1 *2124:A2 2.93304e-05
32 *2135:A1 *126:29 2.59355e-05
33 *2147:B2 *2147:A2 1.53184e-05
34 *2147:B2 *2148:A1 0.000103039
35 *100:38 *126:29 1.40849e-05
36 *100:44 *126:29 0.000150611
37 *110:33 *126:29 4.46186e-06
38 *121:25 *126:29 0.000239154
39 *121:38 *126:29 3.39451e-05
*RES
1 *2120:X *126:6 9.83571 
2 *126:6 *2124:A2 19.9429 
3 *126:6 *126:29 23.8214 
4 *126:29 *126:37 7.625 
5 *126:37 *2147:A2 14.6795 
6 *126:37 *2148:A1 17.3714 
7 *126:29 *2153:A1 9.3 
*END

*D_NET *127 0.000752217
*CONN
*I *2122:B1 I *D sky130_fd_sc_hd__o2bb2a_1
*I *2121:Y O *D sky130_fd_sc_hd__o21bai_1
*CAP
1 *2122:B1 0.000216501
2 *2121:Y 0.000216501
3 *2122:B1 *2121:A1 2.44318e-05
4 *2122:B1 *2443:A 4.48113e-05
5 *2122:B1 *534:24 1.74352e-05
6 *2122:B1 *536:8 1.59782e-05
7 *2121:A2 *2122:B1 0.000216557
*RES
1 *2121:Y *2122:B1 31.4214 
*END

*D_NET *128 0.00324828
*CONN
*I *2123:B1 I *D sky130_fd_sc_hd__o31a_1
*I *2122:X O *D sky130_fd_sc_hd__o2bb2a_1
*CAP
1 *2123:B1 0.00146497
2 *2122:X 0.00146497
3 *2123:B1 *2443:A 0
4 *2123:B1 *534:14 0.000117421
5 *2123:B1 *542:41 8.22793e-06
6 *2108:B *2123:B1 5.92181e-05
7 *2120:A *2123:B1 1.94879e-05
8 *126:6 *2123:B1 2.84026e-05
9 *126:29 *2123:B1 8.55871e-05
*RES
1 *2122:X *2123:B1 41.2923 
*END

*D_NET *129 0.00454868
*CONN
*I *2147:A1 I *D sky130_fd_sc_hd__a221o_1
*I *2148:A2 I *D sky130_fd_sc_hd__a211o_1
*I *2153:A2 I *D sky130_fd_sc_hd__a211o_1
*I *2124:A1 I *D sky130_fd_sc_hd__a21oi_4
*I *2123:X O *D sky130_fd_sc_hd__o31a_1
*CAP
1 *2147:A1 0.000109022
2 *2148:A2 0.000573458
3 *2153:A2 0.000165586
4 *2124:A1 0.00011167
5 *2123:X 0
6 *129:25 0.000739044
7 *129:23 0.000485816
8 *129:4 0.000488464
9 *2124:A1 *2130:B 0.000148196
10 *2124:A1 *542:18 0.000177815
11 *2147:A1 *531:14 1.58163e-05
12 *2147:A1 *542:77 0.000211249
13 *2148:A2 *2148:B1 6.27272e-06
14 *2148:A2 *2149:B1 4.59028e-06
15 *2148:A2 *2443:A 0
16 *2148:A2 *2445:A 0
17 *2148:A2 *543:103 8.22793e-06
18 *2148:A2 *546:31 4.61963e-05
19 *2153:A2 *2421:A 0.000177234
20 *2153:A2 *158:12 0
21 *2153:A2 *531:22 5.54856e-05
22 *2153:A2 *567:8 1.07753e-05
23 *2153:A2 *567:22 4.65158e-06
24 *129:23 *531:14 0.000145224
25 *129:23 *542:6 0.0001399
26 *129:23 *542:77 9.8621e-05
27 *2130:A *2124:A1 0.000238003
28 *2147:B2 *2147:A1 5.63784e-05
29 *2147:B2 *2148:A2 8.5021e-05
30 *2148:A1 *2148:A2 9.96422e-06
31 *2500:A *129:23 0.000136958
32 *126:29 *2153:A2 9.90431e-05
*RES
1 *2123:X *129:4 9.3 
2 *129:4 *2124:A1 22.0143 
3 *129:4 *129:23 6.42857 
4 *129:23 *129:25 4.5 
5 *129:25 *2153:A2 17.6036 
6 *129:25 *2148:A2 23.5248 
7 *129:23 *2147:A1 12.2107 
*END

*D_NET *130 0.0078058
*CONN
*I *2424:A I *D sky130_fd_sc_hd__buf_6
*I *2154:B I *D sky130_fd_sc_hd__nor2_1
*I *2156:A2 I *D sky130_fd_sc_hd__o211a_1
*I *2425:A I *D sky130_fd_sc_hd__buf_6
*I *2124:Y O *D sky130_fd_sc_hd__a21oi_4
*CAP
1 *2424:A 1.27677e-05
2 *2154:B 0.000938691
3 *2156:A2 2.01218e-05
4 *2425:A 0.000727193
5 *2124:Y 0.000163642
6 *130:38 0.00108744
7 *130:29 0.000471306
8 *130:10 0.00120604
9 *2154:B *2157:A 9.31893e-05
10 *2154:B *2166:B 2.30493e-05
11 *2154:B *162:6 3.07455e-05
12 *2154:B *516:48 0.000150618
13 *2154:B *524:74 0
14 *2154:B *564:35 0.000304786
15 *2425:A *2136:B 2.14658e-05
16 *2425:A *2440:A 0.0001399
17 *130:10 *2124:B1 0.000288557
18 *130:10 *471:94 0
19 *130:10 *496:18 0.000173083
20 *130:10 *542:18 0.000268403
21 *130:10 *561:10 7.6644e-05
22 *130:10 *567:22 0.000266473
23 *130:29 *2124:B1 0.000125731
24 *130:29 *2501:A 0.000195555
25 *130:29 *498:25 0.00026353
26 *130:29 *561:10 4.66511e-05
27 *130:29 *568:8 0.000115474
28 *130:38 *162:6 5.62995e-05
29 *2118:D *2425:A 5.68722e-05
30 *2123:A2 *2425:A 8.43535e-06
31 *2135:A1 *2425:A 0.000339717
32 *2154:A *2154:B 5.80706e-06
33 *123:14 *2425:A 2.18128e-05
34 *126:29 *2425:A 0.000105805
*RES
1 *2124:Y *130:10 20.1571 
2 *130:10 *2425:A 23.8179 
3 *130:10 *130:29 11.8929 
4 *130:29 *2156:A2 9.72857 
5 *130:29 *130:38 2.58929 
6 *130:38 *2154:B 31.3714 
7 *130:38 *2424:A 9.72857 
*END

*D_NET *131 0.000957359
*CONN
*I *2129:B1 I *D sky130_fd_sc_hd__a31o_1
*I *2125:Y O *D sky130_fd_sc_hd__nor2_1
*CAP
1 *2129:B1 0.000185082
2 *2125:Y 0.000185082
3 *2129:B1 *2107:B1 0.000149904
4 *2129:B1 *2125:B 0.00034359
5 *2129:B1 *536:8 0
6 *2129:B1 *539:26 0
7 *2118:A *2129:B1 4.03577e-05
8 *2120:D_N *2129:B1 5.33433e-05
*RES
1 *2125:Y *2129:B1 32.6179 
*END

*D_NET *132 0.0040141
*CONN
*I *2127:B I *D sky130_fd_sc_hd__or3b_1
*I *2128:A2 I *D sky130_fd_sc_hd__o21bai_1
*I *2126:X O *D sky130_fd_sc_hd__o31a_1
*CAP
1 *2127:B 0
2 *2128:A2 0.000519778
3 *2126:X 0.000578624
4 *132:6 0.0010984
5 *2128:A2 *2117:A 1.32056e-05
6 *2128:A2 *2129:A2 0.000306023
7 *2128:A2 *2444:A 0
8 *2128:A2 *135:14 0.000332771
9 *2128:A2 *498:25 7.27266e-05
10 *2128:A2 *510:14 0.000218019
11 *2128:A2 *534:24 3.17067e-05
12 *2128:A2 *539:30 5.90443e-06
13 *2128:A2 *539:34 1.19402e-05
14 *132:6 *2112:A 0.000352143
15 *2118:A *2128:A2 0
16 *2120:D_N *2128:A2 0
17 *2126:A2 *132:6 5.33433e-05
18 *2126:A3 *132:6 5.68722e-05
19 *2126:B1 *132:6 7.48362e-05
20 *2127:C_N *2128:A2 0.000137367
21 *2127:C_N *132:6 2.28499e-05
22 *2128:B1_N *2128:A2 2.91255e-05
23 *67:48 *2128:A2 1.87493e-05
24 *110:16 *132:6 2.44318e-05
25 *112:36 *2128:A2 5.52793e-05
*RES
1 *2126:X *132:6 17.2286 
2 *132:6 *2128:A2 31.3536 
3 *132:6 *2127:B 9.3 
*END

*D_NET *133 0.00083081
*CONN
*I *2129:A2 I *D sky130_fd_sc_hd__a31o_1
*I *2127:X O *D sky130_fd_sc_hd__or3b_1
*CAP
1 *2129:A2 0.000203246
2 *2127:X 0.000203246
3 *2129:A2 *2125:B 5.05707e-05
4 *2107:A1 *2129:A2 2.84494e-05
5 *2128:A2 *2129:A2 0.000306023
6 *67:48 *2129:A2 3.92757e-05
*RES
1 *2127:X *2129:A2 32.2071 
*END

*D_NET *134 0.00100212
*CONN
*I *2129:A3 I *D sky130_fd_sc_hd__a31o_1
*I *2128:Y O *D sky130_fd_sc_hd__o21bai_1
*CAP
1 *2129:A3 0.000229349
2 *2128:Y 0.000229349
3 *2129:A3 *510:67 4.43256e-05
4 *2120:C_N *2129:A3 5.49544e-05
5 *2120:D_N *2129:A3 0.000137983
6 *2128:B1_N *2129:A3 0.000306156
*RES
1 *2128:Y *2129:A3 33.0286 
*END

*D_NET *135 0.00391725
*CONN
*I *2169:A I *D sky130_fd_sc_hd__nor2_1
*I *2133:B I *D sky130_fd_sc_hd__xor2_1
*I *2129:X O *D sky130_fd_sc_hd__a31o_1
*CAP
1 *2169:A 0.000127567
2 *2133:B 0
3 *2129:X 0.000863669
4 *135:14 0.000991236
5 *2169:A *2134:C 0.000144075
6 *2169:A *2170:A1 0.000155445
7 *2169:A *534:140 4.3537e-05
8 *135:14 *2117:A 0.000183684
9 *135:14 *2137:A1 5.53406e-05
10 *135:14 *510:14 0.000300275
11 *135:14 *534:140 0.000403196
12 *2118:D *135:14 0
13 *2120:D_N *135:14 5.52238e-05
14 *2128:A2 *135:14 0.000332771
15 *2128:B1_N *135:14 0.000261227
*RES
1 *2129:X *135:14 39.175 
2 *135:14 *2133:B 9.3 
3 *135:14 *2169:A 13.2643 
*END

*D_NET *136 0.00194974
*CONN
*I *2131:A2 I *D sky130_fd_sc_hd__a21oi_1
*I *2132:C I *D sky130_fd_sc_hd__and3_1
*I *2130:X O *D sky130_fd_sc_hd__or3_1
*CAP
1 *2131:A2 8.9162e-05
2 *2132:C 0
3 *2130:X 0.000467951
4 *136:14 0.000557113
5 *2131:A2 *2131:A1 5.92747e-05
6 *2131:A2 *2132:A 0.000271007
7 *2131:A2 *2132:B 3.95896e-05
8 *136:14 *2116:A 7.7755e-05
9 *136:14 *2130:B 1.035e-05
10 *136:14 *2130:C 3.14048e-05
11 *136:14 *2132:A 1.95435e-05
12 *136:14 *2132:B 5.7993e-06
13 *136:14 *138:10 5.66551e-05
14 *136:14 *471:94 0.000162084
15 *136:14 *510:27 8.32497e-05
16 *136:14 *510:45 1.88048e-05
17 *2140:A *136:14 0
*RES
1 *2130:X *136:14 28.0857 
2 *136:14 *2132:C 9.3 
3 *136:14 *2131:A2 12.2464 
*END

*D_NET *137 0.0014917
*CONN
*I *2169:B I *D sky130_fd_sc_hd__nor2_1
*I *2134:A I *D sky130_fd_sc_hd__or3_1
*I *2131:Y O *D sky130_fd_sc_hd__a21oi_1
*CAP
1 *2169:B 0.000276047
2 *2134:A 0
3 *2131:Y 0.000327159
4 *137:10 0.000603207
5 *137:10 *2131:A1 0.000142856
6 *137:10 *2132:A 9.00795e-06
7 *137:10 *138:10 9.9994e-05
8 *137:10 *471:94 3.34295e-05
9 *137:10 *568:51 0
*RES
1 *2131:Y *137:10 19.1393 
2 *137:10 *2134:A 13.8 
3 *137:10 *2169:B 21.3762 
*END

*D_NET *138 0.00127857
*CONN
*I *2134:B I *D sky130_fd_sc_hd__or3_1
*I *2170:B1 I *D sky130_fd_sc_hd__a21oi_1
*I *2132:X O *D sky130_fd_sc_hd__and3_1
*CAP
1 *2134:B 0
2 *2170:B1 0.000194641
3 *2132:X 0.000215325
4 *138:10 0.000409966
5 *2170:B1 *2134:C 6.05161e-06
6 *2170:B1 *2170:A1 1.66568e-05
7 *2170:B1 *2170:A2 9.04662e-05
8 *2170:B1 *140:12 0.00015538
9 *138:10 *471:94 3.34295e-05
10 *136:14 *138:10 5.66551e-05
11 *137:10 *138:10 9.9994e-05
*RES
1 *2132:X *138:10 22.3714 
2 *138:10 *2170:B1 13.9964 
3 *138:10 *2134:B 9.3 
*END

*D_NET *139 0.000694011
*CONN
*I *2134:C I *D sky130_fd_sc_hd__or3_1
*I *2133:X O *D sky130_fd_sc_hd__xor2_1
*CAP
1 *2134:C 0.000170021
2 *2133:X 0.000170021
3 *2134:C *2170:A1 1.21289e-05
4 *2134:C *2170:A2 0.000191713
5 *2169:A *2134:C 0.000144075
6 *2170:B1 *2134:C 6.05161e-06
*RES
1 *2133:X *2134:C 22.975 
*END

*D_NET *140 0.00239609
*CONN
*I *2171:A1 I *D sky130_fd_sc_hd__o21a_1
*I *2174:A I *D sky130_fd_sc_hd__nor4_1
*I *2134:X O *D sky130_fd_sc_hd__or3_1
*CAP
1 *2171:A1 8.41522e-05
2 *2174:A 0.000214916
3 *2134:X 0.000370998
4 *140:12 0.000670066
5 *2171:A1 *2171:A2 0
6 *2171:A1 *2171:B1 0.000128154
7 *2171:A1 *2216:A 0
8 *2174:A *2171:A2 0
9 *2174:A *2174:B 5.76121e-05
10 *140:12 *2171:B1 0.000714816
11 *2170:B1 *140:12 0.00015538
*RES
1 *2134:X *140:12 23.1036 
2 *140:12 *2174:A 17.7107 
3 *140:12 *2171:A1 15.7464 
*END

*D_NET *141 0.00291527
*CONN
*I *2136:B I *D sky130_fd_sc_hd__xor2_1
*I *2135:X O *D sky130_fd_sc_hd__o32a_1
*CAP
1 *2136:B 0.000411371
2 *2135:X 0.000411371
3 *2136:B *2444:A 6.75007e-05
4 *2136:B *497:12 0.000538516
5 *2136:B *498:10 0.000207034
6 *2118:C *2136:B 0
7 *2118:D *2136:B 0.000564125
8 *2123:A2 *2136:B 0.000646884
9 *2425:A *2136:B 2.14658e-05
10 *114:12 *2136:B 4.70048e-05
*RES
1 *2135:X *2136:B 42.3321 
*END

*D_NET *142 0.00121773
*CONN
*I *2137:A1 I *D sky130_fd_sc_hd__mux2_1
*I *2136:X O *D sky130_fd_sc_hd__xor2_1
*CAP
1 *2137:A1 0.000344114
2 *2136:X 0.000344114
3 *2137:A1 *2117:A 8.45364e-05
4 *2137:A1 *497:33 5.49489e-05
5 *2113:B *2137:A1 0.000175789
6 *2118:C *2137:A1 5.52238e-05
7 *2137:A0 *2137:A1 0.000103664
8 *135:14 *2137:A1 5.53406e-05
*RES
1 *2136:X *2137:A1 34.9214 
*END

*D_NET *143 0.00210638
*CONN
*I *2139:B I *D sky130_fd_sc_hd__nand2_1
*I *2138:B I *D sky130_fd_sc_hd__nor2_1
*I *2137:X O *D sky130_fd_sc_hd__mux2_1
*CAP
1 *2139:B 7.99171e-06
2 *2138:B 0
3 *2137:X 0.000698399
4 *143:10 0.000706391
5 *2139:B *2139:A 2.44318e-05
6 *2139:B *144:6 3.18676e-05
7 *143:10 *2138:A 5.52302e-05
8 *143:10 *2139:A 0.000156557
9 *143:10 *497:33 0.000425516
*RES
1 *2137:X *143:10 22.1929 
2 *143:10 *2138:B 9.3 
3 *143:10 *2139:B 9.83571 
*END

*D_NET *144 0.00150424
*CONN
*I *2168:A1 I *D sky130_fd_sc_hd__o221a_1
*I *2144:A_N I *D sky130_fd_sc_hd__nand4b_1
*I *2138:Y O *D sky130_fd_sc_hd__nor2_1
*CAP
1 *2168:A1 0.000253638
2 *2144:A_N 8.55253e-05
3 *2138:Y 0.000119412
4 *144:6 0.000458576
5 *2144:A_N *2144:D 0.000177948
6 *2168:A1 *2168:A2 8.63335e-05
7 *2168:A1 *2168:C1 6.91613e-06
8 *2168:A1 *145:10 8.62151e-05
9 *144:6 *2139:A 9.22103e-06
10 *144:6 *145:10 0.000188586
11 *2139:B *144:6 3.18676e-05
*RES
1 *2138:Y *144:6 11.8893 
2 *144:6 *2144:A_N 20.55 
3 *144:6 *2168:A1 14.1036 
*END

*D_NET *145 0.0011042
*CONN
*I *2168:C1 I *D sky130_fd_sc_hd__o221a_1
*I *2144:B I *D sky130_fd_sc_hd__nand4b_1
*I *2139:Y O *D sky130_fd_sc_hd__nand2_1
*CAP
1 *2168:C1 3.29585e-06
2 *2144:B 7.96637e-05
3 *2139:Y 0.000119042
4 *145:10 0.000202001
5 *2144:B *2144:C 0.000154762
6 *2144:B *2144:D 3.34783e-05
7 *2144:B *2168:B1 0.000106552
8 *2144:B *2171:A2 0
9 *2168:C1 *2168:A2 1.90491e-06
10 *145:10 *2139:A 2.27416e-05
11 *145:10 *2168:A2 9.90431e-05
12 *2168:A1 *2168:C1 6.91613e-06
13 *2168:A1 *145:10 8.62151e-05
14 *144:6 *145:10 0.000188586
*RES
1 *2139:Y *145:10 12.8536 
2 *145:10 *2144:B 21.1571 
3 *145:10 *2168:C1 9.44286 
*END

*D_NET *146 0.000429139
*CONN
*I *2141:A1 I *D sky130_fd_sc_hd__mux2_1
*I *2140:Y O *D sky130_fd_sc_hd__xnor2_1
*CAP
1 *2141:A1 0.000121748
2 *2140:Y 0.000121748
3 *2141:A1 *539:140 0.000185643
*RES
1 *2140:Y *2141:A1 20.3679 
*END

*D_NET *147 0.0017839
*CONN
*I *2143:B I *D sky130_fd_sc_hd__nand2_1
*I *2142:B I *D sky130_fd_sc_hd__or2_1
*I *2141:X O *D sky130_fd_sc_hd__mux2_1
*CAP
1 *2143:B 2.33114e-05
2 *2142:B 0.000109897
3 *2141:X 0.000170614
4 *147:8 0.000303822
5 *2142:B *2142:A 6.75007e-05
6 *2142:B *567:72 0
7 *2143:B *2143:A 4.38128e-05
8 *2143:B *510:45 5.23057e-05
9 *2143:B *539:140 9.90431e-05
10 *147:8 *510:45 0.000252788
11 *147:8 *539:140 0.000660801
12 *2141:A0 *147:8 0
*RES
1 *2141:X *147:8 16.3179 
2 *147:8 *2142:B 20.2464 
3 *147:8 *2143:B 10.6571 
*END

*D_NET *148 0.000380746
*CONN
*I *2144:C I *D sky130_fd_sc_hd__nand4b_1
*I *2142:X O *D sky130_fd_sc_hd__or2_1
*CAP
1 *2144:C 3.56108e-05
2 *2142:X 3.56108e-05
3 *2144:C *2144:D 0.000154762
4 *2144:B *2144:C 0.000154762
*RES
1 *2142:X *2144:C 29.5464 
*END

*D_NET *149 0.00143653
*CONN
*I *2144:D I *D sky130_fd_sc_hd__nand4b_1
*I *2168:A2 I *D sky130_fd_sc_hd__o221a_1
*I *2143:Y O *D sky130_fd_sc_hd__nand2_1
*CAP
1 *2144:D 0.000112132
2 *2168:A2 0.000153867
3 *2143:Y 9.44723e-05
4 *149:10 0.000360472
5 *149:10 *2142:A 0.000104974
6 *149:10 *2143:A 5.71472e-05
7 *149:10 *2168:B2 0
8 *2144:A_N *2144:D 0.000177948
9 *2144:B *2144:D 3.34783e-05
10 *2144:C *2144:D 0.000154762
11 *2168:A1 *2168:A2 8.63335e-05
12 *2168:C1 *2168:A2 1.90491e-06
13 *145:10 *2168:A2 9.90431e-05
*RES
1 *2143:Y *149:10 15.675 
2 *149:10 *2168:A2 16.8179 
3 *149:10 *2144:D 16.9607 
*END

*D_NET *150 0.000772017
*CONN
*I *2168:B1 I *D sky130_fd_sc_hd__o221a_1
*I *2174:B I *D sky130_fd_sc_hd__nor4_1
*I *2144:Y O *D sky130_fd_sc_hd__nand4b_1
*CAP
1 *2168:B1 0.000146747
2 *2174:B 0.000152054
3 *2144:Y 0
4 *150:4 0.000298801
5 *2168:B1 *2168:B2 1.02504e-05
6 *2168:B1 *2171:A2 0
7 *2168:B1 *2216:A 0
8 *2144:B *2168:B1 0.000106552
9 *2174:A *2174:B 5.76121e-05
*RES
1 *2144:Y *150:4 9.3 
2 *150:4 *2174:B 11.9071 
3 *150:4 *2168:B1 20.8536 
*END

*D_NET *151 0.0013601
*CONN
*I *2146:B I *D sky130_fd_sc_hd__nand2_1
*I *2147:B1 I *D sky130_fd_sc_hd__a221o_1
*I *2145:X O *D sky130_fd_sc_hd__or2_1
*CAP
1 *2146:B 9.6046e-05
2 *2147:B1 0.000202383
3 *2145:X 0.000110128
4 *151:6 0.000408557
5 *2146:B *2150:B1 0.000138881
6 *2147:B1 *158:12 0.000144903
7 *2147:B1 *531:22 4.62516e-05
8 *151:6 *2150:B1 4.58194e-05
9 *2145:A *2146:B 0.000138881
10 *2145:B *2146:B 2.44318e-05
11 *2145:B *2147:B1 3.81416e-06
*RES
1 *2145:X *151:6 10.6571 
2 *151:6 *2147:B1 21.6036 
3 *151:6 *2146:B 12.1036 
*END

*D_NET *152 0.000476194
*CONN
*I *2148:B1 I *D sky130_fd_sc_hd__a211o_1
*I *2146:Y O *D sky130_fd_sc_hd__nand2_1
*CAP
1 *2148:B1 0.00015698
2 *2146:Y 0.00015698
3 *2148:B1 *283:87 9.40987e-05
4 *2148:B1 *543:103 0
5 *2148:B1 *546:31 1.92905e-05
6 *2148:A1 *2148:B1 3.23206e-05
7 *2148:A2 *2148:B1 6.27272e-06
8 *108:12 *2148:B1 1.02504e-05
*RES
1 *2146:Y *2148:B1 31.0464 
*END

*D_NET *153 0.00166983
*CONN
*I *2150:B1 I *D sky130_fd_sc_hd__o211a_1
*I *2147:X O *D sky130_fd_sc_hd__a221o_1
*CAP
1 *2150:B1 0.000313703
2 *2147:X 0.000313703
3 *2150:B1 *2150:C1 1.97695e-05
4 *2150:B1 *542:77 7.05143e-06
5 *2150:B1 *546:27 0.000122887
6 *2145:A *2150:B1 3.88771e-05
7 *2145:B *2150:B1 3.14078e-05
8 *2146:A *2150:B1 4.99609e-05
9 *2146:B *2150:B1 0.000138881
10 *2147:B2 *2150:B1 0.00011294
11 *2150:A1 *2150:B1 6.04891e-05
12 *107:10 *2150:B1 0.000356028
13 *108:12 *2150:B1 5.83117e-05
14 *151:6 *2150:B1 4.58194e-05
*RES
1 *2147:X *2150:B1 36.9393 
*END

*D_NET *154 0.000761852
*CONN
*I *2149:B1 I *D sky130_fd_sc_hd__o211a_1
*I *2148:X O *D sky130_fd_sc_hd__a211o_1
*CAP
1 *2149:B1 0.000282131
2 *2148:X 0.000282131
3 *2149:B1 *2150:A2 7.83659e-05
4 *2149:B1 *2157:B 4.03318e-05
5 *2149:B1 *546:31 2.69359e-05
6 *2149:B1 *564:39 4.73656e-05
7 *2148:A2 *2149:B1 4.59028e-06
*RES
1 *2148:X *2149:B1 31.8321 
*END

*D_NET *155 0.000854909
*CONN
*I *2166:B I *D sky130_fd_sc_hd__nand2b_1
*I *2157:A I *D sky130_fd_sc_hd__or3_4
*I *2149:X O *D sky130_fd_sc_hd__o211a_1
*CAP
1 *2166:B 3.35776e-05
2 *2157:A 7.71165e-05
3 *2149:X 9.55072e-05
4 *155:12 0.000206201
5 *2157:A *2157:C 3.99614e-06
6 *2157:A *2166:A_N 0.000144941
7 *2157:A *564:35 0.00010911
8 *2166:B *2166:A_N 1.7859e-05
9 *155:12 *161:14 5.03624e-05
10 *155:12 *564:37 0
11 *2154:B *2157:A 9.31893e-05
12 *2154:B *2166:B 2.30493e-05
*RES
1 *2149:X *155:12 20.0679 
2 *155:12 *2157:A 12.3179 
3 *155:12 *2166:B 10.3938 
*END

*D_NET *156 0.00117807
*CONN
*I *2157:B I *D sky130_fd_sc_hd__or3_4
*I *2150:X O *D sky130_fd_sc_hd__o211a_1
*CAP
1 *2157:B 0.000297986
2 *2150:X 0.000297986
3 *2157:B *2150:A2 0
4 *2157:B *2216:A 0.000169457
5 *2157:B *543:103 0.000315165
6 *2157:B *564:37 0
7 *2149:B1 *2157:B 4.03318e-05
8 *107:10 *2157:B 5.71472e-05
*RES
1 *2150:X *2157:B 34.3321 
*END

*D_NET *157 0.00049818
*CONN
*I *2152:B I *D sky130_fd_sc_hd__xnor2_1
*I *2151:X O *D sky130_fd_sc_hd__or2_1
*CAP
1 *2152:B 8.29663e-05
2 *2151:X 8.29663e-05
3 *2152:B *495:10 0.000125724
4 *2152:B *512:36 9.41642e-05
5 *2151:A *2152:B 6.65398e-05
6 *97:12 *2152:B 4.58194e-05
*RES
1 *2151:X *2152:B 30.1893 
*END

*D_NET *158 0.00421885
*CONN
*I *2153:B1 I *D sky130_fd_sc_hd__a211o_1
*I *2155:A2 I *D sky130_fd_sc_hd__a211o_1
*I *2152:Y O *D sky130_fd_sc_hd__xnor2_1
*CAP
1 *2153:B1 0
2 *2155:A2 0.000448058
3 *2152:Y 0.000555031
4 *158:12 0.00100309
5 *2155:A2 *2148:C1 0.00014285
6 *2155:A2 *2149:C1 9.60939e-05
7 *2155:A2 *2155:A1 0.000350901
8 *2155:A2 *568:29 2.44073e-05
9 *158:12 *2148:C1 0
10 *158:12 *531:22 0
11 *158:12 *542:77 0.000641681
12 *2092:A *2155:A2 0.000268968
13 *2147:A2 *158:12 5.7616e-05
14 *2147:B1 *158:12 0.000144903
15 *2147:B2 *158:12 2.69485e-05
16 *2149:A1 *2155:A2 0.000230475
17 *2152:A *158:12 2.56601e-05
18 *2153:A2 *158:12 0
19 *97:12 *158:12 5.52238e-05
20 *126:29 *2155:A2 5.7661e-06
21 *126:37 *2155:A2 7.30699e-05
22 *126:37 *158:12 6.81083e-05
*RES
1 *2152:Y *158:12 30.1929 
2 *158:12 *2155:A2 20.1393 
3 *158:12 *2153:B1 9.3 
*END

*D_NET *159 0.00050819
*CONN
*I *2156:B1 I *D sky130_fd_sc_hd__o211a_1
*I *2153:X O *D sky130_fd_sc_hd__a211o_1
*CAP
1 *2156:B1 0.00014713
2 *2153:X 0.00014713
3 *2156:B1 *2156:C1 5.80706e-06
4 *2156:B1 *2421:A 3.41715e-05
5 *2156:B1 *567:72 0
6 *2156:B1 *568:29 0.00010096
7 *2156:A1 *2156:B1 7.29922e-05
*RES
1 *2153:X *2156:B1 30.4929 
*END

*D_NET *160 0.00032142
*CONN
*I *2155:B1 I *D sky130_fd_sc_hd__a211o_1
*I *2154:Y O *D sky130_fd_sc_hd__nor2_1
*CAP
1 *2155:B1 5.70758e-05
2 *2154:Y 5.70758e-05
3 *2155:B1 *2155:C1 2.97021e-05
4 *2092:A *2155:B1 0.000177567
*RES
1 *2154:Y *2155:B1 20.3857 
*END

*D_NET *161 0.00138588
*CONN
*I *2158:B I *D sky130_fd_sc_hd__nand2b_1
*I *2167:C1 I *D sky130_fd_sc_hd__o211a_1
*I *2155:X O *D sky130_fd_sc_hd__a211o_1
*CAP
1 *2158:B 1.20616e-05
2 *2167:C1 2.97658e-05
3 *2155:X 0.000382914
4 *161:14 0.000424741
5 *2158:B *2158:A_N 1.03233e-05
6 *2167:C1 *2158:A_N 4.22908e-05
7 *2167:C1 *2167:B1 0.000121206
8 *161:14 *2155:C1 5.71472e-05
9 *161:14 *2167:B1 0.000185955
10 *161:14 *2213:A1 0
11 *161:14 *549:62 6.91094e-05
12 *155:12 *161:14 5.03624e-05
*RES
1 *2155:X *161:14 25.867 
2 *161:14 *2167:C1 10.6795 
3 *161:14 *2158:B 9.72857 
*END

*D_NET *162 0.00136274
*CONN
*I *2166:A_N I *D sky130_fd_sc_hd__nand2b_1
*I *2157:C I *D sky130_fd_sc_hd__or3_4
*I *2156:X O *D sky130_fd_sc_hd__o211a_1
*CAP
1 *2166:A_N 0.000217739
2 *2157:C 2.06112e-05
3 *2156:X 0.000224552
4 *162:6 0.000462902
5 *2166:A_N *564:35 5.94205e-05
6 *162:6 *564:35 0.000123673
7 *2154:B *162:6 3.07455e-05
8 *2157:A *2157:C 3.99614e-06
9 *2157:A *2166:A_N 0.000144941
10 *2166:B *2166:A_N 1.7859e-05
11 *130:38 *162:6 5.62995e-05
*RES
1 *2156:X *162:6 13.5321 
2 *162:6 *2157:C 9.72857 
3 *162:6 *2166:A_N 13.55 
*END

*D_NET *163 0.00115684
*CONN
*I *2158:A_N I *D sky130_fd_sc_hd__nand2b_1
*I *2167:A2 I *D sky130_fd_sc_hd__o211a_1
*I *2157:X O *D sky130_fd_sc_hd__or3_4
*CAP
1 *2158:A_N 0.000129591
2 *2167:A2 0
3 *2157:X 0.000152916
4 *163:10 0.000282507
5 *2158:A_N *2167:B1 4.18425e-05
6 *2158:A_N *510:45 8.25843e-06
7 *163:10 *2167:A1 0.000150618
8 *163:10 *2213:A1 0.000338488
9 *163:10 *2216:A 0
10 *2158:B *2158:A_N 1.03233e-05
11 *2167:C1 *2158:A_N 4.22908e-05
*RES
1 *2157:X *163:10 22.675 
2 *163:10 *2167:A2 9.3 
3 *163:10 *2158:A_N 11.925 
*END

*D_NET *164 0.0015567
*CONN
*I *2174:C I *D sky130_fd_sc_hd__nor4_1
*I *2158:Y O *D sky130_fd_sc_hd__nand2b_1
*CAP
1 *2174:C 0.000547854
2 *2158:Y 0.000547854
3 *2174:C *2174:D 0.000188333
4 *2174:C *2213:A1 0
5 *2174:C *549:62 0.000272658
*RES
1 *2158:Y *2174:C 36.5286 
*END

*D_NET *165 0.000213463
*CONN
*I *2160:B I *D sky130_fd_sc_hd__nand2_1
*I *2159:Y O *D sky130_fd_sc_hd__nand2_1
*CAP
1 *2160:B 5.46057e-05
2 *2159:Y 5.46057e-05
3 *2160:B *1959:A 0
4 *2160:B *2101:B 1.21258e-05
5 *2160:B *2159:A 4.33308e-05
6 *2160:B *546:31 4.87953e-05
*RES
1 *2159:Y *2160:B 19.975 
*END

*D_NET *166 0.00106138
*CONN
*I *2161:A1 I *D sky130_fd_sc_hd__mux2_4
*I *2160:Y O *D sky130_fd_sc_hd__nand2_1
*CAP
1 *2161:A1 0.000275572
2 *2160:Y 0.000275572
3 *2161:A1 *2101:B 2.8266e-06
4 *2161:A1 *273:12 0.000507413
5 *2161:A1 *475:98 0
6 *2161:A1 *526:87 0
*RES
1 *2160:Y *2161:A1 34.1 
*END

*D_NET *167 0.00175742
*CONN
*I *2163:B I *D sky130_fd_sc_hd__nor2_1
*I *2173:A2 I *D sky130_fd_sc_hd__a2111o_1
*I *2165:A2 I *D sky130_fd_sc_hd__a21o_1
*I *2161:X O *D sky130_fd_sc_hd__mux2_4
*CAP
1 *2163:B 0.000204948
2 *2173:A2 0
3 *2165:A2 6.04819e-05
4 *2161:X 0
5 *167:17 0.000403277
6 *167:4 0.000258811
7 *2163:B *2172:A 1.02504e-05
8 *2163:B *2173:A1 0.00010326
9 *2163:B *273:18 7.25296e-05
10 *2163:B *516:25 0.000135028
11 *2163:B *516:42 5.30479e-05
12 *2163:B *526:111 1.91414e-05
13 *2165:A2 *510:45 7.77652e-05
14 *167:17 *2172:A 8.25098e-05
15 *167:17 *273:12 0
16 *167:17 *510:45 7.02611e-05
17 *167:17 *526:81 9.90431e-05
18 *167:17 *526:111 0.000107062
*RES
1 *2161:X *167:4 9.3 
2 *167:4 *2165:A2 10.6571 
3 *167:4 *167:17 8.71429 
4 *167:17 *2173:A2 13.8 
5 *167:17 *2163:B 18.3536 
*END

*D_NET *168 0.000789361
*CONN
*I *2173:B1 I *D sky130_fd_sc_hd__a2111o_1
*I *2162:X O *D sky130_fd_sc_hd__and2_1
*CAP
1 *2173:B1 0.000156115
2 *2162:X 0.000156115
3 *2173:B1 *2172:A 0.000225609
4 *2173:B1 *2173:D1 6.78083e-05
5 *2173:B1 *2426:A 4.08637e-05
6 *2173:B1 *273:18 0.00014285
*RES
1 *2162:X *2173:B1 22.4214 
*END

*D_NET *169 0.000274071
*CONN
*I *2173:C1 I *D sky130_fd_sc_hd__a2111o_1
*I *2163:Y O *D sky130_fd_sc_hd__nor2_1
*CAP
1 *2173:C1 5.18297e-05
2 *2163:Y 5.18297e-05
3 *2173:C1 *516:42 4.29654e-05
4 *2173:C1 *524:74 0.000127446
*RES
1 *2163:Y *2173:C1 29.2429 
*END

*D_NET *170 0.00179081
*CONN
*I *2165:B1 I *D sky130_fd_sc_hd__a21o_1
*I *2164:X O *D sky130_fd_sc_hd__o211a_1
*CAP
1 *2165:B1 0.00033143
2 *2164:X 0.00033143
3 *2165:B1 *2236:A2 9.59532e-06
4 *2165:B1 *2441:A 0.000847528
5 *2165:B1 *2445:A 0.000226993
6 *2165:B1 *516:42 2.11419e-05
7 *2165:B1 *549:62 2.26973e-05
*RES
1 *2164:X *2165:B1 36.3178 
*END

*D_NET *171 0.00125783
*CONN
*I *2167:A1 I *D sky130_fd_sc_hd__o211a_1
*I *2165:X O *D sky130_fd_sc_hd__a21o_1
*CAP
1 *2167:A1 0.000355162
2 *2165:X 0.000355162
3 *2167:A1 *2216:A 0
4 *2167:A1 *497:33 0.000396892
5 *163:10 *2167:A1 0.000150618
*RES
1 *2165:X *2167:A1 33.3679 
*END

*D_NET *172 0.00139628
*CONN
*I *2167:B1 I *D sky130_fd_sc_hd__o211a_1
*I *2166:Y O *D sky130_fd_sc_hd__nand2b_1
*CAP
1 *2167:B1 0.000223528
2 *2166:Y 0.000223528
3 *2167:B1 *510:45 0.000313241
4 *2167:B1 *549:62 0.000286979
5 *2158:A_N *2167:B1 4.18425e-05
6 *2167:C1 *2167:B1 0.000121206
7 *161:14 *2167:B1 0.000185955
*RES
1 *2166:Y *2167:B1 35.1 
*END

*D_NET *173 0.000702404
*CONN
*I *2168:B2 I *D sky130_fd_sc_hd__o221a_1
*I *2167:X O *D sky130_fd_sc_hd__o211a_1
*CAP
1 *2168:B2 0.000330753
2 *2167:X 0.000330753
3 *2168:B2 *2216:A 0
4 *2168:B2 *510:45 3.06476e-05
5 *2168:B1 *2168:B2 1.02504e-05
6 *149:10 *2168:B2 0
*RES
1 *2167:X *2168:B2 31.8321 
*END

*D_NET *174 0.00137155
*CONN
*I *2171:A2 I *D sky130_fd_sc_hd__o21a_1
*I *2168:X O *D sky130_fd_sc_hd__o221a_1
*CAP
1 *2171:A2 0.000409377
2 *2168:X 0.000409377
3 *2171:A2 *2171:B1 4.01768e-05
4 *2171:A2 *2216:A 0.000512615
5 *2144:B *2171:A2 0
6 *2168:B1 *2171:A2 0
7 *2171:A1 *2171:A2 0
8 *2174:A *2171:A2 0
*RES
1 *2168:X *2171:A2 35.9929 
*END

*D_NET *175 0.000928728
*CONN
*I *2170:A2 I *D sky130_fd_sc_hd__a21oi_1
*I *2169:Y O *D sky130_fd_sc_hd__nor2_1
*CAP
1 *2170:A2 0.000100486
2 *2169:Y 0.000100486
3 *2170:A2 *2170:A1 0.000445577
4 *2134:C *2170:A2 0.000191713
5 *2170:B1 *2170:A2 9.04662e-05
*RES
1 *2169:Y *2170:A2 23.2607 
*END

*D_NET *176 0.00212827
*CONN
*I *2171:B1 I *D sky130_fd_sc_hd__o21a_1
*I *2170:Y O *D sky130_fd_sc_hd__a21oi_1
*CAP
1 *2171:B1 0.00062256
2 *2170:Y 0.00062256
3 *2171:B1 *2216:A 0
4 *2171:A1 *2171:B1 0.000128154
5 *2171:A2 *2171:B1 4.01768e-05
6 *140:12 *2171:B1 0.000714816
*RES
1 *2170:Y *2171:B1 38.0152 
*END

*D_NET *177 0.00018623
*CONN
*I *2175:A2 I *D sky130_fd_sc_hd__o21a_1
*I *2171:X O *D sky130_fd_sc_hd__o21a_1
*CAP
1 *2175:A2 9.31148e-05
2 *2171:X 9.31148e-05
*RES
1 *2171:X *2175:A2 19.5464 
*END

*D_NET *178 0.00294893
*CONN
*I *2211:A I *D sky130_fd_sc_hd__or2_1
*I *2212:A1 I *D sky130_fd_sc_hd__a21oi_1
*I *2173:D1 I *D sky130_fd_sc_hd__a2111o_1
*I *2172:Y O *D sky130_fd_sc_hd__nor2_1
*CAP
1 *2211:A 0.000124455
2 *2212:A1 7.51842e-05
3 *2173:D1 0.000238438
4 *2172:Y 0
5 *178:25 0.000520345
6 *178:4 0.000559143
7 *2173:D1 *273:18 6.05161e-06
8 *2211:A *2175:B1 9.71197e-05
9 *2211:A *2212:A2 0.000255044
10 *2211:A *2213:B1 6.8646e-06
11 *2211:A *2237:B1 7.80714e-06
12 *2211:A *326:26 5.33005e-05
13 *2211:A *326:39 0.000197984
14 *2211:A *326:47 2.48938e-05
15 *2212:A1 *2213:B2 7.48091e-05
16 *178:25 *2172:B 5.62995e-05
17 *178:25 *2236:A2 6.07232e-05
18 *178:25 *2237:B1 0.000109671
19 *178:25 *273:18 5.8779e-05
20 *178:25 *326:47 0.00034496
21 *178:25 *475:98 9.25014e-06
22 *2173:B1 *2173:D1 6.78083e-05
*RES
1 *2172:Y *178:4 9.3 
2 *178:4 *2173:D1 13.1571 
3 *178:4 *178:25 12.7143 
4 *178:25 *2212:A1 15.1571 
5 *178:25 *2211:A 18.3179 
*END

*D_NET *179 0.00140756
*CONN
*I *2174:D I *D sky130_fd_sc_hd__nor4_1
*I *2173:X O *D sky130_fd_sc_hd__a2111o_1
*CAP
1 *2174:D 0.000438287
2 *2173:X 0.000438287
3 *2174:D *516:42 0.000154762
4 *2174:D *524:74 0
5 *2174:D *549:62 0.000187893
6 *2174:C *2174:D 0.000188333
*RES
1 *2173:X *2174:D 37.85 
*END

*D_NET *180 0.000632621
*CONN
*I *2175:A1 I *D sky130_fd_sc_hd__o21a_1
*I *2174:Y O *D sky130_fd_sc_hd__nor4_1
*CAP
1 *2175:A1 0.000155441
2 *2174:Y 0.000155441
3 *2175:A1 *2208:A 0
4 *2175:A1 *2213:A1 0
5 *2175:A1 *2216:A 0.000321738
*RES
1 *2174:Y *2175:A1 31.6714 
*END

*D_NET *181 0.00578081
*CONN
*I *2196:C I *D sky130_fd_sc_hd__or3_4
*I *2175:X O *D sky130_fd_sc_hd__o21a_1
*CAP
1 *2196:C 0
2 *2175:X 0.000712711
3 *181:16 0.000712711
4 *181:16 *2207:B 0.000137983
5 *181:16 *2208:A 5.01117e-05
6 *181:16 *2210:A 0.000187892
7 *181:16 *2210:B 0.000166416
8 *181:16 *2216:A 0
9 *181:16 *2219:B 0.000138881
10 *181:16 *2239:A 0.000138881
11 *181:16 *2239:B 3.03304e-05
12 *181:16 *2240:A 0.000706537
13 *181:16 *2240:B 4.77304e-05
14 *181:16 *2241:B 5.52302e-05
15 *181:16 *2242:A 0.000112952
16 *181:16 *2449:A 1.98839e-05
17 *181:16 *191:28 0.000351156
18 *181:16 *191:30 0.00134118
19 *181:16 *549:82 0.000357392
20 *181:16 *551:49 0.000492257
21 *181:16 *551:71 2.05757e-05
*RES
1 *2175:X *181:16 46.6036 
2 *181:16 *2196:C 9.3 
*END

*D_NET *182 0.00376259
*CONN
*I *2177:B I *D sky130_fd_sc_hd__or2_1
*I *2325:A2 I *D sky130_fd_sc_hd__o21a_1
*I *2267:A I *D sky130_fd_sc_hd__nand2_1
*I *2176:X O *D sky130_fd_sc_hd__or3_1
*CAP
1 *2177:B 2.23854e-05
2 *2325:A2 0
3 *2267:A 0.000553618
4 *2176:X 0.000218219
5 *182:12 0.0013152
6 *182:8 0.00100219
7 *2267:A *2325:A1 0
8 *2267:A *2325:B1 0.000190392
9 *2267:A *2339:B1 6.9911e-05
10 *2267:A *191:54 4.1331e-06
11 *2267:A *191:56 0.000146657
12 *2267:A *191:62 4.87885e-05
13 *2267:A *219:23 0
14 *2267:A *338:10 9.60939e-05
15 *182:8 *2176:A 4.16984e-05
16 *182:8 *183:10 5.33005e-05
*RES
1 *2176:X *182:8 12.2107 
2 *182:8 *182:12 12.0536 
3 *182:12 *2267:A 29.425 
4 *182:12 *2325:A2 9.3 
5 *182:8 *2177:B 9.72857 
*END

*D_NET *183 0.00646124
*CONN
*I *2181:A1 I *D sky130_fd_sc_hd__o2111a_1
*I *2195:A1 I *D sky130_fd_sc_hd__a311o_1
*I *2177:X O *D sky130_fd_sc_hd__or2_1
*CAP
1 *2181:A1 7.25953e-05
2 *2195:A1 0.000100029
3 *2177:X 0.00105466
4 *183:10 0.00122729
5 *2181:A1 *2181:A2 0.000145407
6 *2181:A1 *2195:A3 0.000169586
7 *2181:A1 *186:10 4.80729e-05
8 *2181:A1 *492:10 1.18064e-05
9 *2195:A1 *2195:A2 5.03772e-05
10 *183:10 *1967:C1 2.40354e-05
11 *183:10 *1967:D1 4.58194e-05
12 *183:10 *2176:A 9.0145e-05
13 *183:10 *2176:C 2.59355e-05
14 *183:10 *2180:A 0.000107343
15 *183:10 *2240:A 0
16 *183:10 *2415:A2 9.90723e-05
17 *183:10 *2417:B1 0.0005288
18 *183:10 *2418:A2 0
19 *183:10 *2418:C1 0.000124529
20 *183:10 *2503:A 0.000337644
21 *183:10 *186:10 0.000122446
22 *183:10 *205:24 0
23 *183:10 *492:10 0.000274537
24 *183:10 *532:29 0
25 *183:10 *535:27 6.19181e-05
26 *183:10 *549:20 0.000248138
27 *183:10 *549:24 5.33005e-05
28 *183:10 *551:29 0.000240632
29 *183:10 *552:14 0.000146564
30 *183:10 *552:16 7.94471e-05
31 *183:10 *552:26 0.000867118
32 *183:10 *553:30 5.06981e-05
33 *182:8 *183:10 5.33005e-05
*RES
1 *2177:X *183:10 43.8536 
2 *183:10 *2195:A1 15.5857 
3 *183:10 *2181:A1 16.3536 
*END

*D_NET *184 0.000562558
*CONN
*I *2180:A I *D sky130_fd_sc_hd__or2_1
*I *2178:X O *D sky130_fd_sc_hd__or4_1
*CAP
1 *2180:A 0.00016668
2 *2178:X 0.00016668
3 *2180:A *2178:B 9.25014e-06
4 *2180:A *2180:B 3.25247e-05
5 *2180:A *2234:A1 0
6 *2180:A *2240:A 0
7 *2180:A *552:14 8.00806e-05
8 *183:10 *2180:A 0.000107343
*RES
1 *2178:X *2180:A 31.3679 
*END

*D_NET *185 0.000289373
*CONN
*I *2180:B I *D sky130_fd_sc_hd__or2_1
*I *2179:X O *D sky130_fd_sc_hd__or4_1
*CAP
1 *2180:B 8.63531e-05
2 *2179:X 8.63531e-05
3 *2180:B *2240:A 0
4 *2180:B *521:26 5.52302e-05
5 *2180:B *541:12 2.89114e-05
6 *2180:A *2180:B 3.25247e-05
*RES
1 *2179:X *2180:B 29.475 
*END

*D_NET *186 0.00105451
*CONN
*I *2181:A2 I *D sky130_fd_sc_hd__o2111a_1
*I *2195:A2 I *D sky130_fd_sc_hd__a311o_1
*I *2180:X O *D sky130_fd_sc_hd__or2_1
*CAP
1 *2181:A2 8.89098e-05
2 *2195:A2 9.27653e-05
3 *2180:X 0.000141819
4 *186:10 0.000323494
5 *2181:A2 *2181:B1 8.6229e-06
6 *2181:A2 *2196:A 0
7 *2181:A2 *530:45 0
8 *2195:A2 *2196:A 3.69047e-06
9 *186:10 *2196:A 0
10 *186:10 *2240:A 0
11 *186:10 *541:12 2.89016e-05
12 *2181:A1 *2181:A2 0.000145407
13 *2181:A1 *186:10 4.80729e-05
14 *2195:A1 *2195:A2 5.03772e-05
15 *183:10 *186:10 0.000122446
*RES
1 *2180:X *186:10 16.5857 
2 *186:10 *2195:A2 15.1571 
3 *186:10 *2181:A2 15.7464 
*END

*D_NET *187 0.000771149
*CONN
*I *2196:B I *D sky130_fd_sc_hd__or3_4
*I *2181:X O *D sky130_fd_sc_hd__o2111a_1
*CAP
1 *2196:B 6.98818e-05
2 *2181:X 6.98818e-05
3 *2196:B *2196:A 0.000268409
4 *2196:B *2240:A 4.72818e-05
5 *2196:B *192:37 4.72917e-05
6 *2196:B *551:49 0.000268403
*RES
1 *2181:X *2196:B 22.0107 
*END

*D_NET *188 0.0108763
*CONN
*I *2188:B1 I *D sky130_fd_sc_hd__o22a_1
*I *2377:B1 I *D sky130_fd_sc_hd__o22a_1
*I *2199:B1 I *D sky130_fd_sc_hd__o22a_1
*I *2262:B1 I *D sky130_fd_sc_hd__o22a_1
*I *2334:B1 I *D sky130_fd_sc_hd__o22a_1
*I *2289:B1 I *D sky130_fd_sc_hd__o22a_1
*I *2416:B1 I *D sky130_fd_sc_hd__o22a_1
*I *2233:B1 I *D sky130_fd_sc_hd__o22a_1
*I *2182:X O *D sky130_fd_sc_hd__and4b_2
*CAP
1 *2188:B1 0
2 *2377:B1 0
3 *2199:B1 0.000241672
4 *2262:B1 0
5 *2334:B1 0
6 *2289:B1 0.000192963
7 *2416:B1 0.000620084
8 *2233:B1 0
9 *2182:X 0.000345004
10 *188:78 0.0005421
11 *188:47 0.000892316
12 *188:41 0.000175273
13 *188:35 0.000529398
14 *188:26 0.000389783
15 *188:20 0.000769343
16 *188:10 0.000857532
17 *2199:B1 *2192:B 6.90485e-05
18 *2199:B1 *2194:B1 2.14658e-05
19 *2199:B1 *2201:A1 9.60875e-05
20 *2199:B1 *199:29 9.64085e-06
21 *2199:B1 *514:10 3.10885e-05
22 *2199:B1 *514:14 0.000347919
23 *2199:B1 *525:120 0.000132671
24 *2289:B1 *2289:A1 9.71197e-05
25 *2289:B1 *2289:A2 1.98839e-05
26 *2289:B1 *2323:A2 0
27 *2289:B1 *2333:B1 4.18895e-05
28 *2289:B1 *514:58 0
29 *2289:B1 *519:63 5.00917e-05
30 *2416:B1 *2333:A2 9.90431e-05
31 *2416:B1 *2333:B1 1.33343e-05
32 *2416:B1 *2334:B2 1.39841e-05
33 *2416:B1 *2379:A1 1.33343e-05
34 *2416:B1 *2418:B1 0.00010096
35 *2416:B1 *492:100 0
36 *188:10 *1964:C 0.000195853
37 *188:10 *2186:C 0
38 *188:10 *2193:B_N 5.33005e-05
39 *188:10 *197:68 0
40 *188:10 *489:35 0.000274288
41 *188:10 *491:18 8.4392e-05
42 *188:10 *511:68 9.40095e-05
43 *188:10 *530:25 0.000173804
44 *188:10 *530:27 0.000230475
45 *188:20 *2376:A2 0
46 *188:20 *2377:A2 1.95646e-05
47 *188:20 *2377:B2 0.00011167
48 *188:20 *2460:A 0.000216304
49 *188:20 *197:68 0
50 *188:20 *491:18 0.000333429
51 *188:20 *535:87 0
52 *188:20 *572:29 0.000170381
53 *188:26 *2233:A1 2.28499e-05
54 *188:26 *2233:A2 2.59355e-05
55 *188:26 *2233:B2 9.41642e-05
56 *188:26 *2377:A1 5.04705e-05
57 *188:26 *2377:A2 2.44318e-05
58 *188:26 *2377:B2 3.1889e-05
59 *188:26 *2378:A3 0
60 *188:26 *2423:A 1.39841e-05
61 *188:26 *572:6 2.28598e-05
62 *188:26 *572:29 0.000142856
63 *188:35 *2233:A1 0
64 *188:35 *2235:C1 0.000185643
65 *188:35 *190:28 2.59355e-05
66 *188:41 *2288:B1 0
67 *188:41 *2289:A2 1.91414e-05
68 *188:41 *190:28 3.34366e-05
69 *188:41 *190:34 0.000173948
70 *188:41 *490:53 8.61762e-05
71 *188:41 *565:67 1.02504e-05
72 *188:47 *2333:B1 9.80394e-05
73 *188:47 *2334:B2 0.000122226
74 *188:47 *190:34 2.41865e-05
75 *188:78 *2235:C1 1.33343e-05
76 *188:78 *2288:B1 6.86693e-05
77 *188:78 *2289:B2 1.15281e-05
78 *188:78 *2336:A2 0.000217877
79 *188:78 *190:28 2.28598e-05
80 *188:78 *514:14 0.000218019
81 *188:78 *519:82 0.000136951
82 *188:78 *525:120 0.000266007
83 *188:78 *526:43 4.21584e-05
*RES
1 *2182:X *188:10 23.4964 
2 *188:10 *188:20 15.9464 
3 *188:20 *188:26 5.91071 
4 *188:26 *2233:B1 9.3 
5 *188:26 *188:35 3.01786 
6 *188:35 *188:41 7.78571 
7 *188:41 *188:47 6.57143 
8 *188:47 *2416:B1 18.8893 
9 *188:47 *2289:B1 12.7286 
10 *188:41 *2334:B1 13.8 
11 *188:35 *188:78 13.4821 
12 *188:78 *2262:B1 13.8 
13 *188:78 *2199:B1 20.2643 
14 *188:20 *2377:B1 9.3 
15 *188:10 *2188:B1 13.8 
*END

*D_NET *189 0.00271782
*CONN
*I *2190:C I *D sky130_fd_sc_hd__nor3_1
*I *2184:A I *D sky130_fd_sc_hd__or3b_4
*I *2189:C I *D sky130_fd_sc_hd__nor3_1
*I *2186:D_N I *D sky130_fd_sc_hd__or4b_4
*I *2183:Y O *D sky130_fd_sc_hd__nand2_1
*CAP
1 *2190:C 6.58794e-05
2 *2184:A 0
3 *2189:C 0
4 *2186:D_N 6.74964e-05
5 *2183:Y 0.000345494
6 *189:18 0.00020509
7 *189:12 0.000548967
8 *2186:D_N *2186:B 0.00014285
9 *2186:D_N *2189:A 5.71472e-05
10 *2186:D_N *530:8 5.33005e-05
11 *2190:C *2184:B 1.04232e-05
12 *2190:C *2184:C_N 3.18676e-05
13 *2190:C *511:53 0.000271352
14 *2190:C *530:102 7.65719e-05
15 *189:12 *2183:B 9.91086e-05
16 *189:12 *2193:C 9.87983e-06
17 *189:12 *2439:A 4.03318e-05
18 *189:12 *205:14 0
19 *189:12 *489:6 2.59355e-05
20 *189:12 *491:18 0
21 *189:12 *522:8 2.37761e-05
22 *189:18 *2184:B 0
23 *189:18 *2439:A 6.2198e-05
24 *189:18 *511:53 2.28499e-05
25 *189:18 *511:68 0.000168661
26 *189:18 *530:6 5.71472e-05
27 *189:18 *530:8 0.00016834
28 *189:18 *530:102 0.000163155
*RES
1 *2183:Y *189:12 23.2107 
2 *189:12 *189:18 5.60714 
3 *189:18 *2186:D_N 11.0679 
4 *189:18 *2189:C 9.3 
5 *189:12 *2184:A 9.3 
6 *189:12 *2190:C 12.3179 
*END

*D_NET *190 0.0109588
*CONN
*I *2198:A I *D sky130_fd_sc_hd__nor2_1
*I *2187:B1 I *D sky130_fd_sc_hd__a22oi_1
*I *2261:B1 I *D sky130_fd_sc_hd__a21oi_1
*I *2376:B1 I *D sky130_fd_sc_hd__a21oi_1
*I *2415:B1 I *D sky130_fd_sc_hd__a21oi_1
*I *2288:B1 I *D sky130_fd_sc_hd__a21oi_1
*I *2232:A_N I *D sky130_fd_sc_hd__and2b_1
*I *2333:B1 I *D sky130_fd_sc_hd__a21oi_1
*I *2184:X O *D sky130_fd_sc_hd__or3b_4
*CAP
1 *2198:A 0.000287224
2 *2187:B1 0.000271358
3 *2261:B1 0
4 *2376:B1 0
5 *2415:B1 0.000217763
6 *2288:B1 9.3842e-05
7 *2232:A_N 0.000163881
8 *2333:B1 9.37376e-05
9 *2184:X 0.000188952
10 *190:67 0.000599058
11 *190:34 0.000340923
12 *190:28 0.000357485
13 *190:22 0.000924603
14 *190:12 0.000544855
15 *190:10 0.00075471
16 *190:6 0.000777643
17 *2187:B1 *2188:A2 4.24791e-05
18 *2187:B1 *527:61 0.000184745
19 *2187:B1 *527:67 0.000338878
20 *2187:B1 *572:44 5.52238e-05
21 *2198:A *2204:B1 0.000125746
22 *2198:A *2206:B 2.89114e-05
23 *2198:A *202:24 0
24 *2198:A *523:115 0.000215958
25 *2232:A_N *2334:A1 9.90367e-05
26 *2232:A_N *2334:A2 1.5424e-05
27 *2232:A_N *2338:B 3.63775e-05
28 *2232:A_N *199:43 0.000643113
29 *2232:A_N *537:26 0.000392026
30 *2288:B1 *2289:B2 6.05161e-06
31 *2333:B1 *2289:A2 0.000143188
32 *2333:B1 *2334:B2 3.15238e-05
33 *2415:B1 *2417:A3 1.02504e-05
34 *2415:B1 *2418:A2 9.25014e-06
35 *2415:B1 *205:24 0.000119392
36 *2415:B1 *492:23 8.85559e-05
37 *2415:B1 *492:33 1.01075e-05
38 *2415:B1 *553:6 9.90367e-05
39 *2415:B1 *553:12 9.60939e-05
40 *2415:B1 *565:67 0.00012757
41 *190:6 *511:53 0.000227532
42 *190:6 *523:115 1.98839e-05
43 *190:10 *2190:A 5.41794e-05
44 *190:10 *2194:A2 0
45 *190:10 *2197:A 5.18646e-05
46 *190:10 *197:102 5.01213e-05
47 *190:10 *205:14 0
48 *190:10 *511:38 3.17148e-05
49 *190:10 *523:115 6.59861e-05
50 *190:10 *525:120 4.01643e-05
51 *190:12 *205:14 0
52 *190:12 *514:14 0
53 *190:12 *525:120 2.8266e-06
54 *190:12 *541:41 1.76039e-05
55 *190:22 *2235:B2 5.7616e-05
56 *190:22 *2235:C1 0.000124641
57 *190:22 *205:14 5.44642e-05
58 *190:22 *205:18 5.03694e-05
59 *190:22 *514:14 0
60 *190:22 *523:115 0
61 *190:22 *541:41 1.21955e-05
62 *190:28 *2235:C1 9.56535e-05
63 *190:28 *493:50 0
64 *190:28 *493:83 0
65 *190:28 *565:67 1.74766e-05
66 *190:34 *2289:A2 0.000197134
67 *190:67 *2460:A 5.52238e-05
68 *190:67 *493:83 0.000272371
69 *190:67 *553:6 0.000127476
70 *190:67 *565:67 0.000294992
71 *2289:B1 *2333:B1 4.18895e-05
72 *2416:B1 *2333:B1 1.33343e-05
73 *188:35 *190:28 2.59355e-05
74 *188:41 *2288:B1 0
75 *188:41 *190:28 3.34366e-05
76 *188:41 *190:34 0.000173948
77 *188:47 *2333:B1 9.80394e-05
78 *188:47 *190:34 2.41865e-05
79 *188:78 *2288:B1 6.86693e-05
80 *188:78 *190:28 2.28598e-05
*RES
1 *2184:X *190:6 11.8893 
2 *190:6 *190:10 9.78571 
3 *190:10 *190:12 3.16071 
4 *190:12 *190:22 7.01786 
5 *190:22 *190:28 7.69643 
6 *190:28 *190:34 7.48214 
7 *190:34 *2333:B1 16.2821 
8 *190:34 *2232:A_N 20.0857 
9 *190:28 *2288:B1 11.0857 
10 *190:22 *190:67 12.8393 
11 *190:67 *2415:B1 23.3536 
12 *190:67 *2376:B1 9.3 
13 *190:12 *2261:B1 13.8 
14 *190:10 *2187:B1 19.675 
15 *190:6 *2198:A 13.9786 
*END

*D_NET *191 0.0133749
*CONN
*I *2238:B1 I *D sky130_fd_sc_hd__o31a_1
*I *2267:B I *D sky130_fd_sc_hd__nand2_1
*I *2339:A2 I *D sky130_fd_sc_hd__a21o_1
*I *2384:A2 I *D sky130_fd_sc_hd__a21o_1
*I *2325:B1 I *D sky130_fd_sc_hd__o21a_1
*I *2215:B1 I *D sky130_fd_sc_hd__o21a_1
*I *2207:B I *D sky130_fd_sc_hd__nand2_1
*I *2185:X O *D sky130_fd_sc_hd__or4b_4
*CAP
1 *2238:B1 0
2 *2267:B 0
3 *2339:A2 4.10635e-05
4 *2384:A2 0.000101835
5 *2325:B1 0.000108448
6 *2215:B1 0.000140875
7 *2207:B 0.000199155
8 *2185:X 0.000471235
9 *191:62 0.000348464
10 *191:56 0.00029859
11 *191:54 0.000983584
12 *191:30 0.00123408
13 *191:28 0.00226189
14 *191:14 0.000974839
15 *2207:B *2207:A 1.90213e-05
16 *2207:B *2210:B 1.55885e-05
17 *2215:B1 *2208:A 0.00026367
18 *2215:B1 *2215:A1 5.03787e-05
19 *2215:B1 *2215:A2 0
20 *2325:B1 *2325:A1 2.53504e-05
21 *2325:B1 *2339:B1 6.94101e-05
22 *2325:B1 *219:23 0
23 *2325:B1 *338:10 9.8958e-05
24 *2339:A2 *2326:A 5.33433e-05
25 *2384:A2 *2326:B 8.43535e-06
26 *2384:A2 *2340:A 0.00018077
27 *2384:A2 *2384:A1 0
28 *2384:A2 *2384:B1 2.69081e-05
29 *2384:A2 *339:12 0.000221634
30 *191:14 *2238:A3 0.000241352
31 *191:14 *2490:A 5.35516e-05
32 *191:14 *197:10 6.79057e-05
33 *191:14 *211:12 5.88177e-05
34 *191:28 *2238:A3 3.18676e-05
35 *191:28 *2242:B 0
36 *191:28 *2245:B 5.58941e-05
37 *191:28 *2489:A 0.000238769
38 *191:28 *192:37 9.41642e-05
39 *191:28 *192:45 0
40 *191:28 *248:10 2.15363e-05
41 *191:28 *250:10 0
42 *191:28 *549:82 0.000263524
43 *191:28 *551:71 0.000118457
44 *191:54 *2214:A 0
45 *191:54 *2237:B1 0
46 *191:54 *2268:B 0.000126958
47 *191:54 *2269:B 0
48 *191:54 *2325:A1 0
49 *191:54 *192:47 0.000188703
50 *191:54 *192:57 6.74911e-05
51 *191:54 *192:74 0
52 *191:54 *219:23 0.000381048
53 *191:54 *219:38 0.000192983
54 *191:54 *250:10 1.00375e-05
55 *191:54 *276:10 0
56 *191:54 *277:12 0
57 *191:54 *326:66 0
58 *191:54 *516:25 4.43698e-05
59 *191:56 *219:23 0.000386169
60 *191:62 *2326:B 6.62752e-05
61 *191:62 *219:23 0.000151134
62 *191:62 *339:12 9.60875e-05
63 *2267:A *2325:B1 0.000190392
64 *2267:A *191:54 4.1331e-06
65 *2267:A *191:56 0.000146657
66 *2267:A *191:62 4.87885e-05
67 *181:16 *2207:B 0.000137983
68 *181:16 *191:28 0.000351156
69 *181:16 *191:30 0.00134118
*RES
1 *2185:X *191:14 28.3 
2 *191:14 *191:28 19.5357 
3 *191:28 *191:30 12.8571 
4 *191:30 *2207:B 12.2107 
5 *191:30 *2215:B1 21.7643 
6 *191:28 *191:54 23.4464 
7 *191:54 *191:56 4.98214 
8 *191:56 *191:62 8.21429 
9 *191:62 *2325:B1 21.4607 
10 *191:62 *2384:A2 12.3179 
11 *191:56 *2339:A2 14.7464 
12 *191:54 *2267:B 13.8 
13 *191:14 *2238:B1 9.3 
*END

*D_NET *192 0.0184082
*CONN
*I *2245:A I *D sky130_fd_sc_hd__or3b_1
*I *2221:B1 I *D sky130_fd_sc_hd__a31oi_1
*I *2212:B1 I *D sky130_fd_sc_hd__a21oi_1
*I *2387:A I *D sky130_fd_sc_hd__nor2_1
*I *2344:B1 I *D sky130_fd_sc_hd__a31o_1
*I *2332:A_N I *D sky130_fd_sc_hd__and3b_1
*I *2294:A1 I *D sky130_fd_sc_hd__o31ai_1
*I *2187:B2 I *D sky130_fd_sc_hd__a22oi_1
*I *2186:X O *D sky130_fd_sc_hd__or4b_4
*CAP
1 *2245:A 0
2 *2221:B1 0.000458681
3 *2212:B1 0.000258828
4 *2387:A 0.00119957
5 *2344:B1 9.65722e-05
6 *2332:A_N 0
7 *2294:A1 0
8 *2187:B2 0.000443748
9 *2186:X 0.000141019
10 *192:87 0.00166531
11 *192:74 0.000923933
12 *192:57 0.00069708
13 *192:47 0.000624
14 *192:45 0.000789703
15 *192:37 0.0012769
16 *192:10 0.00175351
17 *2187:B2 *2188:B2 6.71657e-05
18 *2187:B2 *2195:B1 0.000103267
19 *2187:B2 *2195:C1 0.000229456
20 *2187:B2 *197:68 0
21 *2187:B2 *492:10 8.42913e-05
22 *2187:B2 *572:44 5.52302e-05
23 *2212:B1 *2213:B2 7.43578e-06
24 *2221:B1 *2220:A1 0.000104263
25 *2221:B1 *2220:B1 0.000108751
26 *2221:B1 *2237:A2 7.43578e-06
27 *2221:B1 *549:82 5.33005e-05
28 *2221:B1 *551:71 0.000233357
29 *2344:B1 *2337:A2 0
30 *2344:B1 *2345:B 0
31 *2344:B1 *343:23 6.5185e-05
32 *2344:B1 *355:12 4.1331e-06
33 *2387:A *2380:C1 0.000257619
34 *2387:A *343:23 2.15245e-05
35 *2387:A *397:12 0.000358915
36 *2387:A *532:25 0.000126439
37 *2387:A *553:30 0.000125717
38 *192:10 *2186:C 7.6644e-05
39 *192:10 *2195:A3 9.71197e-05
40 *192:10 *492:10 5.41797e-05
41 *192:37 *1964:A_N 7.68473e-05
42 *192:37 *2181:B1 5.52238e-05
43 *192:37 *2181:D1 5.33005e-05
44 *192:37 *2196:A 6.73527e-05
45 *192:37 *2239:B 7.83659e-05
46 *192:37 *2242:A 0.000267377
47 *192:37 *2489:A 0.000148189
48 *192:37 *197:60 0.00018077
49 *192:37 *315:23 9.02331e-05
50 *192:37 *326:22 9.20618e-05
51 *192:37 *549:82 1.38323e-05
52 *192:37 *551:49 0.00091442
53 *192:37 *551:71 0.000137983
54 *192:45 *2214:A 0
55 *192:45 *2244:B1 4.13496e-05
56 *192:45 *2245:C_N 0.000100159
57 *192:45 *250:10 9.25014e-06
58 *192:45 *549:82 0.000245131
59 *192:45 *551:71 3.31436e-05
60 *192:47 *2214:A 0
61 *192:47 *250:10 0.000552693
62 *192:47 *549:82 0.000126439
63 *192:57 *2270:A 2.87485e-05
64 *192:57 *2270:B 0.000176685
65 *192:57 *2270:C 4.38128e-05
66 *192:57 *250:10 0.000126446
67 *192:57 *277:12 5.52302e-05
68 *192:74 *2269:A 0.000170654
69 *192:74 *2269:B 1.08359e-05
70 *192:74 *2270:B 4.18895e-05
71 *192:74 *2270:C 5.52238e-05
72 *192:74 *2324:B1 0.000160732
73 *192:74 *2325:A1 0.000138114
74 *192:74 *2330:A 0.000148984
75 *192:74 *2489:A 9.25014e-06
76 *192:74 *276:10 0.000186929
77 *192:74 *277:12 5.26091e-05
78 *192:74 *336:8 9.19522e-05
79 *192:74 *542:139 6.8646e-06
80 *192:87 *2330:A 5.52302e-05
81 *192:87 *2330:B 0.000219607
82 *192:87 *2337:A1 0.000172121
83 *192:87 *2337:A2 7.32272e-05
84 *192:87 *343:6 4.35336e-05
85 *192:87 *343:23 8.74204e-05
86 *2196:B *192:37 4.72917e-05
87 *191:28 *192:37 9.41642e-05
88 *191:28 *192:45 0
89 *191:54 *192:47 0.000188703
90 *191:54 *192:57 6.74911e-05
91 *191:54 *192:74 0
*RES
1 *2186:X *192:10 16.3893 
2 *192:10 *2187:B2 21.925 
3 *192:10 *192:37 34.625 
4 *192:37 *192:45 7.83929 
5 *192:45 *192:47 7.10714 
6 *192:47 *192:57 8.875 
7 *192:57 *2294:A1 9.3 
8 *192:57 *192:74 23.1786 
9 *192:74 *2332:A_N 9.3 
10 *192:74 *192:87 8.5 
11 *192:87 *2344:B1 20.2464 
12 *192:87 *2387:A 36.2107 
13 *192:47 *2212:B1 17.6214 
14 *192:45 *2221:B1 21.6929 
15 *192:37 *2245:A 9.3 
*END

*D_NET *193 0.000496272
*CONN
*I *2188:B2 I *D sky130_fd_sc_hd__o22a_1
*I *2187:Y O *D sky130_fd_sc_hd__a22oi_1
*CAP
1 *2188:B2 9.44637e-05
2 *2187:Y 9.44637e-05
3 *2188:B2 *2188:A2 0.000139907
4 *2188:B2 *572:44 0.000100273
5 *2187:B2 *2188:B2 6.71657e-05
*RES
1 *2187:Y *2188:B2 21.2071 
*END

*D_NET *194 0.000393981
*CONN
*I *2195:C1 I *D sky130_fd_sc_hd__a311o_1
*I *2188:X O *D sky130_fd_sc_hd__o22a_1
*CAP
1 *2195:C1 8.22627e-05
2 *2188:X 8.22627e-05
3 *2187:B2 *2195:C1 0.000229456
*RES
1 *2188:X *2195:C1 20.7786 
*END

*D_NET *195 0.00196044
*CONN
*I *2195:A3 I *D sky130_fd_sc_hd__a311o_1
*I *2189:Y O *D sky130_fd_sc_hd__nor3_1
*CAP
1 *2195:A3 0.000400354
2 *2189:Y 0.000400354
3 *2195:A3 *2181:B1 1.80603e-05
4 *2195:A3 *197:60 9.91086e-05
5 *2195:A3 *230:32 2.8266e-06
6 *2195:A3 *492:10 0.000329493
7 *2195:A3 *511:87 0.000347444
8 *2195:A3 *511:97 9.60939e-05
9 *2181:A1 *2195:A3 0.000169586
10 *192:10 *2195:A3 9.71197e-05
*RES
1 *2189:Y *2195:A3 36.7607 
*END

*D_NET *196 0.00393039
*CONN
*I *2484:A I *D sky130_fd_sc_hd__clkbuf_2
*I *2260:B1 I *D sky130_fd_sc_hd__o21a_1
*I *2205:A1 I *D sky130_fd_sc_hd__a32o_1
*I *2190:Y O *D sky130_fd_sc_hd__nor3_1
*CAP
1 *2484:A 9.48288e-05
2 *2260:B1 0.00034576
3 *2205:A1 0.00012525
4 *2190:Y 0.000207455
5 *196:18 0.000647381
6 *196:8 0.000478655
7 *2205:A1 *2201:B1 0
8 *2205:A1 *2205:B1 1.02504e-05
9 *2205:A1 *2206:A 0
10 *2260:B1 *2199:B2 0
11 *2260:B1 *2201:B1 5.41797e-06
12 *2260:B1 *2264:B1 5.71472e-05
13 *2260:B1 *199:29 0
14 *2260:B1 *199:33 0
15 *2260:B1 *549:119 0.00023446
16 *2260:B1 *566:22 0.000106533
17 *2484:A *2192:B 1.52978e-05
18 *2484:A *199:18 0.000147474
19 *2484:A *199:29 1.18451e-05
20 *2484:A *514:10 0.00020634
21 *196:8 *2190:A 2.89016e-05
22 *196:8 *2192:B 0.000135028
23 *196:8 *523:115 2.3083e-05
24 *196:18 *2192:B 5.10822e-05
25 *196:18 *2199:A2 0.000230475
26 *196:18 *2201:A1 0.000486435
27 *196:18 *2206:A 0.000179745
28 *196:18 *514:10 0.000101545
*RES
1 *2190:Y *196:8 16.3893 
2 *196:8 *196:18 15.5625 
3 *196:18 *2205:A1 15.5946 
4 *196:18 *2260:B1 21.3268 
5 *196:8 *2484:A 16.6571 
*END

*D_NET *197 0.0138681
*CONN
*I *2192:B I *D sky130_fd_sc_hd__or2_1
*I *2204:B2 I *D sky130_fd_sc_hd__a22o_1
*I *2378:A3 I *D sky130_fd_sc_hd__a32o_1
*I *2417:A3 I *D sky130_fd_sc_hd__a32o_1
*I *2263:A3 I *D sky130_fd_sc_hd__a32o_1
*I *2234:A3 I *D sky130_fd_sc_hd__a32o_1
*I *2291:A3 I *D sky130_fd_sc_hd__a32o_1
*I *2335:A3 I *D sky130_fd_sc_hd__a32o_1
*I *2191:X O *D sky130_fd_sc_hd__and4b_2
*CAP
1 *2192:B 0.000213446
2 *2204:B2 2.88431e-05
3 *2378:A3 8.10428e-05
4 *2417:A3 0.000292399
5 *2263:A3 0
6 *2234:A3 6.9099e-05
7 *2291:A3 0
8 *2335:A3 0.000241357
9 *2191:X 0
10 *197:102 0.00118447
11 *197:68 0.00113121
12 *197:60 0.00215667
13 *197:18 0.000419275
14 *197:12 0.000585901
15 *197:10 0.0010079
16 *197:4 0.00112574
17 *2192:B *2194:B1 9.90431e-05
18 *2192:B *2201:A1 2.14757e-05
19 *2192:B *2204:B1 0.000137983
20 *2192:B *199:29 0.000188817
21 *2192:B *514:10 1.09163e-05
22 *2192:B *523:115 2.42516e-05
23 *2204:B2 *2184:C_N 0
24 *2204:B2 *2204:B1 1.97695e-05
25 *2204:B2 *523:115 1.04232e-05
26 *2204:B2 *530:102 0
27 *2234:A3 *2236:B1 0.000184745
28 *2234:A3 *2236:C1 7.03393e-05
29 *2234:A3 *2238:A3 0.00014183
30 *2335:A3 *2263:B1 1.94547e-05
31 *2335:A3 *2291:A1 2.95726e-05
32 *2335:A3 *2335:A1 3.25425e-05
33 *2335:A3 *2338:A 9.71197e-05
34 *2335:A3 *205:39 6.81673e-05
35 *2335:A3 *519:112 0
36 *2378:A3 *2377:A1 9.60939e-05
37 *2378:A3 *2377:A2 1.92905e-05
38 *2378:A3 *2377:B2 0
39 *2378:A3 *2378:B1 0
40 *2378:A3 *2416:B2 1.40034e-05
41 *2417:A3 *2378:B1 7.66879e-05
42 *2417:A3 *2380:C1 2.70899e-05
43 *2417:A3 *2415:A1 5.33005e-05
44 *2417:A3 *2416:A2 1.56e-05
45 *2417:A3 *2416:B2 4.12921e-06
46 *2417:A3 *2417:A1 5.33005e-05
47 *2417:A3 *2417:A2 1.24368e-05
48 *2417:A3 *2418:A2 9.25564e-05
49 *2417:A3 *2418:B1 4.34627e-05
50 *2417:A3 *2419:B1 6.71336e-05
51 *2417:A3 *490:53 1.94879e-05
52 *2417:A3 *492:33 0.000100616
53 *2417:A3 *532:23 0.000121573
54 *2417:A3 *553:30 7.98428e-06
55 *197:10 *2238:A3 0.000241594
56 *197:10 *2266:A_N 0
57 *197:10 *230:6 0.00014183
58 *197:10 *326:22 0
59 *197:12 *2238:A3 0.000212015
60 *197:12 *2263:B1 0
61 *197:12 *2265:C1 2.95626e-05
62 *197:12 *2294:B1 0
63 *197:18 *2263:B1 0
64 *197:18 *2291:B2 0
65 *197:18 *2293:B1 3.18676e-05
66 *197:18 *2294:B1 0
67 *197:18 *519:100 8.49861e-06
68 *197:18 *519:112 0.000142856
69 *197:60 *1964:A_N 9.31893e-05
70 *197:60 *2181:B1 5.01117e-05
71 *197:60 *2186:C 4.27935e-05
72 *197:60 *230:6 0.000144773
73 *197:60 *230:19 0.000211255
74 *197:60 *315:23 0.000178847
75 *197:60 *511:97 4.43256e-05
76 *197:68 *2195:B1 4.25716e-05
77 *197:68 *2376:A2 2.40966e-05
78 *197:68 *2377:B2 0
79 *197:68 *2378:B1 0
80 *197:68 *2460:A 0
81 *197:68 *492:10 0
82 *197:68 *492:23 0.000143019
83 *197:68 *492:33 8.6229e-06
84 *197:68 *553:12 6.49408e-05
85 *197:68 *553:14 9.54798e-06
86 *197:102 *1964:C 6.95486e-05
87 *197:102 *2195:B1 3.19411e-05
88 *197:102 *2197:A 9.91086e-05
89 *197:102 *2201:A1 0.00014183
90 *197:102 *523:115 0.000400867
91 *197:102 *572:52 6.13217e-05
92 *2187:B2 *197:68 0
93 *2195:A3 *197:60 9.91086e-05
94 *2199:B1 *2192:B 6.90485e-05
95 *2265:A2 *197:12 0
96 *2265:A2 *197:18 0
97 *2415:B1 *2417:A3 1.02504e-05
98 *2484:A *2192:B 1.52978e-05
99 *188:10 *197:68 0
100 *188:20 *197:68 0
101 *188:26 *2378:A3 0
102 *190:10 *197:102 5.01213e-05
103 *191:14 *197:10 6.79057e-05
104 *192:37 *197:60 0.00018077
105 *196:8 *2192:B 0.000135028
106 *196:18 *2192:B 5.10822e-05
*RES
1 *2191:X *197:4 9.3 
2 *197:4 *197:10 14.4464 
3 *197:10 *197:12 7.71429 
4 *197:12 *197:18 8.10714 
5 *197:18 *2335:A3 14.175 
6 *197:18 *2291:A3 9.3 
7 *197:12 *2234:A3 16.3893 
8 *197:10 *2263:A3 13.8 
9 *197:4 *197:60 17.9821 
10 *197:60 *197:68 21.3929 
11 *197:68 *2417:A3 25.0679 
12 *197:68 *2378:A3 11.0857 
13 *197:60 *197:102 22.3929 
14 *197:102 *2204:B2 10.0321 
15 *197:102 *2192:B 23.9786 
*END

*D_NET *198 0.000653556
*CONN
*I *2194:A3 I *D sky130_fd_sc_hd__a32o_1
*I *2192:X O *D sky130_fd_sc_hd__or2_1
*CAP
1 *2194:A3 0.000235437
2 *2192:X 0.000235437
3 *2194:A3 *2194:A1 3.66478e-05
4 *2194:A3 *2194:B1 0.000119924
5 *2194:A3 *572:52 2.61099e-05
*RES
1 *2192:X *2194:A3 21.9214 
*END

*D_NET *199 0.0128424
*CONN
*I *2194:B1 I *D sky130_fd_sc_hd__a32o_1
*I *2264:A2 I *D sky130_fd_sc_hd__a221o_1
*I *2290:B I *D sky130_fd_sc_hd__and2_1
*I *2379:A2 I *D sky130_fd_sc_hd__a211o_1
*I *2234:B1 I *D sky130_fd_sc_hd__a32o_1
*I *2335:B1 I *D sky130_fd_sc_hd__a32o_1
*I *2204:A2 I *D sky130_fd_sc_hd__a22o_1
*I *2193:X O *D sky130_fd_sc_hd__and4bb_2
*CAP
1 *2194:B1 0.000259246
2 *2264:A2 5.6217e-06
3 *2290:B 0
4 *2379:A2 1.61459e-05
5 *2234:B1 0.000192377
6 *2335:B1 9.19915e-06
7 *2204:A2 0
8 *2193:X 0.000439141
9 *199:51 0.000644063
10 *199:43 0.00174661
11 *199:35 0.00150459
12 *199:33 0.000483367
13 *199:29 0.000728558
14 *199:18 0.000647315
15 *2194:B1 *2192:A 5.33005e-05
16 *2194:B1 *2194:A1 3.52408e-05
17 *2194:B1 *2194:B2 9.90431e-05
18 *2194:B1 *2201:A1 2.62005e-05
19 *2234:B1 *2234:A1 2.26831e-05
20 *2234:B1 *520:106 0.0001399
21 *2234:B1 *546:69 0.000134927
22 *2234:B1 *565:10 7.69776e-06
23 *2234:B1 *565:67 5.8881e-05
24 *2264:A2 *521:18 1.46576e-05
25 *2264:A2 *541:41 7.13226e-06
26 *2335:B1 *2335:A1 1.1671e-05
27 *2335:B1 *205:39 2.39852e-05
28 *2379:A2 *2338:B 1.98839e-05
29 *199:18 *2197:A 5.52238e-05
30 *199:18 *2200:B_N 0.000229456
31 *199:18 *2200:D 2.64263e-05
32 *199:18 *2205:B1 0.000202501
33 *199:18 *2206:A 0
34 *199:18 *2206:B 4.03318e-05
35 *199:18 *205:14 0.000183726
36 *199:18 *211:12 6.50362e-05
37 *199:18 *511:38 0.00014285
38 *199:18 *514:10 3.77323e-05
39 *199:29 *2199:B2 0.000144696
40 *199:29 *2206:A 3.67356e-05
41 *199:33 *2235:B1 0.000137939
42 *199:33 *521:18 5.9483e-05
43 *199:33 *525:120 3.69909e-05
44 *199:35 *2235:B1 0.000148189
45 *199:35 *2264:A1 0.000479727
46 *199:35 *2264:B2 0
47 *199:35 *2290:A 2.47517e-05
48 *199:35 *514:35 0
49 *199:35 *519:80 4.80729e-05
50 *199:35 *525:120 0.000105241
51 *199:43 *2292:B1 2.26424e-05
52 *199:43 *2292:C1 0.000149054
53 *199:43 *2336:A1 1.98839e-05
54 *199:43 *2336:A2 1.96517e-05
55 *199:43 *2336:B1 0.000135028
56 *199:43 *2336:B2 5.41794e-05
57 *199:43 *2336:C1 4.51096e-05
58 *199:43 *2338:B 1.43763e-05
59 *199:43 *2379:A1 2.59355e-05
60 *199:43 *2379:B1 2.27416e-05
61 *199:43 *2418:B1 1.73088e-05
62 *199:43 *514:35 0
63 *199:43 *519:80 0.000131478
64 *199:43 *537:26 0.000116039
65 *199:51 *2338:B 0.000803625
66 *199:51 *2379:B1 0
67 *199:51 *2418:A1 5.33005e-05
68 *199:51 *2418:B1 8.86413e-05
69 *199:51 *532:6 3.63775e-05
70 *199:51 *546:44 0.000104778
71 *199:51 *546:69 9.11764e-05
72 *199:51 *565:10 0.000113204
73 *2192:B *2194:B1 9.90431e-05
74 *2192:B *199:29 0.000188817
75 *2194:A3 *2194:B1 0.000119924
76 *2199:B1 *2194:B1 2.14658e-05
77 *2199:B1 *199:29 9.64085e-06
78 *2232:A_N *199:43 0.000643113
79 *2260:B1 *199:29 0
80 *2260:B1 *199:33 0
81 *2484:A *199:18 0.000147474
82 *2484:A *199:29 1.18451e-05
*RES
1 *2193:X *199:18 24.2643 
2 *199:18 *2204:A2 13.8 
3 *199:18 *199:29 4.5625 
4 *199:29 *199:33 5.16964 
5 *199:33 *199:35 7.10714 
6 *199:35 *199:43 23.1964 
7 *199:43 *199:51 15.4107 
8 *199:51 *2335:B1 14.0411 
9 *199:51 *2234:B1 17.8089 
10 *199:43 *2379:A2 9.83571 
11 *199:35 *2290:B 13.8 
12 *199:33 *2264:A2 13.9473 
13 *199:29 *2194:B1 18.3804 
*END

*D_NET *200 0.00217776
*CONN
*I *2195:B1 I *D sky130_fd_sc_hd__a311o_1
*I *2194:X O *D sky130_fd_sc_hd__a32o_1
*CAP
1 *2195:B1 0.000744928
2 *2194:X 0.000744928
3 *2195:B1 *1964:C 0.000399848
4 *2195:B1 *492:10 9.10431e-06
5 *2195:B1 *572:52 0.000101169
6 *2187:B2 *2195:B1 0.000103267
7 *197:68 *2195:B1 4.25716e-05
8 *197:102 *2195:B1 3.19411e-05
*RES
1 *2194:X *2195:B1 38.4036 
*END

*D_NET *201 0.00151109
*CONN
*I *2196:A I *D sky130_fd_sc_hd__or3_4
*I *2195:X O *D sky130_fd_sc_hd__a311o_1
*CAP
1 *2196:A 0.0003535
2 *2195:X 0.0003535
3 *2196:A *2240:A 0.000264832
4 *2196:A *326:22 0.000146513
5 *2196:A *530:45 5.32956e-05
6 *2181:A2 *2196:A 0
7 *2195:A2 *2196:A 3.69047e-06
8 *2196:B *2196:A 0.000268409
9 *186:10 *2196:A 0
10 *192:37 *2196:A 6.73527e-05
*RES
1 *2195:X *2196:A 36.0464 
*END

*D_NET *202 0.00609435
*CONN
*I *2222:B1 I *D sky130_fd_sc_hd__a21o_1
*I *2224:C I *D sky130_fd_sc_hd__and3_1
*I *2202:C I *D sky130_fd_sc_hd__and3_1
*I *2198:B I *D sky130_fd_sc_hd__nor2_1
*I *2204:B1 I *D sky130_fd_sc_hd__a22o_1
*I *2197:X O *D sky130_fd_sc_hd__and2_1
*CAP
1 *2222:B1 0
2 *2224:C 0.000482906
3 *2202:C 0
4 *2198:B 0
5 *2204:B1 0.000141549
6 *2197:X 0
7 *202:51 0.000856406
8 *202:24 0.000734088
9 *202:14 0.00109493
10 *202:4 0.000875893
11 *2204:B1 *2199:B2 4.87953e-05
12 *2204:B1 *2205:A3 9.7049e-06
13 *2204:B1 *523:115 3.63587e-05
14 *2224:C *2222:A1 8.35502e-05
15 *2224:C *2222:A2 4.1331e-06
16 *2224:C *2225:A2_N 7.83587e-05
17 *2224:C *2226:B 9.47028e-05
18 *2224:C *253:8 3.69697e-05
19 *202:14 *2197:A 0.000108535
20 *202:14 *2197:B 0.000186669
21 *202:14 *2205:B2 0.000162362
22 *202:14 *2227:A 5.10822e-05
23 *202:24 *2201:B1 0.000210061
24 *202:24 *2205:A2 4.5503e-05
25 *202:24 *2205:A3 1.80737e-05
26 *202:24 *2205:B1 1.1671e-05
27 *202:24 *2205:B2 9.51896e-05
28 *202:24 *2206:C 3.18676e-05
29 *202:51 *2222:A2 1.12484e-05
30 *202:51 *2223:A 0.000101545
31 *202:51 *2226:B 0
32 *202:51 *227:10 0.000198698
33 *2192:B *2204:B1 0.000137983
34 *2198:A *2204:B1 0.000125746
35 *2198:A *202:24 0
36 *2204:B2 *2204:B1 1.97695e-05
*RES
1 *2197:X *202:4 9.3 
2 *202:4 *202:14 17.5 
3 *202:14 *202:24 9.10714 
4 *202:24 *2204:B1 13.1571 
5 *202:24 *2198:B 9.3 
6 *202:14 *2202:C 9.3 
7 *202:4 *202:51 11.3571 
8 *202:51 *2224:C 29.7196 
9 *202:51 *2222:B1 13.8 
*END

*D_NET *203 0.000582121
*CONN
*I *2199:B2 I *D sky130_fd_sc_hd__o22a_1
*I *2198:Y O *D sky130_fd_sc_hd__nor2_1
*CAP
1 *2199:B2 0.000155993
2 *2198:Y 0.000155993
3 *2199:B2 *2206:A 7.6644e-05
4 *2204:B1 *2199:B2 4.87953e-05
5 *2260:B1 *2199:B2 0
6 *199:29 *2199:B2 0.000144696
*RES
1 *2198:Y *2199:B2 30.4929 
*END

*D_NET *204 0.00114794
*CONN
*I *2206:A I *D sky130_fd_sc_hd__or3_1
*I *2199:X O *D sky130_fd_sc_hd__o22a_1
*CAP
1 *2206:A 0.000300827
2 *2199:X 0.000300827
3 *2206:A *2205:B1 0
4 *2206:A *2206:B 0.000125724
5 *2206:A *2206:C 0.000127439
6 *2199:B2 *2206:A 7.6644e-05
7 *2205:A1 *2206:A 0
8 *196:18 *2206:A 0.000179745
9 *199:18 *2206:A 0
10 *199:29 *2206:A 3.67356e-05
*RES
1 *2199:X *2206:A 33.4393 
*END

*D_NET *205 0.013299
*CONN
*I *2205:B1 I *D sky130_fd_sc_hd__a32o_1
*I *2235:A2 I *D sky130_fd_sc_hd__a221o_1
*I *2336:A2 I *D sky130_fd_sc_hd__a221o_1
*I *2378:B1 I *D sky130_fd_sc_hd__a32o_1
*I *2291:B1 I *D sky130_fd_sc_hd__a32o_1
*I *2263:B1 I *D sky130_fd_sc_hd__a32o_1
*I *2418:A2 I *D sky130_fd_sc_hd__a211o_1
*I *2200:X O *D sky130_fd_sc_hd__and4bb_2
*CAP
1 *2205:B1 0.000653541
2 *2235:A2 5.6217e-06
3 *2336:A2 0.000490364
4 *2378:B1 6.73873e-05
5 *2291:B1 0
6 *2263:B1 0.000402883
7 *2418:A2 0.000211463
8 *2200:X 0
9 *205:39 0.000904137
10 *205:37 0.000568642
11 *205:24 0.00109948
12 *205:18 0.0014802
13 *205:14 0.000956735
14 *205:4 0.00150283
15 *2205:B1 *2197:A 0.000170573
16 *2205:B1 *2201:B1 2.8266e-06
17 *2205:B1 *2205:A2 1.43404e-05
18 *2235:A2 *526:53 1.46576e-05
19 *2235:A2 *529:56 7.13226e-06
20 *2263:B1 *2238:A3 0.000581125
21 *2263:B1 *2263:A2 3.28686e-05
22 *2263:B1 *2263:B2 4.97121e-06
23 *2263:B1 *2291:A1 5.52302e-05
24 *2263:B1 *2291:B2 0.000111317
25 *2263:B1 *2449:A 1.52978e-05
26 *2263:B1 *242:12 6.75007e-05
27 *2263:B1 *519:100 3.27483e-05
28 *2263:B1 *521:49 0.000171005
29 *2336:A2 *2289:B2 7.06861e-05
30 *2336:A2 *2336:C1 3.33238e-05
31 *2336:A2 *493:83 4.16984e-05
32 *2336:A2 *525:120 3.09963e-05
33 *2336:A2 *526:43 0.00045069
34 *2336:A2 *565:67 0.000134529
35 *2378:B1 *2335:A1 5.33005e-05
36 *2378:B1 *2378:B2 5.33005e-05
37 *2378:B1 *2415:A1 3.8274e-05
38 *2378:B1 *2416:B2 2.35097e-05
39 *2418:A2 *2415:A2 6.29378e-05
40 *2418:A2 *490:53 2.09826e-05
41 *2418:A2 *553:24 7.45123e-05
42 *2418:A2 *553:30 8.6229e-06
43 *205:14 *2193:C 2.65207e-05
44 *205:14 *2194:A2 9.10907e-05
45 *205:14 *511:38 6.2589e-06
46 *205:14 *523:115 5.7234e-05
47 *205:14 *527:67 5.59013e-05
48 *205:18 *523:115 0
49 *205:24 *492:10 2.84494e-05
50 *205:24 *492:23 1.78353e-05
51 *205:24 *565:67 0.000673532
52 *205:39 *2335:A1 0.000133595
53 *205:39 *2335:B2 0.000134471
54 *205:39 *2415:A1 5.49489e-05
55 *205:39 *526:73 0.000136951
56 *2205:A1 *2205:B1 1.02504e-05
57 *2206:A *2205:B1 0
58 *2335:A3 *2263:B1 1.94547e-05
59 *2335:A3 *205:39 6.81673e-05
60 *2335:B1 *205:39 2.39852e-05
61 *2378:A3 *2378:B1 0
62 *2415:B1 *2418:A2 9.25014e-06
63 *2415:B1 *205:24 0.000119392
64 *2417:A3 *2378:B1 7.66879e-05
65 *2417:A3 *2418:A2 9.25564e-05
66 *183:10 *2418:A2 0
67 *183:10 *205:24 0
68 *188:78 *2336:A2 0.000217877
69 *189:12 *205:14 0
70 *190:10 *205:14 0
71 *190:12 *205:14 0
72 *190:22 *205:14 5.44642e-05
73 *190:22 *205:18 5.03694e-05
74 *197:12 *2263:B1 0
75 *197:18 *2263:B1 0
76 *197:68 *2378:B1 0
77 *199:18 *2205:B1 0.000202501
78 *199:18 *205:14 0.000183726
79 *199:43 *2336:A2 1.96517e-05
80 *202:24 *2205:B1 1.1671e-05
*RES
1 *2200:X *205:4 9.3 
2 *205:4 *205:14 18.2857 
3 *205:14 *205:18 6.44643 
4 *205:18 *205:24 17.75 
5 *205:24 *2418:A2 17.4964 
6 *205:24 *205:37 4.5 
7 *205:37 *205:39 9.04464 
8 *205:39 *2263:B1 29.4786 
9 *205:39 *2291:B1 9.3 
10 *205:37 *2378:B1 11.2911 
11 *205:18 *2336:A2 28.3446 
12 *205:14 *2235:A2 13.9473 
13 *205:4 *2205:B1 27.2911 
*END

*D_NET *206 0.000631959
*CONN
*I *2205:A2 I *D sky130_fd_sc_hd__a32o_1
*I *2201:X O *D sky130_fd_sc_hd__a22o_1
*CAP
1 *2205:A2 8.69845e-05
2 *2201:X 8.69845e-05
3 *2205:A2 *2201:B1 0
4 *2205:A2 *2205:A3 0.000300129
5 *2205:A2 *2205:B2 9.80173e-05
6 *2205:B1 *2205:A2 1.43404e-05
7 *202:24 *2205:A2 4.5503e-05
*RES
1 *2201:X *2205:A2 22.1714 
*END

*D_NET *207 0.000912975
*CONN
*I *2203:A I *D sky130_fd_sc_hd__inv_2
*I *2228:A I *D sky130_fd_sc_hd__and2_1
*I *2229:A I *D sky130_fd_sc_hd__nor2_1
*I *2202:X O *D sky130_fd_sc_hd__and3_1
*CAP
1 *2203:A 0.000136446
2 *2228:A 0
3 *2229:A 2.72313e-05
4 *2202:X 3.92359e-05
5 *207:12 0.000136924
6 *207:6 0.000285375
7 *2203:A *2205:A3 5.52302e-05
8 *2203:A *2205:B2 8.23036e-05
9 *2203:A *2226:C 0
10 *2203:A *528:23 5.35423e-06
11 *2229:A *2197:B 2.27416e-05
12 *2229:A *2228:B 6.69094e-05
13 *207:6 *2205:A3 5.52238e-05
14 *207:12 *2202:A 0
15 *207:12 *528:23 0
*RES
1 *2202:X *207:6 9.83571 
2 *207:6 *207:12 10.6429 
3 *207:12 *2229:A 10.2643 
4 *207:12 *2228:A 9.3 
5 *207:6 *2203:A 12.1839 
*END

*D_NET *208 0.00217842
*CONN
*I *2205:A3 I *D sky130_fd_sc_hd__a32o_1
*I *2203:Y O *D sky130_fd_sc_hd__inv_2
*CAP
1 *2205:A3 0.000437302
2 *2203:Y 0.000437302
3 *2205:A3 *2202:B 0.000139907
4 *2205:A3 *2205:B2 0.000543751
5 *2205:A3 *527:106 0.000181796
6 *2203:A *2205:A3 5.52302e-05
7 *2204:B1 *2205:A3 9.7049e-06
8 *2205:A2 *2205:A3 0.000300129
9 *202:24 *2205:A3 1.80737e-05
10 *207:6 *2205:A3 5.52238e-05
*RES
1 *2203:Y *2205:A3 28.5286 
*END

*D_NET *209 0.000499302
*CONN
*I *2206:B I *D sky130_fd_sc_hd__or3_1
*I *2204:X O *D sky130_fd_sc_hd__a22o_1
*CAP
1 *2206:B 0.000152167
2 *2204:X 0.000152167
3 *2206:B *2197:A 0
4 *2206:B *514:10 0
5 *2198:A *2206:B 2.89114e-05
6 *2206:A *2206:B 0.000125724
7 *199:18 *2206:B 4.03318e-05
*RES
1 *2204:X *2206:B 30.6893 
*END

*D_NET *210 0.000377522
*CONN
*I *2206:C I *D sky130_fd_sc_hd__or3_1
*I *2205:X O *D sky130_fd_sc_hd__a32o_1
*CAP
1 *2206:C 0.000109108
2 *2205:X 0.000109108
3 *2206:A *2206:C 0.000127439
4 *202:24 *2206:C 3.18676e-05
*RES
1 *2205:X *2206:C 29.7786 
*END

*D_NET *211 0.00737153
*CONN
*I *2214:B I *D sky130_fd_sc_hd__or2_4
*I *2206:X O *D sky130_fd_sc_hd__or3_1
*CAP
1 *2214:B 0
2 *2206:X 0.00265424
3 *211:12 0.00265424
4 *211:12 *1955:A 2.95726e-05
5 *211:12 *2197:A 5.33433e-05
6 *211:12 *2200:D 8.99348e-05
7 *211:12 *2243:A 2.27416e-05
8 *211:12 *2243:B 0.000144773
9 *211:12 *2243:C 5.7993e-06
10 *211:12 *2266:B 0.00011333
11 *211:12 *489:44 0.000108535
12 *211:12 *500:6 0.000493359
13 *211:12 *500:8 0.000186662
14 *211:12 *500:12 5.52302e-05
15 *211:12 *500:46 0.000478626
16 *211:12 *500:63 5.33005e-05
17 *211:12 *511:38 5.06983e-05
18 *211:12 *514:10 5.33005e-05
19 *191:14 *211:12 5.88177e-05
20 *199:18 *211:12 6.50362e-05
*RES
1 *2206:X *211:12 46.0321 
2 *211:12 *2214:B 9.3 
*END

*D_NET *212 0.00025663
*CONN
*I *2208:B I *D sky130_fd_sc_hd__xnor2_1
*I *2207:Y O *D sky130_fd_sc_hd__nand2_1
*CAP
1 *2208:B 8.73911e-05
2 *2207:Y 8.73911e-05
3 *2208:B *2208:A 0
4 *2208:B *2210:B 3.92757e-05
5 *2208:B *2216:A 4.25716e-05
*RES
1 *2207:Y *2208:B 29.2429 
*END

*D_NET *213 0.00234015
*CONN
*I *2209:B I *D sky130_fd_sc_hd__nand2_1
*I *2210:B I *D sky130_fd_sc_hd__xnor2_1
*I *2208:Y O *D sky130_fd_sc_hd__xnor2_1
*CAP
1 *2209:B 0.000417511
2 *2210:B 0.0001526
3 *2208:Y 0
4 *213:4 0.000570111
5 *2209:B *2215:A2 9.80173e-05
6 *2209:B *2217:B 0.000144773
7 *2209:B *2218:A 4.39965e-05
8 *2209:B *2219:A 5.33005e-05
9 *2209:B *221:14 0.000184773
10 *2209:B *223:8 1.15281e-05
11 *2209:B *524:127 4.58976e-05
12 *2210:B *2207:A 0.000312215
13 *2210:B *2208:A 4.03318e-05
14 *2210:B *2216:A 0
15 *2210:B *551:71 4.38128e-05
16 *2207:B *2210:B 1.55885e-05
17 *2208:B *2210:B 3.92757e-05
18 *181:16 *2210:B 0.000166416
*RES
1 *2208:Y *213:4 9.3 
2 *213:4 *2210:B 23.3536 
3 *213:4 *2209:B 17.2821 
*END

*D_NET *214 0.000799058
*CONN
*I *2220:A1 I *D sky130_fd_sc_hd__a21o_1
*I *2221:A1 I *D sky130_fd_sc_hd__a31oi_1
*I *2209:Y O *D sky130_fd_sc_hd__nand2_1
*CAP
1 *2220:A1 6.95713e-05
2 *2221:A1 0
3 *2209:Y 8.71582e-05
4 *214:6 0.00015673
5 *2220:A1 *2220:A2 0.000172309
6 *2220:A1 *2220:B1 5.72024e-05
7 *2220:A1 *2237:A2 1.74352e-05
8 *2220:A1 *223:8 3.69047e-06
9 *214:6 *2220:A2 5.33005e-05
10 *214:6 *2220:B1 1.98839e-05
11 *214:6 *223:8 5.75147e-05
12 *2221:B1 *2220:A1 0.000104263
*RES
1 *2209:Y *214:6 11.0679 
2 *214:6 *2221:A1 9.3 
3 *214:6 *2220:A1 11.9071 
*END

*D_NET *215 0.00207098
*CONN
*I *2212:A2 I *D sky130_fd_sc_hd__a21oi_1
*I *2211:B I *D sky130_fd_sc_hd__or2_1
*I *2210:Y O *D sky130_fd_sc_hd__xnor2_1
*CAP
1 *2212:A2 0.000203281
2 *2211:B 0
3 *2210:Y 0.000197531
4 *215:12 0.000400812
5 *2212:A2 *2175:B1 3.9846e-05
6 *2212:A2 *2237:B1 0.00024292
7 *2212:A2 *216:8 9.90431e-05
8 *2212:A2 *326:26 4.43256e-05
9 *2212:A2 *549:82 5.71472e-05
10 *215:12 *2175:B1 0.000144941
11 *215:12 *2215:A2 6.31747e-05
12 *215:12 *524:127 4.25809e-05
13 *215:12 *549:62 1.19309e-05
14 *215:12 *549:82 0.000268403
15 *2211:A *2212:A2 0.000255044
*RES
1 *2210:Y *215:12 23.7464 
2 *215:12 *2211:B 9.3 
3 *215:12 *2212:A2 24.4607 
*END

*D_NET *216 0.00229167
*CONN
*I *2221:A2 I *D sky130_fd_sc_hd__a31oi_1
*I *2220:A2 I *D sky130_fd_sc_hd__a21o_1
*I *2213:B1 I *D sky130_fd_sc_hd__a22o_1
*I *2211:X O *D sky130_fd_sc_hd__or2_1
*CAP
1 *2221:A2 1.63101e-05
2 *2220:A2 7.47557e-05
3 *2213:B1 0.000126559
4 *2211:X 6.59538e-05
5 *216:19 0.000240047
6 *216:8 0.000341494
7 *2213:B1 *2208:A 0.000173083
8 *2213:B1 *326:39 1.08359e-05
9 *2213:B1 *526:111 9.04513e-05
10 *2213:B1 *549:82 9.25014e-06
11 *2220:A2 *2219:B 0
12 *2220:A2 *2220:B1 0.000227532
13 *2220:A2 *2237:B1 5.59013e-05
14 *2221:A2 *2219:B 5.59013e-05
15 *2221:A2 *2221:A3 4.73656e-05
16 *216:19 *2209:A 1.09026e-05
17 *216:19 *2219:B 0.000168939
18 *216:19 *2221:A3 3.34366e-05
19 *216:19 *224:10 7.6644e-05
20 *216:19 *549:82 0.000134788
21 *2211:A *2213:B1 6.8646e-06
22 *2212:A2 *216:8 9.90431e-05
23 *2220:A1 *2220:A2 0.000172309
24 *214:6 *2220:A2 5.33005e-05
*RES
1 *2211:X *216:8 14.7464 
2 *216:8 *2213:B1 17.2643 
3 *216:8 *216:19 3.76786 
4 *216:19 *2220:A2 25.7107 
5 *216:19 *2221:A2 14.5321 
*END

*D_NET *217 0.000727862
*CONN
*I *2213:B2 I *D sky130_fd_sc_hd__a22o_1
*I *2212:Y O *D sky130_fd_sc_hd__a21oi_1
*CAP
1 *2213:B2 0.000259911
2 *2212:Y 0.000259911
3 *2213:B2 *2213:A1 5.41494e-05
4 *2213:B2 *2214:A 7.16452e-05
5 *2212:A1 *2213:B2 7.48091e-05
6 *2212:B1 *2213:B2 7.43578e-06
*RES
1 *2212:Y *2213:B2 23.6893 
*END

*D_NET *218 0.00250613
*CONN
*I *2214:A I *D sky130_fd_sc_hd__or2_4
*I *2213:X O *D sky130_fd_sc_hd__a22o_1
*CAP
1 *2214:A 0.000652459
2 *2213:X 0.000652459
3 *2214:A *2237:B1 0.000684359
4 *2214:A *2243:A 1.22159e-05
5 *2214:A *2243:B 5.33433e-05
6 *2214:A *223:27 0.000337071
7 *2214:A *225:10 0
8 *2214:A *551:71 4.25809e-05
9 *2213:B2 *2214:A 7.16452e-05
10 *191:54 *2214:A 0
11 *192:45 *2214:A 0
12 *192:47 *2214:A 0
*RES
1 *2213:X *2214:A 41.2964 
*END

*D_NET *219 0.00664309
*CONN
*I *2162:A I *D sky130_fd_sc_hd__and2_1
*I *2172:A I *D sky130_fd_sc_hd__nor2_1
*I *2164:B1 I *D sky130_fd_sc_hd__o211a_1
*I *2427:A I *D sky130_fd_sc_hd__clkbuf_4
*I *1954:Y O *D sky130_fd_sc_hd__inv_2
*CAP
1 *2162:A 0
2 *2172:A 0.000355487
3 *2164:B1 1.64896e-05
4 *2427:A 0.000502856
5 *1954:Y 3.40767e-05
6 *219:38 0.000545024
7 *219:23 0.00105781
8 *219:6 0.00138871
9 *2164:B1 *526:73 2.89016e-05
10 *2164:B1 *529:78 2.89016e-05
11 *2172:A *2426:A 8.51796e-05
12 *2172:A *273:12 0
13 *2172:A *273:18 3.51442e-05
14 *2427:A *517:12 1.3142e-05
15 *2427:A *542:128 3.52083e-05
16 *2427:A *550:80 1.58163e-05
17 *219:6 *1954:A 8.71761e-06
18 *219:6 *550:80 1.05729e-05
19 *219:23 *1959:A 0
20 *219:23 *2150:C1 0.000340362
21 *219:23 *2164:A2 5.80706e-06
22 *219:23 *2236:A2 0
23 *219:23 *2326:A 0.000125241
24 *219:23 *550:80 7.81028e-05
25 *219:38 *2164:A2 8.03271e-05
26 *219:38 *2426:A 5.71472e-05
27 *219:38 *326:66 9.02232e-05
28 *219:38 *516:25 1.76039e-05
29 *2048:A *2427:A 6.32633e-05
30 *2052:B *2427:A 9.91086e-05
31 *2090:A *2427:A 9.41642e-05
32 *2163:B *2172:A 1.02504e-05
33 *2173:B1 *2172:A 0.000225609
34 *2267:A *219:23 0
35 *2325:B1 *219:23 0
36 *167:17 *2172:A 8.25098e-05
37 *191:54 *219:23 0.000381048
38 *191:54 *219:38 0.000192983
39 *191:56 *219:23 0.000386169
40 *191:62 *219:23 0.000151134
*RES
1 *1954:Y *219:6 9.83571 
2 *219:6 *2427:A 24.9964 
3 *219:6 *219:23 24.6607 
4 *219:23 *2164:B1 14.3357 
5 *219:23 *219:38 9.23214 
6 *219:38 *2172:A 23.8893 
7 *219:38 *2162:A 9.3 
*END

*D_NET *220 0.000944883
*CONN
*I *2216:B I *D sky130_fd_sc_hd__xnor2_1
*I *2215:X O *D sky130_fd_sc_hd__o21a_1
*CAP
1 *2216:B 0.000218206
2 *2215:X 0.000218206
3 *2216:B *2208:A 0.000232399
4 *2216:B *2216:A 0.000186662
5 *2216:B *221:14 8.94104e-05
*RES
1 *2215:X *2216:B 24.1 
*END

*D_NET *221 0.00155847
*CONN
*I *2218:B I *D sky130_fd_sc_hd__nand2_1
*I *2217:B I *D sky130_fd_sc_hd__or2_1
*I *2216:Y O *D sky130_fd_sc_hd__xnor2_1
*CAP
1 *2218:B 0
2 *2217:B 4.72236e-05
3 *2216:Y 0.000385178
4 *221:14 0.000432402
5 *2217:B *2218:A 5.84801e-05
6 *221:14 *2208:A 0.000216235
7 *2209:B *2217:B 0.000144773
8 *2209:B *221:14 0.000184773
9 *2216:B *221:14 8.94104e-05
*RES
1 *2216:Y *221:14 16.9964 
2 *221:14 *2217:B 11.5143 
3 *221:14 *2218:B 9.3 
*END

*D_NET *222 0.000541239
*CONN
*I *2219:A I *D sky130_fd_sc_hd__nand2_1
*I *2217:X O *D sky130_fd_sc_hd__or2_1
*CAP
1 *2219:A 9.57803e-05
2 *2217:X 9.57803e-05
3 *2219:A *2209:A 0.000114759
4 *2219:A *524:127 0.000148189
5 *2219:A *526:111 3.34295e-05
6 *2209:B *2219:A 5.33005e-05
*RES
1 *2217:X *2219:A 30.0821 
*END

*D_NET *223 0.00387173
*CONN
*I *2243:A I *D sky130_fd_sc_hd__and3_1
*I *2244:A1 I *D sky130_fd_sc_hd__a21o_1
*I *2219:B I *D sky130_fd_sc_hd__nand2_1
*I *2218:Y O *D sky130_fd_sc_hd__nand2_1
*CAP
1 *2243:A 0.000112672
2 *2244:A1 0.00010545
3 *2219:B 0.000206584
4 *2218:Y 0.000358501
5 *223:27 0.000511895
6 *223:8 0.000858858
7 *2219:B *2237:A2 4.46186e-06
8 *2219:B *2237:B1 0
9 *2219:B *549:82 9.41642e-05
10 *2219:B *551:71 2.28499e-05
11 *2243:A *2243:B 2.24763e-05
12 *2244:A1 *2243:B 9.25014e-06
13 *2244:A1 *2243:C 0
14 *2244:A1 *2245:C_N 0
15 *2244:A1 *225:10 0.000126439
16 *2244:A1 *248:10 0
17 *223:8 *2218:A 0.000125392
18 *223:8 *524:127 5.33334e-05
19 *223:27 *2237:A1 0.000399835
20 *223:27 *2237:A2 5.10822e-05
21 *2209:B *223:8 1.15281e-05
22 *2214:A *2243:A 1.22159e-05
23 *2214:A *223:27 0.000337071
24 *2220:A1 *223:8 3.69047e-06
25 *2220:A2 *2219:B 0
26 *2221:A2 *2219:B 5.59013e-05
27 *181:16 *2219:B 0.000138881
28 *211:12 *2243:A 2.27416e-05
29 *214:6 *223:8 5.75147e-05
30 *216:19 *2219:B 0.000168939
*RES
1 *2218:Y *223:8 18.4429 
2 *223:8 *2219:B 18.6214 
3 *223:8 *223:27 11.9375 
4 *223:27 *2244:A1 20.2732 
5 *223:27 *2243:A 11.2911 
*END

*D_NET *224 0.0016184
*CONN
*I *2221:A3 I *D sky130_fd_sc_hd__a31oi_1
*I *2220:B1 I *D sky130_fd_sc_hd__a21o_1
*I *2219:Y O *D sky130_fd_sc_hd__nand2_1
*CAP
1 *2221:A3 2.29612e-05
2 *2220:B1 0.000308352
3 *2219:Y 0.00010379
4 *224:10 0.000435103
5 *2221:A3 *2209:A 3.90513e-05
6 *224:10 *2209:A 3.92854e-05
7 *224:10 *551:71 9.90431e-05
8 *2220:A1 *2220:B1 5.72024e-05
9 *2220:A2 *2220:B1 0.000227532
10 *2221:A2 *2221:A3 4.73656e-05
11 *2221:B1 *2220:B1 0.000108751
12 *214:6 *2220:B1 1.98839e-05
13 *216:19 *2221:A3 3.34366e-05
14 *216:19 *224:10 7.6644e-05
*RES
1 *2219:Y *224:10 15.7821 
2 *224:10 *2220:B1 18.7821 
3 *224:10 *2221:A3 14.8357 
*END

*D_NET *225 0.00213287
*CONN
*I *2244:A2 I *D sky130_fd_sc_hd__a21o_1
*I *2243:B I *D sky130_fd_sc_hd__and3_1
*I *2237:A1 I *D sky130_fd_sc_hd__a21o_1
*I *2220:X O *D sky130_fd_sc_hd__a21o_1
*CAP
1 *2244:A2 0
2 *2243:B 0.000247844
3 *2237:A1 0.000266475
4 *2220:X 6.04695e-05
5 *225:10 0.000589019
6 *225:6 0.00013517
7 *225:6 *551:71 7.77751e-05
8 *2214:A *2243:B 5.33433e-05
9 *2214:A *225:10 0
10 *2243:A *2243:B 2.24763e-05
11 *2244:A1 *2243:B 9.25014e-06
12 *2244:A1 *225:10 0.000126439
13 *211:12 *2243:B 0.000144773
14 *223:27 *2237:A1 0.000399835
*RES
1 *2220:X *225:6 10.6571 
2 *225:6 *225:10 6.14286 
3 *225:10 *2237:A1 17.6214 
4 *225:10 *2243:B 18.5679 
5 *225:6 *2244:A2 9.3 
*END

*D_NET *226 0.000337927
*CONN
*I *2237:A2 I *D sky130_fd_sc_hd__a21o_1
*I *2221:Y O *D sky130_fd_sc_hd__a31oi_1
*CAP
1 *2237:A2 0.000107466
2 *2221:Y 0.000107466
3 *2237:A2 *2237:B1 4.25809e-05
4 *2219:B *2237:A2 4.46186e-06
5 *2220:A1 *2237:A2 1.74352e-05
6 *2221:B1 *2237:A2 7.43578e-06
7 *223:27 *2237:A2 5.10822e-05
*RES
1 *2221:Y *2237:A2 29.7786 
*END

*D_NET *227 0.00144798
*CONN
*I *2223:A I *D sky130_fd_sc_hd__inv_2
*I *2226:D I *D sky130_fd_sc_hd__and4b_1
*I *2222:X O *D sky130_fd_sc_hd__a21o_1
*CAP
1 *2223:A 5.9679e-05
2 *2226:D 0.000164536
3 *2222:X 0.000199811
4 *227:10 0.000424026
5 *2223:A *2197:B 0
6 *2223:A *2225:B1 6.91157e-05
7 *2226:D *2225:B1 6.21199e-05
8 *2226:D *2226:A_N 9.99644e-06
9 *2226:D *2226:B 5.52302e-05
10 *227:10 *2225:B1 5.66157e-05
11 *227:10 *2226:B 4.66096e-05
12 *202:51 *2223:A 0.000101545
13 *202:51 *227:10 0.000198698
*RES
1 *2222:X *227:10 17.7107 
2 *227:10 *2226:D 16.233 
3 *227:10 *2223:A 15.4429 
*END

*D_NET *228 0.000803559
*CONN
*I *2225:B1 I *D sky130_fd_sc_hd__o2bb2a_1
*I *2223:Y O *D sky130_fd_sc_hd__inv_2
*CAP
1 *2225:B1 0.000142633
2 *2223:Y 0.000142633
3 *2225:B1 *2197:B 0
4 *2225:B1 *2226:A_N 4.72917e-05
5 *2225:B1 *2226:B 7.0528e-05
6 *2225:B1 *2226:C 0.00018372
7 *2225:B1 *2227:B 2.89016e-05
8 *2225:B1 *2246:B 0
9 *2223:A *2225:B1 6.91157e-05
10 *2226:D *2225:B1 6.21199e-05
11 *227:10 *2225:B1 5.66157e-05
*RES
1 *2223:Y *2225:B1 31.8321 
*END

*D_NET *229 0.00137951
*CONN
*I *2226:A_N I *D sky130_fd_sc_hd__and4b_1
*I *2225:B2 I *D sky130_fd_sc_hd__o2bb2a_1
*I *2246:A I *D sky130_fd_sc_hd__nor2_1
*I *2224:X O *D sky130_fd_sc_hd__and3_1
*CAP
1 *2226:A_N 0.000215327
2 *2225:B2 3.34103e-05
3 *2246:A 0.000127408
4 *2224:X 0
5 *229:21 0.00028409
6 *229:4 0.00016276
7 *2225:B2 *2226:C 5.33005e-05
8 *2226:A_N *2226:C 0.000181796
9 *2246:A *2222:A1 5.76121e-05
10 *229:21 *2225:A2_N 0.00010326
11 *229:21 *2246:B 0.00010326
12 *2225:B1 *2226:A_N 4.72917e-05
13 *2226:D *2226:A_N 9.99644e-06
*RES
1 *2224:X *229:4 9.3 
2 *229:4 *2246:A 11.8179 
3 *229:4 *229:21 10.3393 
4 *229:21 *2225:B2 9.83571 
5 *229:21 *2226:A_N 13.1393 
*END

*D_NET *230 0.00332802
*CONN
*I *2182:C I *D sky130_fd_sc_hd__and4b_2
*I *2189:A I *D sky130_fd_sc_hd__nor3_1
*I *2181:B1 I *D sky130_fd_sc_hd__o2111a_1
*I *2191:B I *D sky130_fd_sc_hd__and4b_2
*I *1955:Y O *D sky130_fd_sc_hd__inv_2
*CAP
1 *2182:C 0.000209989
2 *2189:A 0.000246377
3 *2181:B1 0.000105633
4 *2191:B 4.94781e-05
5 *1955:Y 7.48149e-05
6 *230:32 0.000500615
7 *230:19 0.000201975
8 *230:6 0.000176387
9 *2181:B1 *2181:D1 3.85735e-05
10 *2181:B1 *315:8 4.78056e-05
11 *2181:B1 *326:22 5.71472e-05
12 *2182:C *2191:A_N 9.4724e-05
13 *2182:C *492:10 0
14 *2182:C *530:33 0.000227539
15 *2189:A *2186:B 0.000183675
16 *2189:A *511:87 3.66478e-05
17 *2189:A *511:97 0.000122101
18 *2191:B *2191:C 2.89016e-05
19 *230:6 *1955:A 5.33433e-05
20 *230:19 *511:97 0.000139907
21 *230:32 *2191:A_N 1.02504e-05
22 *230:32 *315:8 3.22834e-05
23 *230:32 *492:10 0
24 *2181:A2 *2181:B1 8.6229e-06
25 *2186:D_N *2189:A 5.71472e-05
26 *2195:A3 *2181:B1 1.80603e-05
27 *2195:A3 *230:32 2.8266e-06
28 *192:37 *2181:B1 5.52238e-05
29 *197:10 *230:6 0.00014183
30 *197:60 *2181:B1 5.01117e-05
31 *197:60 *230:6 0.000144773
32 *197:60 *230:19 0.000211255
*RES
1 *1955:Y *230:6 11.8893 
2 *230:6 *2191:B 10.5679 
3 *230:6 *230:19 6.67857 
4 *230:19 *2181:B1 16.5857 
5 *230:19 *230:32 1.03571 
6 *230:32 *2189:A 18.8536 
7 *230:32 *2182:C 17.3179 
*END

*D_NET *231 0.000398128
*CONN
*I *2227:A I *D sky130_fd_sc_hd__nor2_1
*I *2225:X O *D sky130_fd_sc_hd__o2bb2a_1
*CAP
1 *2227:A 9.32923e-05
2 *2225:X 9.32923e-05
3 *2227:A *2205:B2 5.71472e-05
4 *2227:A *2227:B 2.49484e-05
5 *2227:A *233:12 7.83659e-05
6 *202:14 *2227:A 5.10822e-05
*RES
1 *2225:X *2227:A 29.7786 
*END

*D_NET *232 0.0013472
*CONN
*I *2246:B I *D sky130_fd_sc_hd__nor2_1
*I *2227:B I *D sky130_fd_sc_hd__nor2_1
*I *2226:X O *D sky130_fd_sc_hd__and4b_1
*CAP
1 *2246:B 0.000135151
2 *2227:B 0.000205732
3 *2226:X 0
4 *232:4 0.000340883
5 *2227:B *2197:B 0.000125731
6 *2227:B *2225:A2_N 0.000139907
7 *2227:B *2226:C 1.02936e-05
8 *2227:B *233:12 8.00806e-05
9 *2246:B *2225:A2_N 7.22508e-05
10 *2246:B *2226:B 8.00652e-05
11 *2225:B1 *2227:B 2.89016e-05
12 *2225:B1 *2246:B 0
13 *2227:A *2227:B 2.49484e-05
14 *229:21 *2246:B 0.00010326
*RES
1 *2226:X *232:4 9.3 
2 *232:4 *2227:B 22.1214 
3 *232:4 *2246:B 21.7643 
*END

*D_NET *233 0.0013932
*CONN
*I *2229:B I *D sky130_fd_sc_hd__nor2_1
*I *2228:B I *D sky130_fd_sc_hd__and2_1
*I *2227:Y O *D sky130_fd_sc_hd__nor2_1
*CAP
1 *2229:B 0
2 *2228:B 0.000141515
3 *2227:Y 0.000225902
4 *233:12 0.000367418
5 *2228:B *2197:B 4.89867e-05
6 *233:12 *2197:B 0.000146308
7 *233:12 *2224:B 1.41231e-05
8 *233:12 *2225:A2_N 0
9 *233:12 *528:23 0.000223592
10 *2227:A *233:12 7.83659e-05
11 *2227:B *233:12 8.00806e-05
12 *2229:A *2228:B 6.69094e-05
*RES
1 *2227:Y *233:12 24.0321 
2 *233:12 *2228:B 12.3357 
3 *233:12 *2229:B 9.3 
*END

*D_NET *234 0.00166608
*CONN
*I *2230:A I *D sky130_fd_sc_hd__nor2_1
*I *2258:A I *D sky130_fd_sc_hd__and2_1
*I *2259:A I *D sky130_fd_sc_hd__nand2_1
*I *2260:A1 I *D sky130_fd_sc_hd__o21a_1
*I *2228:X O *D sky130_fd_sc_hd__and2_1
*CAP
1 *2230:A 0
2 *2258:A 0.0001591
3 *2259:A 0
4 *2260:A1 1.42796e-05
5 *2228:X 0.0002189
6 *234:18 0.000107061
7 *234:12 0.000356938
8 *234:10 0.000323956
9 *2258:A *2258:B 5.03787e-05
10 *2258:A *2437:A 5.71472e-05
11 *2258:A *529:56 1.33343e-05
12 *2258:A *541:41 2.89114e-05
13 *2258:A *544:31 5.34742e-05
14 *2260:A1 *2260:A2 5.33005e-05
15 *2260:A1 *2264:B1 5.52302e-05
16 *234:10 *2197:B 2.09915e-05
17 *234:10 *2230:B 0
18 *234:10 *544:31 4.38511e-05
19 *234:12 *2230:B 0
20 *234:12 *544:31 6.5772e-05
21 *234:18 *544:31 4.34543e-05
*RES
1 *2228:X *234:10 17.2107 
2 *234:10 *234:12 2.40179 
3 *234:12 *234:18 6.02679 
4 *234:18 *2260:A1 9.83571 
5 *234:18 *2259:A 9.3 
6 *234:12 *2258:A 17.0411 
7 *234:10 *2230:A 13.8 
*END

*D_NET *235 0.000618306
*CONN
*I *2230:B I *D sky130_fd_sc_hd__nor2_1
*I *2229:Y O *D sky130_fd_sc_hd__nor2_1
*CAP
1 *2230:B 0.000283623
2 *2229:Y 0.000283623
3 *2230:B *2235:B1 5.30637e-06
4 *2230:B *528:23 4.57538e-05
5 *234:10 *2230:B 0
6 *234:12 *2230:B 0
*RES
1 *2229:Y *2230:B 32.6536 
*END

*D_NET *236 0.003236
*CONN
*I *2235:B1 I *D sky130_fd_sc_hd__a221o_1
*I *2230:Y O *D sky130_fd_sc_hd__nor2_1
*CAP
1 *2235:B1 0.000936893
2 *2230:Y 0.000936893
3 *2235:B1 *2235:B2 2.50068e-05
4 *2235:B1 *2265:C1 6.56976e-05
5 *2235:B1 *2431:A 5.03772e-05
6 *2235:B1 *514:35 7.84241e-05
7 *2235:B1 *521:18 5.33433e-05
8 *2235:B1 *525:120 0.000110626
9 *2235:B1 *526:43 0.000131159
10 *2235:B1 *527:61 3.07552e-05
11 *2235:B1 *529:56 0.000525388
12 *2230:B *2235:B1 5.30637e-06
13 *199:33 *2235:B1 0.000137939
14 *199:35 *2235:B1 0.000148189
*RES
1 *2230:Y *2235:B1 43.9393 
*END

*D_NET *237 0.00224142
*CONN
*I *2232:B I *D sky130_fd_sc_hd__and2b_1
*I *2278:A I *D sky130_fd_sc_hd__xnor2_1
*I *2231:Y O *D sky130_fd_sc_hd__nand2_1
*CAP
1 *2232:B 0.000250877
2 *2278:A 0.000111853
3 *2231:Y 0
4 *237:6 0.00036273
5 *2232:B *2233:A1 0.000388715
6 *2232:B *523:115 0.000732027
7 *2278:A *2233:A1 0.000134758
8 *2278:A *523:88 0.000175526
9 *2278:A *523:115 8.49318e-05
*RES
1 *2231:Y *237:6 13.8 
2 *237:6 *2278:A 17.4964 
3 *237:6 *2232:B 23.3357 
*END

*D_NET *238 0.000613447
*CONN
*I *2233:B2 I *D sky130_fd_sc_hd__o22a_1
*I *2232:X O *D sky130_fd_sc_hd__and2b_1
*CAP
1 *2233:B2 0.000116081
2 *2232:X 0.000116081
3 *2233:B2 *2233:A1 0.000192293
4 *2233:B2 *2233:A2 1.90936e-05
5 *2233:B2 *2423:A 1.98839e-05
6 *2233:B2 *523:115 5.58508e-05
7 *188:26 *2233:B2 9.41642e-05
*RES
1 *2232:X *2233:B2 30.4929 
*END

*D_NET *239 0.00123962
*CONN
*I *2235:C1 I *D sky130_fd_sc_hd__a221o_1
*I *2233:X O *D sky130_fd_sc_hd__o22a_1
*CAP
1 *2235:C1 0.000284368
2 *2233:X 0.000284368
3 *2235:C1 *2235:B2 5.41794e-05
4 *2235:C1 *514:14 0
5 *2235:C1 *526:43 5.44167e-05
6 *2235:C1 *565:67 0.000143012
7 *188:35 *2235:C1 0.000185643
8 *188:78 *2235:C1 1.33343e-05
9 *190:22 *2235:C1 0.000124641
10 *190:28 *2235:C1 9.56535e-05
*RES
1 *2233:X *2235:C1 33.7429 
*END

*D_NET *240 0.00237666
*CONN
*I *2236:B1 I *D sky130_fd_sc_hd__a211o_1
*I *2234:X O *D sky130_fd_sc_hd__a32o_1
*CAP
1 *2236:B1 0.000722567
2 *2234:X 0.000722567
3 *2236:B1 *2236:C1 0.000370635
4 *2236:B1 *2269:A 0.000227526
5 *2236:B1 *326:47 5.7661e-06
6 *2236:B1 *516:25 0.00014285
7 *2234:A3 *2236:B1 0.000184745
*RES
1 *2234:X *2236:B1 32.7071 
*END

*D_NET *241 0.00357318
*CONN
*I *2032:B I *D sky130_fd_sc_hd__nor2_4
*I *2046:B1 I *D sky130_fd_sc_hd__a21o_1
*I *2033:B I *D sky130_fd_sc_hd__nand2_1
*I *2395:A I *D sky130_fd_sc_hd__or4b_1
*I *1956:Y O *D sky130_fd_sc_hd__inv_2
*CAP
1 *2032:B 0
2 *2046:B1 0
3 *2033:B 0.000133522
4 *2395:A 8.19654e-05
5 *1956:Y 9.44279e-05
6 *241:27 0.000452522
7 *241:25 0.000532929
8 *241:8 0.000390321
9 *2033:B *2016:A 0.000387432
10 *2033:B *2033:A 5.33005e-05
11 *2033:B *2057:B1 3.57844e-05
12 *2033:B *283:24 5.52302e-05
13 *2395:A *1982:A 0.000106533
14 *2395:A *2033:A 6.58289e-05
15 *2395:A *475:73 0
16 *241:25 *1982:A 8.53636e-05
17 *241:25 *2032:A 5.52238e-05
18 *241:25 *2033:A 5.4005e-05
19 *241:25 *471:12 0.000312209
20 *241:27 *471:12 0.000178865
21 *45:42 *241:27 9.31209e-05
22 *49:20 *2033:B 0.000315887
23 *52:10 *241:27 8.87062e-05
*RES
1 *1956:Y *241:8 15.1571 
2 *241:8 *2395:A 16.3536 
3 *241:8 *241:25 10.1786 
4 *241:25 *241:27 6.69643 
5 *241:27 *2033:B 23.8179 
6 *241:27 *2046:B1 9.3 
7 *241:25 *2032:B 9.3 
*END

*D_NET *242 0.00651898
*CONN
*I *2236:C1 I *D sky130_fd_sc_hd__a211o_1
*I *2235:X O *D sky130_fd_sc_hd__a221o_1
*CAP
1 *2236:C1 0.000794326
2 *2235:X 0.00086756
3 *242:12 0.00166189
4 *2236:C1 *2238:A3 0.000139907
5 *2236:C1 *2269:A 4.43157e-05
6 *2236:C1 *2269:B 0.00014285
7 *2236:C1 *326:47 9.7049e-06
8 *242:12 *2291:B2 0.000126446
9 *242:12 *520:114 0.000183726
10 *242:12 *526:53 0.00148849
11 *242:12 *526:73 0.000393943
12 *242:12 *529:56 1.54142e-05
13 *242:12 *529:70 8.86314e-05
14 *242:12 *552:14 5.33005e-05
15 *2234:A3 *2236:C1 7.03393e-05
16 *2236:B1 *2236:C1 0.000370635
17 *2263:B1 *242:12 6.75007e-05
*RES
1 *2235:X *242:12 38.55 
2 *242:12 *2236:C1 24.1214 
*END

*D_NET *243 0.0024885
*CONN
*I *2237:B1 I *D sky130_fd_sc_hd__a21o_1
*I *2236:X O *D sky130_fd_sc_hd__a211o_1
*CAP
1 *2237:B1 0.000645958
2 *2236:X 0.000645958
3 *2237:B1 *326:47 5.33433e-05
4 *2211:A *2237:B1 7.80714e-06
5 *2212:A2 *2237:B1 0.00024292
6 *2214:A *2237:B1 0.000684359
7 *2219:B *2237:B1 0
8 *2220:A2 *2237:B1 5.59013e-05
9 *2237:A2 *2237:B1 4.25809e-05
10 *178:25 *2237:B1 0.000109671
11 *191:54 *2237:B1 0
*RES
1 *2236:X *2237:B1 42.3321 
*END

*D_NET *244 0.000613346
*CONN
*I *2239:B I *D sky130_fd_sc_hd__xnor2_1
*I *2238:X O *D sky130_fd_sc_hd__o31a_1
*CAP
1 *2239:B 9.44511e-05
2 *2238:X 9.44511e-05
3 *2239:B *2239:A 9.41642e-05
4 *2239:B *2242:A 0.000137983
5 *2239:B *2489:A 2.26424e-05
6 *2239:B *551:49 6.09572e-05
7 *181:16 *2239:B 3.03304e-05
8 *192:37 *2239:B 7.83659e-05
*RES
1 *2238:X *2239:B 30.6 
*END

*D_NET *245 0.000554796
*CONN
*I *2240:B I *D sky130_fd_sc_hd__or2_1
*I *2241:B I *D sky130_fd_sc_hd__nand2_1
*I *2239:Y O *D sky130_fd_sc_hd__xnor2_1
*CAP
1 *2240:B 4.97672e-05
2 *2241:B 9.11415e-05
3 *2239:Y 0
4 *245:4 0.000140909
5 *2241:B *2489:A 0.000127446
6 *2241:B *542:139 4.25716e-05
7 *181:16 *2240:B 4.77304e-05
8 *181:16 *2241:B 5.52302e-05
*RES
1 *2239:Y *245:4 9.3 
2 *245:4 *2241:B 20.4786 
3 *245:4 *2240:B 10.2643 
*END

*D_NET *246 0.00129487
*CONN
*I *2242:A I *D sky130_fd_sc_hd__nand2_1
*I *2240:X O *D sky130_fd_sc_hd__or2_1
*CAP
1 *2242:A 0.000257377
2 *2240:X 0.000257377
3 *2242:A *2239:A 2.28499e-05
4 *2242:A *248:10 9.90431e-05
5 *2242:A *551:49 0.000139907
6 *2239:B *2242:A 0.000137983
7 *181:16 *2242:A 0.000112952
8 *192:37 *2242:A 0.000267377
*RES
1 *2240:X *2242:A 25.2071 
*END

*D_NET *247 0.00272707
*CONN
*I *2242:B I *D sky130_fd_sc_hd__nand2_1
*I *2270:A I *D sky130_fd_sc_hd__and3_1
*I *2271:A1 I *D sky130_fd_sc_hd__a21oi_1
*I *2241:Y O *D sky130_fd_sc_hd__nand2_1
*CAP
1 *2242:B 7.66981e-05
2 *2270:A 0.000422175
3 *2271:A1 0
4 *2241:Y 0.000128264
5 *247:12 0.00061618
6 *247:8 0.000398967
7 *2242:B *250:10 0.000114759
8 *2270:A *2270:C 0.000385628
9 *2270:A *2294:B1 2.68e-05
10 *2270:A *277:12 5.52302e-05
11 *247:8 *2241:A 1.33343e-05
12 *247:8 *326:26 6.62898e-05
13 *247:12 *2489:A 0
14 *247:12 *250:10 0.000393998
15 *191:28 *2242:B 0
16 *192:57 *2270:A 2.87485e-05
*RES
1 *2241:Y *247:8 15.5679 
2 *247:8 *247:12 9.48214 
3 *247:12 *2271:A1 9.3 
4 *247:12 *2270:A 15.1929 
5 *247:8 *2242:B 15.4429 
*END

*D_NET *248 0.00124247
*CONN
*I *2243:C I *D sky130_fd_sc_hd__and3_1
*I *2244:B1 I *D sky130_fd_sc_hd__a21o_1
*I *2242:Y O *D sky130_fd_sc_hd__nand2_1
*CAP
1 *2243:C 8.53326e-05
2 *2244:B1 6.01308e-05
3 *2242:Y 0.000157152
4 *248:10 0.000302615
5 *2243:C *2245:B 4.78056e-05
6 *2244:B1 *2245:C_N 5.52302e-05
7 *2244:B1 *549:82 1.21258e-05
8 *2244:B1 *551:71 0.000222399
9 *248:10 *2245:B 5.33882e-05
10 *248:10 *2245:C_N 3.92757e-05
11 *248:10 *250:10 3.92854e-05
12 *2242:A *248:10 9.90431e-05
13 *2244:A1 *2243:C 0
14 *2244:A1 *248:10 0
15 *191:28 *248:10 2.15363e-05
16 *192:45 *2244:B1 4.13496e-05
17 *211:12 *2243:C 5.7993e-06
*RES
1 *2242:Y *248:10 16.9964 
2 *248:10 *2244:B1 15.9964 
3 *248:10 *2243:C 15.3357 
*END

*D_NET *249 0.00044268
*CONN
*I *2245:B I *D sky130_fd_sc_hd__or3b_1
*I *2243:X O *D sky130_fd_sc_hd__and3_1
*CAP
1 *2245:B 0.000107492
2 *2243:X 0.000107492
3 *2245:B *2489:A 7.06079e-05
4 *2243:C *2245:B 4.78056e-05
5 *191:28 *2245:B 5.58941e-05
6 *248:10 *2245:B 5.33882e-05
*RES
1 *2243:X *2245:B 30.1536 
*END

*D_NET *250 0.00320975
*CONN
*I *2245:C_N I *D sky130_fd_sc_hd__or3b_1
*I *2271:A2 I *D sky130_fd_sc_hd__a21oi_1
*I *2270:B I *D sky130_fd_sc_hd__and3_1
*I *2244:X O *D sky130_fd_sc_hd__a21o_1
*CAP
1 *2245:C_N 5.46195e-05
2 *2271:A2 0
3 *2270:B 0.000206729
4 *2244:X 0
5 *250:10 0.000442282
6 *250:6 0.000290172
7 *2270:B *2270:C 3.24201e-05
8 *2270:B *2294:A2 0.000208126
9 *2270:B *2294:B1 0.000139907
10 *2270:B *2489:A 0.00010096
11 *2270:B *279:6 5.72237e-05
12 *250:10 *2489:A 0
13 *250:10 *277:12 1.76039e-05
14 *2242:B *250:10 0.000114759
15 *2244:A1 *2245:C_N 0
16 *2244:B1 *2245:C_N 5.52302e-05
17 *191:28 *250:10 0
18 *191:54 *250:10 1.00375e-05
19 *192:45 *2245:C_N 0.000100159
20 *192:45 *250:10 9.25014e-06
21 *192:47 *250:10 0.000552693
22 *192:57 *2270:B 0.000176685
23 *192:57 *250:10 0.000126446
24 *192:74 *2270:B 4.18895e-05
25 *247:12 *250:10 0.000393998
26 *248:10 *2245:C_N 3.92757e-05
27 *248:10 *250:10 3.92854e-05
*RES
1 *2244:X *250:6 13.8 
2 *250:6 *250:10 13.4286 
3 *250:10 *2270:B 15.5143 
4 *250:10 *2271:A2 9.3 
5 *250:6 *2245:C_N 15.3714 
*END

*D_NET *251 0.00147681
*CONN
*I *2395:B I *D sky130_fd_sc_hd__or4b_1
*I *2029:A1 I *D sky130_fd_sc_hd__o211ai_2
*I *1957:Y O *D sky130_fd_sc_hd__inv_2
*CAP
1 *2395:B 0.000225321
2 *2029:A1 0.000236044
3 *1957:Y 0
4 *251:4 0.000461366
5 *2029:A1 *1982:A 0.000142327
6 *2029:A1 *2027:A1 7.3237e-05
7 *2029:A1 *475:14 0
8 *2029:A1 *475:64 0
9 *2029:A1 *475:73 0
10 *2029:A1 *477:16 7.92975e-05
11 *2395:B *1982:A 0.000196262
12 *2395:B *2009:A1 9.6561e-06
13 *2395:B *294:10 0
14 *2395:B *413:16 5.33005e-05
*RES
1 *1957:Y *251:4 9.3 
2 *251:4 *2029:A1 23.1214 
3 *251:4 *2395:B 22.2107 
*END

*D_NET *252 0.000464106
*CONN
*I *2266:B I *D sky130_fd_sc_hd__nand2b_1
*I *2245:X O *D sky130_fd_sc_hd__or3b_1
*CAP
1 *2266:B 0.000110454
2 *2245:X 0.000110454
3 *2266:B *2266:A_N 0
4 *2266:B *2489:A 0.000129868
5 *211:12 *2266:B 0.00011333
*RES
1 *2245:X *2266:B 30.3232 
*END

*D_NET *253 0.00204074
*CONN
*I *2254:A I *D sky130_fd_sc_hd__xnor2_1
*I *2253:A_N I *D sky130_fd_sc_hd__and2b_1
*I *2246:Y O *D sky130_fd_sc_hd__nor2_1
*CAP
1 *2254:A 0.000143451
2 *2253:A_N 0.000186845
3 *2246:Y 0.000358205
4 *253:8 0.000688501
5 *2253:A_N *545:134 7.92975e-05
6 *253:8 *2225:A2_N 2.14852e-05
7 *253:8 *2226:B 6.42338e-05
8 *253:8 *545:134 0.000329742
9 *253:8 *555:41 0.000132012
10 *2224:C *253:8 3.69697e-05
*RES
1 *2246:Y *253:8 23.0321 
2 *253:8 *2253:A_N 17.1036 
3 *253:8 *2254:A 15.9786 
*END

*D_NET *254 0.0006929
*CONN
*I *2252:A I *D sky130_fd_sc_hd__xnor2_1
*I *2275:A1 I *D sky130_fd_sc_hd__o21ba_1
*I *2247:Y O *D sky130_fd_sc_hd__nand2_1
*CAP
1 *2252:A 6.33216e-05
2 *2275:A1 0
3 *2247:Y 9.40064e-05
4 *254:12 0.000157328
5 *2252:A *2252:B 9.60875e-05
6 *2252:A *284:12 2.89114e-05
7 *254:12 *2247:A 2.59355e-05
8 *254:12 *284:12 7.6644e-05
9 *254:12 *490:23 2.49484e-05
10 *254:12 *537:36 0.000125717
*RES
1 *2247:Y *254:12 20.4786 
2 *254:12 *2275:A1 9.3 
3 *254:12 *2252:A 10.6571 
*END

*D_NET *255 0.000736333
*CONN
*I *2277:A2 I *D sky130_fd_sc_hd__a21oi_4
*I *2248:Y O *D sky130_fd_sc_hd__nand2_1
*CAP
1 *2277:A2 9.03617e-05
2 *2248:Y 9.03617e-05
3 *2277:A2 *2391:A 5.33433e-05
4 *2277:A2 *2399:A 6.05161e-06
5 *2277:A2 *2406:A 0.000139907
6 *2277:A2 *493:48 0.000173076
7 *2277:A2 *548:37 0.000183233
*RES
1 *2248:Y *2277:A2 31.2071 
*END

*D_NET *256 0.00114307
*CONN
*I *2275:B1_N I *D sky130_fd_sc_hd__o21ba_1
*I *2251:A I *D sky130_fd_sc_hd__nor2_1
*I *2249:X O *D sky130_fd_sc_hd__and3_1
*CAP
1 *2275:B1_N 1.72105e-05
2 *2251:A 0.000168377
3 *2249:X 0.000116424
4 *256:10 0.000302011
5 *2251:A *2251:B 5.7661e-06
6 *2251:A *2252:B 0.000178847
7 *2275:B1_N *549:18 4.66511e-05
8 *2275:B1_N *555:31 5.59013e-05
9 *256:10 *523:57 4.87953e-05
10 *256:10 *549:18 0.000101545
11 *256:10 *555:31 0.000101545
*RES
1 *2249:X *256:10 16.0857 
2 *256:10 *2251:A 16.7107 
3 *256:10 *2275:B1_N 14.5321 
*END

*D_NET *257 0.00107463
*CONN
*I *2251:B I *D sky130_fd_sc_hd__nor2_1
*I *2275:A2 I *D sky130_fd_sc_hd__o21ba_1
*I *2250:Y O *D sky130_fd_sc_hd__a21oi_1
*CAP
1 *2251:B 0.000130232
2 *2275:A2 0
3 *2250:Y 9.8572e-05
4 *257:12 0.000228804
5 *2251:B *2252:B 0.000128321
6 *2251:B *284:12 0.000221641
7 *257:12 *493:50 0.000150625
8 *257:12 *523:57 2.89114e-05
9 *257:12 *537:36 8.17617e-05
10 *2251:A *2251:B 5.7661e-06
*RES
1 *2250:Y *257:12 20.7821 
2 *257:12 *2275:A2 9.3 
3 *257:12 *2251:B 12.7464 
*END

*D_NET *258 0.000886872
*CONN
*I *2252:B I *D sky130_fd_sc_hd__xnor2_1
*I *2251:Y O *D sky130_fd_sc_hd__nor2_1
*CAP
1 *2252:B 0.000230598
2 *2251:Y 0.000230598
3 *2252:B *284:12 2.24195e-05
4 *2251:A *2252:B 0.000178847
5 *2251:B *2252:B 0.000128321
6 *2252:A *2252:B 9.60875e-05
*RES
1 *2251:Y *2252:B 23.2429 
*END

*D_NET *259 0.00655898
*CONN
*I *2254:B I *D sky130_fd_sc_hd__xnor2_1
*I *2253:B I *D sky130_fd_sc_hd__and2b_1
*I *2252:Y O *D sky130_fd_sc_hd__xnor2_1
*CAP
1 *2254:B 0.000158102
2 *2253:B 0
3 *2252:Y 0.00259827
4 *259:24 0.00275637
5 *2254:B *2283:A1 0.000115707
6 *2254:B *2284:A 2.14474e-05
7 *2254:B *2285:B 4.80729e-05
8 *2254:B *260:8 2.21972e-05
9 *2254:B *493:83 4.57198e-05
10 *2254:B *545:134 0
11 *259:24 *2285:B 4.50149e-05
12 *259:24 *2419:B1 6.63171e-06
13 *259:24 *490:23 0
14 *259:24 *526:43 2.06112e-05
15 *259:24 *545:134 0
16 *259:24 *555:41 0.000720835
*RES
1 *2252:Y *259:24 34.9743 
2 *259:24 *2253:B 13.8 
3 *259:24 *2254:B 17.6214 
*END

*D_NET *260 0.00127239
*CONN
*I *2283:A1 I *D sky130_fd_sc_hd__o21ai_1
*I *2284:A I *D sky130_fd_sc_hd__or3_1
*I *2253:X O *D sky130_fd_sc_hd__and2b_1
*CAP
1 *2283:A1 8.68034e-05
2 *2284:A 0.000179392
3 *2253:X 2.79571e-06
4 *260:8 0.000268991
5 *2283:A1 *2284:B 1.91512e-05
6 *2283:A1 *263:12 4.1331e-06
7 *2283:A1 *292:10 3.31415e-05
8 *2283:A1 *493:83 9.90367e-05
9 *2284:A *2285:B 0.000150618
10 *2284:A *292:10 9.27418e-05
11 *2284:A *292:20 0.000176234
12 *2284:A *545:134 0
13 *2254:B *2283:A1 0.000115707
14 *2254:B *2284:A 2.14474e-05
15 *2254:B *260:8 2.21972e-05
*RES
1 *2253:X *260:8 14.0768 
2 *260:8 *2284:A 18.5946 
3 *260:8 *2283:A1 16.2375 
*END

*D_NET *261 0.000937122
*CONN
*I *2256:B1 I *D sky130_fd_sc_hd__a21oi_1
*I *2255:C I *D sky130_fd_sc_hd__and3_1
*I *2254:Y O *D sky130_fd_sc_hd__xnor2_1
*CAP
1 *2256:B1 3.06586e-05
2 *2255:C 3.20243e-05
3 *2254:Y 8.09036e-05
4 *261:12 0.000143586
5 *2255:C *2255:A 0.000170404
6 *2255:C *2256:A2 0.000126591
7 *2255:C *2437:A 2.14658e-05
8 *2256:B1 *2255:A 1.33343e-05
9 *2256:B1 *2437:A 3.97677e-05
10 *2256:B1 *528:6 8.27532e-05
11 *261:12 *2255:A 0
12 *261:12 *2255:B 0
13 *261:12 *2257:A 4.25427e-05
14 *261:12 *2257:B 5.7616e-05
15 *261:12 *2437:A 3.99614e-06
16 *261:12 *263:12 4.15914e-05
17 *261:12 *493:83 4.98872e-05
18 *261:12 *541:41 0
*RES
1 *2254:Y *261:12 20.675 
2 *261:12 *2255:C 10.925 
3 *261:12 *2256:B1 10.2464 
*END

*D_NET *262 0.000550501
*CONN
*I *1967:A2 I *D sky130_fd_sc_hd__a2111oi_1
*I *1958:Y O *D sky130_fd_sc_hd__inv_2
*CAP
1 *1967:A2 0.000167853
2 *1958:Y 0.000167853
3 *1967:A2 *1967:A1 9.71601e-05
4 *1967:A2 *492:43 7.83587e-05
5 *1967:A2 *532:29 3.92757e-05
*RES
1 *1958:Y *1967:A2 30.4036 
*END

*D_NET *263 0.00164031
*CONN
*I *2257:A I *D sky130_fd_sc_hd__nor2_1
*I *2283:A2 I *D sky130_fd_sc_hd__o21ai_1
*I *2284:B I *D sky130_fd_sc_hd__or3_1
*I *2255:X O *D sky130_fd_sc_hd__and3_1
*CAP
1 *2257:A 0.000199667
2 *2283:A2 0
3 *2284:B 0.00016668
4 *2255:X 0
5 *263:12 0.0003117
6 *263:6 0.000344687
7 *2257:A *2257:B 0.000153752
8 *2257:A *2258:B 0
9 *2257:A *2437:A 2.09826e-05
10 *2257:A *528:23 6.5185e-05
11 *2284:B *266:10 0
12 *2284:B *292:10 0.000140368
13 *2284:B *292:20 0.000129868
14 *2284:B *297:8 0
15 *2284:B *529:42 0
16 *263:12 *2437:A 0
17 *263:12 *266:10 0
18 *263:12 *545:134 0
19 *2283:A1 *2284:B 1.91512e-05
20 *2283:A1 *263:12 4.1331e-06
21 *261:12 *2257:A 4.25427e-05
22 *261:12 *263:12 4.15914e-05
*RES
1 *2255:X *263:6 13.8 
2 *263:6 *263:12 2.60714 
3 *263:12 *2284:B 17.8714 
4 *263:12 *2283:A2 13.8 
5 *263:6 *2257:A 18.3179 
*END

*D_NET *264 0.00133804
*CONN
*I *2257:B I *D sky130_fd_sc_hd__nor2_1
*I *2256:Y O *D sky130_fd_sc_hd__a21oi_1
*CAP
1 *2257:B 0.000323272
2 *2256:Y 0.000323272
3 *2257:B *2260:A2 0
4 *2257:B *2437:A 5.33005e-05
5 *2257:B *265:6 3.18676e-05
6 *2257:B *265:10 0
7 *2257:B *493:83 0.000243627
8 *2257:B *528:23 0.000151333
9 *2257:A *2257:B 0.000153752
10 *261:12 *2257:B 5.7616e-05
*RES
1 *2256:Y *2257:B 35.1357 
*END

*D_NET *265 0.00106931
*CONN
*I *2258:B I *D sky130_fd_sc_hd__and2_1
*I *2260:A2 I *D sky130_fd_sc_hd__o21a_1
*I *2259:B I *D sky130_fd_sc_hd__nand2_1
*I *2257:Y O *D sky130_fd_sc_hd__nor2_1
*CAP
1 *2258:B 9.85965e-05
2 *2260:A2 0.000124217
3 *2259:B 0
4 *2257:Y 0.000104314
5 *265:10 0.000241813
6 *265:6 0.000320506
7 *2260:A2 *2264:B1 4.43157e-05
8 *2257:A *2258:B 0
9 *2257:B *2260:A2 0
10 *2257:B *265:6 3.18676e-05
11 *2257:B *265:10 0
12 *2258:A *2258:B 5.03787e-05
13 *2260:A1 *2260:A2 5.33005e-05
*RES
1 *2257:Y *265:6 11.0679 
2 *265:6 *265:10 1.78571 
3 *265:10 *2259:B 9.3 
4 *265:10 *2260:A2 11.4964 
5 *265:6 *2258:B 20.2464 
*END

*D_NET *266 0.000767513
*CONN
*I *2286:A I *D sky130_fd_sc_hd__or2_1
*I *2287:A I *D sky130_fd_sc_hd__nand2_1
*I *2258:X O *D sky130_fd_sc_hd__and2_1
*CAP
1 *2286:A 9.83863e-05
2 *2287:A 0
3 *2258:X 0.000261342
4 *266:10 0.000359728
5 *2286:A *2286:B 4.22908e-05
6 *2286:A *2287:B 5.7661e-06
7 *266:10 *529:42 0
8 *2284:B *266:10 0
9 *263:12 *266:10 0
*RES
1 *2258:X *266:10 22.3714 
2 *266:10 *2287:A 9.3 
3 *266:10 *2286:A 11.0857 
*END

*D_NET *267 0.000925443
*CONN
*I *2264:B1 I *D sky130_fd_sc_hd__a221o_1
*I *2259:Y O *D sky130_fd_sc_hd__nand2_1
*CAP
1 *2264:B1 0.000251557
2 *2259:Y 0.000251557
3 *2264:B1 *2264:B2 0.000152794
4 *2264:B1 *2264:C1 2.57503e-05
5 *2264:B1 *521:18 3.18676e-05
6 *2264:B1 *541:41 5.52238e-05
7 *2260:A1 *2264:B1 5.52302e-05
8 *2260:A2 *2264:B1 4.43157e-05
9 *2260:B1 *2264:B1 5.71472e-05
*RES
1 *2259:Y *2264:B1 23.6536 
*END

*D_NET *268 0.000481179
*CONN
*I *2264:B2 I *D sky130_fd_sc_hd__a221o_1
*I *2260:X O *D sky130_fd_sc_hd__o21a_1
*CAP
1 *2264:B2 0.00013881
2 *2260:X 0.00013881
3 *2264:B2 *2264:A1 9.11365e-06
4 *2264:B2 *2264:C1 6.26774e-06
5 *2264:B2 *541:41 9.25014e-06
6 *2264:B2 *566:22 2.61337e-05
7 *2264:B1 *2264:B2 0.000152794
8 *199:35 *2264:B2 0
*RES
1 *2260:X *2264:B2 29.8188 
*END

*D_NET *269 0.000399279
*CONN
*I *2262:B2 I *D sky130_fd_sc_hd__o22a_1
*I *2261:Y O *D sky130_fd_sc_hd__a21oi_1
*CAP
1 *2262:B2 0.000134295
2 *2261:Y 0.000134295
3 *2262:B2 *2261:A2 0
4 *2262:B2 *2262:A1 3.99614e-06
5 *2262:B2 *521:18 2.95726e-05
6 *2262:B2 *541:21 9.71197e-05
*RES
1 *2261:Y *2262:B2 21.1 
*END

*D_NET *270 0.000725717
*CONN
*I *2264:C1 I *D sky130_fd_sc_hd__a221o_1
*I *2262:X O *D sky130_fd_sc_hd__o22a_1
*CAP
1 *2264:C1 0.000227566
2 *2262:X 0.000227566
3 *2264:C1 *521:18 0.000238567
4 *2264:B1 *2264:C1 2.57503e-05
5 *2264:B2 *2264:C1 6.26774e-06
*RES
1 *2262:X *2264:C1 22.7429 
*END

*D_NET *271 0.000255265
*CONN
*I *2265:B1 I *D sky130_fd_sc_hd__a211o_1
*I *2263:X O *D sky130_fd_sc_hd__a32o_1
*CAP
1 *2265:B1 3.34035e-05
2 *2263:X 3.34035e-05
3 *2265:B1 *2241:A 8.7498e-05
4 *2265:B1 *2263:A1 0
5 *2265:B1 *326:22 0.00010096
*RES
1 *2263:X *2265:B1 19.975 
*END

*D_NET *272 0.00529112
*CONN
*I *2265:C1 I *D sky130_fd_sc_hd__a211o_1
*I *2264:X O *D sky130_fd_sc_hd__a221o_1
*CAP
1 *2265:C1 0.00237682
2 *2264:X 0.00237682
3 *2265:C1 *2202:A 0.000282485
4 *2265:C1 *326:22 4.1331e-06
5 *2265:C1 *525:120 6.56976e-05
6 *2265:C1 *551:49 8.99089e-05
7 *2235:B1 *2265:C1 6.56976e-05
8 *2265:A2 *2265:C1 0
9 *197:12 *2265:C1 2.95626e-05
*RES
1 *2264:X *2265:C1 41.511 
*END

*D_NET *273 0.00776669
*CONN
*I *2426:A I *D sky130_fd_sc_hd__buf_2
*I *2208:A I *D sky130_fd_sc_hd__xnor2_1
*I *2173:A1 I *D sky130_fd_sc_hd__a2111o_1
*I *1959:Y O *D sky130_fd_sc_hd__inv_2
*CAP
1 *2426:A 8.93269e-05
2 *2208:A 0.000837936
3 *2173:A1 0.000114603
4 *1959:Y 0.000371887
5 *273:18 0.00109431
6 *273:12 0.00060299
7 *2173:A1 *526:111 0.000155036
8 *2208:A *2175:B1 0.000786341
9 *2208:A *2215:A2 0
10 *2208:A *2216:A 0
11 *2208:A *326:39 0.000162832
12 *2208:A *326:47 0.000366401
13 *2208:A *524:78 0.00022266
14 *2208:A *526:111 0
15 *2208:A *549:62 0
16 *2426:A *2172:B 0.000135028
17 *2426:A *2293:A2 1.02936e-05
18 *2426:A *326:66 0.00010096
19 *273:12 *1959:A 2.89016e-05
20 *273:12 *2159:A 1.33343e-05
21 *273:12 *2236:A2 0.000239263
22 *273:12 *475:98 0.000232247
23 *273:12 *546:31 2.88018e-06
24 *273:18 *2172:B 9.90367e-05
25 *273:18 *326:47 1.53756e-05
26 *273:18 *475:98 0
27 *2161:A1 *273:12 0.000507413
28 *2163:B *2173:A1 0.00010326
29 *2163:B *273:18 7.25296e-05
30 *2172:A *2426:A 8.51796e-05
31 *2172:A *273:12 0
32 *2172:A *273:18 3.51442e-05
33 *2173:B1 *2426:A 4.08637e-05
34 *2173:B1 *273:18 0.00014285
35 *2173:D1 *273:18 6.05161e-06
36 *2175:A1 *2208:A 0
37 *2208:B *2208:A 0
38 *2210:B *2208:A 4.03318e-05
39 *2213:B1 *2208:A 0.000173083
40 *2215:B1 *2208:A 0.00026367
41 *2216:B *2208:A 0.000232399
42 *167:17 *273:12 0
43 *178:25 *273:18 5.8779e-05
44 *181:16 *2208:A 5.01117e-05
45 *219:38 *2426:A 5.71472e-05
46 *221:14 *2208:A 0.000216235
*RES
1 *1959:Y *273:12 28.175 
2 *273:12 *273:18 8.77679 
3 *273:18 *2173:A1 17.1661 
4 *273:18 *2208:A 45.2375 
5 *273:12 *2426:A 12.4429 
*END

*D_NET *274 0.00101936
*CONN
*I *2266:A_N I *D sky130_fd_sc_hd__nand2b_1
*I *2265:X O *D sky130_fd_sc_hd__a211o_1
*CAP
1 *2266:A_N 0.000350042
2 *2265:X 0.000350042
3 *2266:A_N *2239:A 4.53834e-05
4 *2266:A_N *2489:A 0
5 *2266:A_N *326:22 4.1331e-06
6 *2266:A_N *542:139 7.83587e-05
7 *2266:A_N *551:49 0.000191403
8 *2266:B *2266:A_N 0
9 *197:10 *2266:A_N 0
*RES
1 *2265:X *2266:A_N 34.1 
*END

*D_NET *275 0.00026593
*CONN
*I *2268:B I *D sky130_fd_sc_hd__xor2_1
*I *2267:Y O *D sky130_fd_sc_hd__nand2_1
*CAP
1 *2268:B 6.94858e-05
2 *2267:Y 6.94858e-05
3 *2268:B *2325:A1 0
4 *191:54 *2268:B 0.000126958
*RES
1 *2267:Y *2268:B 29.2429 
*END

*D_NET *276 0.00173931
*CONN
*I *2269:B I *D sky130_fd_sc_hd__xnor2_1
*I *2324:A2 I *D sky130_fd_sc_hd__a21o_1
*I *2268:X O *D sky130_fd_sc_hd__xor2_1
*CAP
1 *2269:B 0.000134301
2 *2324:A2 0
3 *2268:X 0.000338324
4 *276:10 0.000472625
5 *2269:B *2269:A 0.000313503
6 *276:10 *2268:A 9.90367e-05
7 *276:10 *2269:A 1.02504e-05
8 *276:10 *2325:A1 3.06511e-05
9 *2236:C1 *2269:B 0.00014285
10 *191:54 *2269:B 0
11 *191:54 *276:10 0
12 *192:74 *2269:B 1.08359e-05
13 *192:74 *276:10 0.000186929
*RES
1 *2268:X *276:10 20.0321 
2 *276:10 *2324:A2 13.8 
3 *276:10 *2269:B 17.7107 
*END

*D_NET *277 0.00132828
*CONN
*I *2270:C I *D sky130_fd_sc_hd__and3_1
*I *2271:B1 I *D sky130_fd_sc_hd__a21oi_1
*I *2269:Y O *D sky130_fd_sc_hd__xnor2_1
*CAP
1 *2270:C 6.67024e-05
2 *2271:B1 0
3 *2269:Y 0.00013619
4 *277:12 0.000202893
5 *2270:C *2294:B1 0.000125693
6 *2270:C *2489:A 9.90431e-05
7 *2270:A *2270:C 0.000385628
8 *2270:A *277:12 5.52302e-05
9 *2270:B *2270:C 3.24201e-05
10 *191:54 *277:12 0
11 *192:57 *2270:C 4.38128e-05
12 *192:57 *277:12 5.52302e-05
13 *192:74 *2270:C 5.52238e-05
14 *192:74 *277:12 5.26091e-05
15 *250:10 *277:12 1.76039e-05
*RES
1 *2269:Y *277:12 21.0857 
2 *277:12 *2271:B1 9.3 
3 *277:12 *2270:C 12.9786 
*END

*D_NET *278 0.000430771
*CONN
*I *2294:A2 I *D sky130_fd_sc_hd__o31ai_1
*I *2270:X O *D sky130_fd_sc_hd__and3_1
*CAP
1 *2294:A2 7.29783e-05
2 *2270:X 7.29783e-05
3 *2294:A2 *279:6 7.66879e-05
4 *2270:B *2294:A2 0.000208126
*RES
1 *2270:X *2294:A2 20.5732 
*END

*D_NET *279 0.00111831
*CONN
*I *2294:A3 I *D sky130_fd_sc_hd__o31ai_1
*I *2324:B1 I *D sky130_fd_sc_hd__a21o_1
*I *2271:Y O *D sky130_fd_sc_hd__a21oi_1
*CAP
1 *2294:A3 0
2 *2324:B1 0.00017313
3 *2271:Y 0.000130127
4 *279:6 0.000303257
5 *2324:B1 *326:66 5.52238e-05
6 *2324:B1 *519:112 5.71472e-05
7 *2324:B1 *542:139 0.000104786
8 *2270:B *279:6 5.72237e-05
9 *2294:A2 *279:6 7.66879e-05
10 *192:74 *2324:B1 0.000160732
*RES
1 *2271:Y *279:6 11.0679 
2 *279:6 *2324:B1 22.9071 
3 *279:6 *2294:A3 9.3 
*END

*D_NET *280 0.00222675
*CONN
*I *2316:A I *D sky130_fd_sc_hd__xnor2_2
*I *2346:A1 I *D sky130_fd_sc_hd__a21o_1
*I *2274:A I *D sky130_fd_sc_hd__or2_1
*I *2272:X O *D sky130_fd_sc_hd__and4_1
*CAP
1 *2316:A 3.56013e-05
2 *2346:A1 7.33266e-05
3 *2274:A 0
4 *2272:X 0.000142085
5 *280:23 0.000343001
6 *280:12 0.000376158
7 *2316:A *2315:A 8.66063e-05
8 *2346:A1 *2346:A2 0
9 *2346:A1 *529:42 0.000125724
10 *280:12 *2273:A1 9.90367e-05
11 *280:12 *2274:B 0.000145168
12 *280:12 *289:10 0.000120982
13 *280:12 *538:46 0
14 *280:12 *549:117 1.00375e-05
15 *280:12 *566:22 2.37761e-05
16 *280:23 *2274:B 9.90431e-05
17 *280:23 *2281:A_N 7.90792e-05
18 *280:23 *2315:A 0.000304394
19 *280:23 *288:18 0.000162733
*RES
1 *2272:X *280:12 21.8 
2 *280:12 *2274:A 9.3 
3 *280:12 *280:23 6.01786 
4 *280:23 *2346:A1 19.9429 
5 *280:23 *2316:A 10.2464 
*END

*D_NET *281 0.000606097
*CONN
*I *2274:B I *D sky130_fd_sc_hd__or2_1
*I *2273:Y O *D sky130_fd_sc_hd__a22oi_1
*CAP
1 *2274:B 0.000102377
2 *2273:Y 0.000102377
3 *2274:B *282:6 1.74352e-05
4 *2274:B *288:18 3.03304e-05
5 *2274:B *289:10 4.87953e-05
6 *2274:B *538:46 2.53504e-05
7 *2274:B *549:117 3.52194e-05
8 *280:12 *2274:B 0.000145168
9 *280:23 *2274:B 9.90431e-05
*RES
1 *2273:Y *2274:B 30.9036 
*END

*D_NET *282 0.00214833
*CONN
*I *2281:A_N I *D sky130_fd_sc_hd__nand2b_1
*I *2282:A I *D sky130_fd_sc_hd__xnor2_1
*I *2274:X O *D sky130_fd_sc_hd__or2_1
*CAP
1 *2281:A_N 0.000288209
2 *2282:A 0.000134702
3 *2274:X 0.000137252
4 *282:6 0.000560164
5 *2281:A_N *2281:B 2.59355e-05
6 *2281:A_N *527:31 0.000146324
7 *2281:A_N *566:22 0
8 *2282:A *2282:B 0.00021559
9 *2282:A *289:10 9.8958e-05
10 *2282:A *566:22 0.000307727
11 *282:6 *289:10 0.000136951
12 *2274:B *282:6 1.74352e-05
13 *280:23 *2281:A_N 7.90792e-05
*RES
1 *2274:X *282:6 11.0679 
2 *282:6 *2282:A 22.3714 
3 *282:6 *2281:A_N 22.9607 
*END

*D_NET *283 0.0184082
*CONN
*I *2156:C1 I *D sky130_fd_sc_hd__o211a_1
*I *2116:A I *D sky130_fd_sc_hd__xnor2_1
*I *2155:C1 I *D sky130_fd_sc_hd__a211o_1
*I *2070:A I *D sky130_fd_sc_hd__and3_1
*I *2072:B1 I *D sky130_fd_sc_hd__a21o_1
*I *2071:B1 I *D sky130_fd_sc_hd__a21oi_1
*I *2395:C I *D sky130_fd_sc_hd__or4b_1
*I *2015:A I *D sky130_fd_sc_hd__xnor2_2
*I *1960:Y O *D sky130_fd_sc_hd__inv_2
*CAP
1 *2156:C1 7.52894e-05
2 *2116:A 0.000736716
3 *2155:C1 0.000463674
4 *2070:A 0
5 *2072:B1 0
6 *2071:B1 0.000142744
7 *2395:C 0.000294844
8 *2015:A 6.1151e-05
9 *1960:Y 0
10 *283:104 0.00132588
11 *283:87 0.00202554
12 *283:54 0.000241931
13 *283:48 0.000191461
14 *283:24 0.00129788
15 *283:10 0.00172174
16 *283:4 0.00173558
17 *2015:A *2016:A 7.50601e-05
18 *2015:A *2057:B1 0.000148189
19 *2071:B1 *2071:A1 5.2027e-05
20 *2071:B1 *563:10 8.45367e-05
21 *2116:A *2130:C 0.000496602
22 *2116:A *501:14 2.36643e-05
23 *2156:C1 *567:72 4.57352e-05
24 *2395:C *2009:A1 0.000528343
25 *2395:C *2033:A 0.000154433
26 *2395:C *2395:D_N 0.00053026
27 *283:10 *1960:A 5.71472e-05
28 *283:10 *2086:C1 0
29 *283:10 *531:24 0
30 *283:10 *534:45 2.88018e-06
31 *283:10 *536:50 0.000315339
32 *283:10 *543:10 0.000282353
33 *283:24 *2033:A 6.57914e-05
34 *283:24 *2056:A 3.27359e-05
35 *283:24 *2067:A1 7.69776e-06
36 *283:48 *563:10 0.00014183
37 *283:54 *563:10 0.000253097
38 *283:87 *1960:A 0.000126572
39 *283:87 *2148:C1 0.000121594
40 *283:87 *2216:A 0
41 *283:87 *471:94 0.000226302
42 *283:87 *542:77 0
43 *283:87 *542:88 0.00018372
44 *283:87 *543:103 0
45 *283:87 *546:27 0.000276913
46 *283:104 *2130:C 0.000640854
47 *283:104 *2216:A 0
48 *2033:B *283:24 5.52302e-05
49 *2056:B *283:24 7.34161e-05
50 *2069:A *283:10 6.6477e-06
51 *2069:A *283:24 1.19191e-05
52 *2069:B *283:24 0
53 *2069:B *283:48 2.32517e-05
54 *2069:B *283:54 2.73444e-05
55 *2070:C *283:54 2.0954e-05
56 *2071:A2 *2071:B1 5.49489e-05
57 *2092:A *2155:C1 0.000898414
58 *2103:A2 *283:87 0
59 *2111:A0 *283:10 4.90937e-05
60 *2116:B *2116:A 0.000141729
61 *2146:A *283:87 1.83776e-05
62 *2147:B2 *283:87 1.96732e-05
63 *2148:B1 *283:87 9.40987e-05
64 *2155:B1 *2155:C1 2.97021e-05
65 *2156:A1 *283:104 0
66 *2156:B1 *2156:C1 5.80706e-06
67 *2494:A *283:10 7.98175e-05
68 *39:14 *283:24 0.000271345
69 *46:16 *283:24 0.000208334
70 *48:12 *283:10 0
71 *49:20 *283:24 4.55215e-05
72 *67:16 *283:10 0.000113061
73 *67:16 *283:24 0
74 *73:12 *283:24 0
75 *73:12 *283:48 5.52238e-05
76 *73:16 *283:48 5.52302e-05
77 *74:18 *2071:B1 4.0022e-05
78 *74:18 *283:54 2.95726e-05
79 *76:14 *2071:B1 5.52302e-05
80 *76:14 *283:54 0.000129515
81 *77:10 *2071:B1 2.18272e-05
82 *81:10 *283:10 0.000147835
83 *81:10 *283:48 5.52238e-05
84 *81:21 *283:10 0.000121416
85 *82:10 *283:24 0
86 *106:12 *283:87 5.48581e-05
87 *106:34 *283:87 6.31005e-05
88 *108:12 *283:87 7.49162e-06
89 *136:14 *2116:A 7.7755e-05
90 *161:14 *2155:C1 5.71472e-05
*RES
1 *1960:Y *283:4 9.3 
2 *283:4 *283:10 18.4643 
3 *283:10 *283:24 20.5577 
4 *283:24 *2015:A 20.2464 
5 *283:24 *2395:C 18.0679 
6 *283:10 *283:48 7.08929 
7 *283:48 *283:54 3.55357 
8 *283:54 *2071:B1 13.2821 
9 *283:54 *2072:B1 9.3 
10 *283:48 *2070:A 9.3 
11 *283:4 *283:87 24.9821 
12 *283:87 *2155:C1 23.6929 
13 *283:87 *283:104 12.9107 
14 *283:104 *2116:A 20.55 
15 *283:104 *2156:C1 19.9429 
*END

*D_NET *284 0.00236877
*CONN
*I *2279:A_N I *D sky130_fd_sc_hd__nand2b_1
*I *2280:A I *D sky130_fd_sc_hd__xnor2_1
*I *2275:X O *D sky130_fd_sc_hd__o21ba_1
*CAP
1 *2279:A_N 9.45967e-05
2 *2280:A 0
3 *2275:X 0.000432296
4 *284:12 0.000526893
5 *2279:A_N *2279:B 0.000227532
6 *284:12 *490:23 0.000507764
7 *284:12 *537:36 0.00023007
8 *2251:B *284:12 0.000221641
9 *2252:A *284:12 2.89114e-05
10 *2252:B *284:12 2.24195e-05
11 *254:12 *284:12 7.6644e-05
*RES
1 *2275:X *284:12 28.2107 
2 *284:12 *2280:A 9.3 
3 *284:12 *2279:A_N 11.4786 
*END

*D_NET *285 0.00198376
*CONN
*I *2496:A I *D sky130_fd_sc_hd__dlymetal6s2s_1
*I *2277:B1 I *D sky130_fd_sc_hd__a21oi_4
*I *2276:X O *D sky130_fd_sc_hd__and3_1
*CAP
1 *2496:A 3.93016e-05
2 *2277:B1 0.000137718
3 *2276:X 0.000114009
4 *285:12 0.000291028
5 *2277:B1 *2276:C 0.000380955
6 *2277:B1 *545:50 0.00011063
7 *2277:B1 *545:54 0.000106533
8 *2496:A *520:35 0.000139913
9 *2496:A *523:40 6.42095e-05
10 *2496:A *523:122 6.05161e-06
11 *285:12 *2248:A 3.34295e-05
12 *285:12 *520:35 0.000219711
13 *285:12 *520:56 0.000101545
14 *285:12 *523:40 0.000112995
15 *285:12 *548:16 0.000125731
*RES
1 *2276:X *285:12 22.1214 
2 *285:12 *2277:B1 23.5857 
3 *285:12 *2496:A 10.6571 
*END

*D_NET *286 0.00473016
*CONN
*I *2278:B I *D sky130_fd_sc_hd__xnor2_1
*I *2301:A3 I *D sky130_fd_sc_hd__a31oi_2
*I *2277:Y O *D sky130_fd_sc_hd__a21oi_4
*CAP
1 *2278:B 0.000887508
2 *2301:A3 0
3 *2277:Y 0.000108365
4 *286:10 0.000995873
5 *2278:B *1967:A1 0.000200413
6 *2278:B *2248:B 4.56437e-05
7 *2278:B *2276:C 0.000348582
8 *2278:B *523:51 2.63844e-05
9 *2278:B *523:88 0.000488468
10 *2278:B *545:38 0.000129185
11 *2278:B *545:50 0.000201182
12 *2278:B *545:115 7.48356e-05
13 *2278:B *548:14 0.000281242
14 *2278:B *548:16 0.00026367
15 *2278:B *548:96 0.000328628
16 *2278:B *549:18 0.000108397
17 *286:10 *2248:B 1.02504e-05
18 *286:10 *2276:C 9.24395e-05
19 *286:10 *2406:A 0.000125717
20 *286:10 *493:48 0
21 *2276:A *2278:B 1.33776e-05
*RES
1 *2277:Y *286:10 16.5857 
2 *286:10 *2301:A3 13.8 
3 *286:10 *2278:B 38.4429 
*END

*D_NET *287 0.00121923
*CONN
*I *2279:B I *D sky130_fd_sc_hd__nand2b_1
*I *2280:B I *D sky130_fd_sc_hd__xnor2_1
*I *2278:Y O *D sky130_fd_sc_hd__xnor2_1
*CAP
1 *2279:B 0.000106841
2 *2280:B 0
3 *2278:Y 0.000172628
4 *287:12 0.000279469
5 *2279:B *289:10 9.92528e-05
6 *2279:B *549:117 0.000114665
7 *287:12 *490:23 7.12607e-05
8 *287:12 *537:36 0.000147583
9 *2279:A_N *2279:B 0.000227532
*RES
1 *2278:Y *287:12 21.6036 
2 *287:12 *2280:B 9.3 
3 *287:12 *2279:B 12.858 
*END

*D_NET *288 0.00165416
*CONN
*I *2314:A1 I *D sky130_fd_sc_hd__a21oi_1
*I *2313:C I *D sky130_fd_sc_hd__and3_1
*I *2279:Y O *D sky130_fd_sc_hd__nand2b_1
*CAP
1 *2314:A1 6.61548e-05
2 *2313:C 0
3 *2279:Y 0.000381758
4 *288:18 0.000447912
5 *2314:A1 *2313:A 0.00021556
6 *2314:A1 *2313:B 3.80079e-05
7 *2314:A1 *290:18 2.59355e-05
8 *2314:A1 *534:96 1.72168e-05
9 *288:18 *2313:A 1.95435e-05
10 *288:18 *2315:A 4.78056e-05
11 *288:18 *289:10 8.86947e-05
12 *288:18 *534:96 1.16848e-05
13 *288:18 *566:22 0.000100823
14 *2274:B *288:18 3.03304e-05
15 *280:23 *288:18 0.000162733
*RES
1 *2279:Y *288:18 25.0321 
2 *288:18 *2313:C 9.3 
3 *288:18 *2314:A1 11.4071 
*END

*D_NET *289 0.002667
*CONN
*I *2282:B I *D sky130_fd_sc_hd__xnor2_1
*I *2281:B I *D sky130_fd_sc_hd__nand2b_1
*I *2280:Y O *D sky130_fd_sc_hd__xnor2_1
*CAP
1 *2282:B 0.000131293
2 *2281:B 0.000274406
3 *2280:Y 0.000235019
4 *289:10 0.000640719
5 *2281:B *2273:A1 5.33005e-05
6 *2281:B *2273:A2 3.21292e-05
7 *2282:B *525:120 0
8 *2282:B *527:41 4.78056e-05
9 *2282:B *549:117 0
10 *2282:B *566:22 1.41029e-05
11 *289:10 *549:117 0.000392923
12 *289:10 *566:22 1.01417e-05
13 *2274:B *289:10 4.87953e-05
14 *2279:B *289:10 9.92528e-05
15 *2281:A_N *2281:B 2.59355e-05
16 *2282:A *2282:B 0.00021559
17 *2282:A *289:10 9.8958e-05
18 *280:12 *289:10 0.000120982
19 *282:6 *289:10 0.000136951
20 *288:18 *289:10 8.86947e-05
*RES
1 *2280:Y *289:10 20.9071 
2 *289:10 *2281:B 18.0723 
3 *289:10 *2282:B 16.9607 
*END

*D_NET *290 0.00161619
*CONN
*I *2314:A2 I *D sky130_fd_sc_hd__a21oi_1
*I *2313:B I *D sky130_fd_sc_hd__and3_1
*I *2281:Y O *D sky130_fd_sc_hd__nand2b_1
*CAP
1 *2314:A2 1.63023e-05
2 *2313:B 0.000142156
3 *2281:Y 0.000302196
4 *290:18 0.000460654
5 *2313:B *323:16 3.99614e-06
6 *2313:B *325:8 0
7 *2313:B *534:96 5.52238e-05
8 *2314:A2 *323:16 1.3701e-05
9 *290:18 *2313:A 1.21258e-05
10 *290:18 *529:42 0.000343191
11 *290:18 *544:31 0.000202697
12 *2314:A1 *2313:B 3.80079e-05
13 *2314:A1 *290:18 2.59355e-05
*RES
1 *2281:Y *290:18 25.1214 
2 *290:18 *2313:B 11.925 
3 *290:18 *2314:A2 9.72857 
*END

*D_NET *291 0.00478372
*CONN
*I *2283:B1 I *D sky130_fd_sc_hd__o21ai_1
*I *2284:C I *D sky130_fd_sc_hd__or3_1
*I *2282:Y O *D sky130_fd_sc_hd__xnor2_1
*CAP
1 *2283:B1 0.000416835
2 *2284:C 0.000367562
3 *2282:Y 0.000271237
4 *291:8 0.00105563
5 *2283:B1 *2293:C1 2.06112e-05
6 *2283:B1 *493:83 0.000610064
7 *2283:B1 *549:119 0.000434641
8 *2283:B1 *566:22 0.000147294
9 *2284:C *2292:A3 0.000523458
10 *291:8 *549:119 0.000693205
11 *291:8 *566:22 0.000243184
*RES
1 *2282:Y *291:8 22.7286 
2 *291:8 *2284:C 20.5143 
3 *291:8 *2283:B1 25.2643 
*END

*D_NET *292 0.00239639
*CONN
*I *2285:A I *D sky130_fd_sc_hd__and2_1
*I *2319:A I *D sky130_fd_sc_hd__nand2_1
*I *2317:B I *D sky130_fd_sc_hd__or2_4
*I *2283:Y O *D sky130_fd_sc_hd__o21ai_1
*CAP
1 *2285:A 3.04135e-05
2 *2319:A 3.9663e-05
3 *2317:B 0
4 *2283:Y 0.000159577
5 *292:20 0.000452355
6 *292:10 0.000602682
7 *2285:A *2285:B 5.33005e-05
8 *2319:A *2319:B 6.49861e-05
9 *292:10 *493:83 5.42755e-05
10 *292:20 *2319:B 3.98559e-05
11 *292:20 *2320:A 6.76747e-05
12 *292:20 *2320:B 5.26184e-05
13 *292:20 *2374:A 9.90431e-05
14 *292:20 *2419:B1 0
15 *292:20 *297:8 0
16 *292:20 *297:14 0
17 *292:20 *328:12 8.69386e-05
18 *292:20 *334:8 2.06507e-05
19 *292:20 *545:134 0
20 *2283:A1 *292:10 3.31415e-05
21 *2284:A *292:10 9.27418e-05
22 *2284:A *292:20 0.000176234
23 *2284:B *292:10 0.000140368
24 *2284:B *292:20 0.000129868
*RES
1 *2283:Y *292:10 17.1036 
2 *292:10 *292:20 14.2321 
3 *292:20 *2317:B 9.3 
4 *292:20 *2319:A 10.2643 
5 *292:10 *2285:A 14.3357 
*END

*D_NET *293 0.000611007
*CONN
*I *2285:B I *D sky130_fd_sc_hd__and2_1
*I *2284:X O *D sky130_fd_sc_hd__or3_1
*CAP
1 *2285:B 0.000157
2 *2284:X 0.000157
3 *2285:B *545:134 0
4 *2254:B *2285:B 4.80729e-05
5 *2284:A *2285:B 0.000150618
6 *2285:A *2285:B 5.33005e-05
7 *259:24 *2285:B 4.50149e-05
*RES
1 *2284:X *2285:B 30.9036 
*END

*D_NET *294 0.0141017
*CONN
*I *2150:C1 I *D sky130_fd_sc_hd__o211a_1
*I *2035:A2 I *D sky130_fd_sc_hd__a221o_1
*I *2065:A I *D sky130_fd_sc_hd__xnor2_1
*I *1995:B I *D sky130_fd_sc_hd__and3_1
*I *1996:B1 I *D sky130_fd_sc_hd__a21oi_1
*I *1961:Y O *D sky130_fd_sc_hd__inv_2
*CAP
1 *2150:C1 0.000920731
2 *2035:A2 3.56702e-05
3 *2065:A 0.000529822
4 *1995:B 0.000192959
5 *1996:B1 0.000284045
6 *1961:Y 8.05472e-05
7 *294:36 0.00179573
8 *294:12 0.000566828
9 *294:10 0.00224922
10 *294:8 0.00193044
11 *1995:B *475:8 0.000265453
12 *1996:B1 *1982:B 0
13 *1996:B1 *1996:A1 9.90367e-05
14 *1996:B1 *2012:A 1.74352e-05
15 *1996:B1 *2012:B 5.33334e-05
16 *1996:B1 *2013:A1 0.00023252
17 *1996:B1 *518:88 0
18 *2035:A2 *485:19 3.99614e-06
19 *2065:A *483:12 0
20 *2065:A *484:12 0
21 *2150:C1 *1959:A 0
22 *2150:C1 *2101:B 0.000313241
23 *2150:C1 *2236:A2 6.87574e-05
24 *2150:C1 *2326:A 0.000126963
25 *2150:C1 *2497:A 0.000137983
26 *2150:C1 *550:80 0.000147211
27 *294:8 *543:59 2.59355e-05
28 *294:8 *543:72 2.89114e-05
29 *294:10 *1959:A 0
30 *294:10 *1982:A 0
31 *294:10 *1994:A 3.17067e-05
32 *294:10 *2008:B 0
33 *294:10 *2009:A1 0.000123288
34 *294:10 *2009:A2 0
35 *294:10 *2013:A0 5.5782e-05
36 *294:10 *2013:A1 2.61337e-05
37 *294:10 *456:31 0
38 *294:10 *517:62 0
39 *294:10 *518:101 0
40 *294:10 *524:33 0
41 *294:10 *543:59 0.000226745
42 *294:10 *550:80 0.000441447
43 *294:12 *2013:A1 0.000100969
44 *294:12 *518:88 0
45 *294:36 *2013:S 0.000346542
46 *294:36 *2039:A2 3.67142e-05
47 *294:36 *2040:A3 1.02936e-05
48 *294:36 *475:24 0.000357054
49 *2027:B1 *294:10 0.000106542
50 *2028:B1 *294:10 1.08359e-05
51 *2028:B1 *294:12 6.74815e-05
52 *2034:A2 *2065:A 6.65302e-05
53 *2035:B2 *2065:A 7.70134e-06
54 *2040:A2 *2035:A2 0
55 *2040:A2 *294:36 0.000230475
56 *2066:B *2065:A 0
57 *2150:A1 *2150:C1 7.72917e-05
58 *2150:B1 *2150:C1 1.97695e-05
59 *2395:B *294:10 0
60 *31:8 *294:36 9.71197e-05
61 *34:12 *2065:A 0
62 *34:20 *2065:A 9.92409e-05
63 *35:8 *2035:A2 1.45297e-05
64 *35:8 *2065:A 1.82657e-05
65 *35:8 *294:36 0.000146809
66 *39:14 *2065:A 1.72457e-05
67 *39:16 *2065:A 1.02936e-05
68 *41:20 *294:36 2.44318e-05
69 *103:34 *2150:C1 5.52238e-05
70 *107:10 *2150:C1 0.000828116
71 *219:23 *2150:C1 0.000340362
*RES
1 *1961:Y *294:8 14.7464 
2 *294:8 *294:10 18.6429 
3 *294:10 *294:12 2.55357 
4 *294:12 *1996:B1 20.1571 
5 *294:12 *1995:B 16.3893 
6 *294:10 *294:36 21.875 
7 *294:36 *2065:A 26.4964 
8 *294:36 *2035:A2 10.1795 
9 *294:8 *2150:C1 37.5143 
*END

*D_NET *295 0.000308427
*CONN
*I *2287:B I *D sky130_fd_sc_hd__nand2_1
*I *2286:B I *D sky130_fd_sc_hd__or2_1
*I *2285:X O *D sky130_fd_sc_hd__and2_1
*CAP
1 *2287:B 1.24159e-05
2 *2286:B 8.98304e-05
3 *2285:X 2.79386e-05
4 *295:6 0.000130185
5 *2286:A *2286:B 4.22908e-05
6 *2286:A *2287:B 5.7661e-06
*RES
1 *2285:X *295:6 9.83571 
2 *295:6 *2286:B 11.0857 
3 *295:6 *2287:B 9.72857 
*END

*D_NET *296 0.0012206
*CONN
*I *2292:A2 I *D sky130_fd_sc_hd__a311o_1
*I *2286:X O *D sky130_fd_sc_hd__or2_1
*CAP
1 *2292:A2 0.00045456
2 *2286:X 0.00045456
3 *2292:A2 *514:35 0.000151476
4 *2292:A2 *514:43 1.02504e-05
5 *2292:A2 *566:22 0.000149754
*RES
1 *2286:X *2292:A2 33.7786 
*END

*D_NET *297 0.00325644
*CONN
*I *2292:A3 I *D sky130_fd_sc_hd__a311o_1
*I *2322:A I *D sky130_fd_sc_hd__nor2_1
*I *2321:A I *D sky130_fd_sc_hd__nand2_1
*I *2323:A1 I *D sky130_fd_sc_hd__o21a_1
*I *2287:Y O *D sky130_fd_sc_hd__nand2_1
*CAP
1 *2292:A3 0.000297819
2 *2322:A 0
3 *2321:A 1.45455e-05
4 *2323:A1 1.40568e-05
5 *2287:Y 0.000110535
6 *297:18 0.000173451
7 *297:14 0.000315697
8 *297:8 0.000579201
9 *2321:A *2323:A2 1.10818e-05
10 *2321:A *514:58 9.7049e-06
11 *2323:A1 *2323:A2 2.89016e-05
12 *2323:A1 *514:58 5.52238e-05
13 *297:8 *529:42 0
14 *297:14 *2320:B 4.46186e-06
15 *297:14 *332:12 5.52238e-05
16 *297:14 *514:58 2.44318e-05
17 *297:14 *529:42 0
18 *297:18 *2322:B 5.7661e-06
19 *297:18 *2323:A2 4.59075e-05
20 *297:18 *332:12 0.000389348
21 *297:18 *514:58 0.000597628
22 *2284:B *297:8 0
23 *2284:C *2292:A3 0.000523458
24 *292:20 *297:8 0
25 *292:20 *297:14 0
*RES
1 *2287:Y *297:8 15.7464 
2 *297:8 *297:14 7.28571 
3 *297:14 *297:18 6.30357 
4 *297:18 *2323:A1 9.83571 
5 *297:18 *2321:A 9.72857 
6 *297:14 *2322:A 9.3 
7 *297:8 *2292:A3 20.0857 
*END

*D_NET *298 0.000908399
*CONN
*I *2289:B2 I *D sky130_fd_sc_hd__o22a_1
*I *2288:Y O *D sky130_fd_sc_hd__a21oi_1
*CAP
1 *2289:B2 0.000226901
2 *2288:Y 0.000226901
3 *2289:B2 *519:48 9.25014e-06
4 *2289:B2 *519:82 3.80953e-06
5 *2289:B2 *525:120 0.000306172
6 *2289:B2 *526:43 4.7099e-05
7 *2288:B1 *2289:B2 6.05161e-06
8 *2336:A2 *2289:B2 7.06861e-05
9 *188:78 *2289:B2 1.15281e-05
*RES
1 *2288:Y *2289:B2 32.6179 
*END

*D_NET *299 0.000671527
*CONN
*I *2292:B1 I *D sky130_fd_sc_hd__a311o_1
*I *2289:X O *D sky130_fd_sc_hd__o22a_1
*CAP
1 *2292:B1 0.00022472
2 *2289:X 0.00022472
3 *2292:B1 *2292:C1 1.02504e-05
4 *2292:B1 *2323:B1 6.05161e-06
5 *2292:B1 *2336:B1 0.000100476
6 *2292:B1 *2336:B2 3.404e-05
7 *2292:B1 *514:43 4.86282e-05
8 *2292:B1 *519:63 0
9 *2292:B1 *525:120 0
10 *2292:B1 *566:22 0
11 *199:43 *2292:B1 2.26424e-05
*RES
1 *2289:X *2292:B1 31.8143 
*END

*D_NET *300 0.000430213
*CONN
*I *2292:C1 I *D sky130_fd_sc_hd__a311o_1
*I *2290:X O *D sky130_fd_sc_hd__and2_1
*CAP
1 *2292:C1 0.00011188
2 *2290:X 0.00011188
3 *2292:C1 *2264:A1 9.33978e-07
4 *2292:C1 *514:35 4.62153e-05
5 *2292:B1 *2292:C1 1.02504e-05
6 *199:43 *2292:C1 0.000149054
*RES
1 *2290:X *2292:C1 30.0821 
*END

*D_NET *301 0.000607315
*CONN
*I *2293:B1 I *D sky130_fd_sc_hd__a211oi_1
*I *2291:X O *D sky130_fd_sc_hd__a32o_1
*CAP
1 *2293:B1 0.000192989
2 *2291:X 0.000192989
3 *2293:B1 *519:112 0.000189469
4 *197:18 *2293:B1 3.18676e-05
*RES
1 *2291:X *2293:B1 22.4214 
*END

*D_NET *302 0.00775278
*CONN
*I *2293:C1 I *D sky130_fd_sc_hd__a211oi_1
*I *2292:X O *D sky130_fd_sc_hd__a311o_1
*CAP
1 *2293:C1 0.00160435
2 *2292:X 0.00160435
3 *2293:C1 *2233:A2 0.0015891
4 *2293:C1 *2290:A 4.26757e-05
5 *2293:C1 *2418:B1 0.000427609
6 *2293:C1 *2419:B1 0.000412536
7 *2293:C1 *2441:A 0.00134601
8 *2293:C1 *490:53 0.000199651
9 *2293:C1 *519:90 4.29267e-05
10 *2293:C1 *519:100 1.29403e-05
11 *2293:C1 *537:26 0.000188945
12 *2293:C1 *565:18 0.000138184
13 *2293:C1 *566:22 9.59532e-06
14 *2265:A2 *2293:C1 0.000113277
15 *2283:B1 *2293:C1 2.06112e-05
*RES
1 *2292:X *2293:C1 42.2164 
*END

*D_NET *303 0.00125699
*CONN
*I *2294:B1 I *D sky130_fd_sc_hd__o31ai_1
*I *2293:Y O *D sky130_fd_sc_hd__a211oi_1
*CAP
1 *2294:B1 0.000271236
2 *2293:Y 0.000271236
3 *2294:B1 *519:112 5.71472e-05
4 *2265:A2 *2294:B1 0.000364967
5 *2270:A *2294:B1 2.68e-05
6 *2270:B *2294:B1 0.000139907
7 *2270:C *2294:B1 0.000125693
8 *197:12 *2294:B1 0
9 *197:18 *2294:B1 0
*RES
1 *2293:Y *2294:B1 34.5821 
*END

*D_NET *304 0.00143139
*CONN
*I *2122:A1_N I *D sky130_fd_sc_hd__o2bb2a_1
*I *2121:A1 I *D sky130_fd_sc_hd__o21bai_1
*I *1962:Y O *D sky130_fd_sc_hd__inv_2
*CAP
1 *2122:A1_N 0.000147787
2 *2121:A1 0.000238266
3 *1962:Y 0
4 *304:4 0.000386054
5 *2121:A1 *534:24 0.000577707
6 *2122:A1_N *2122:B2 0
7 *2121:A2 *2121:A1 5.71472e-05
8 *2122:B1 *2121:A1 2.44318e-05
*RES
1 *1962:Y *304:4 9.3 
2 *304:4 *2121:A1 24.5857 
3 *304:4 *2122:A1_N 11.7866 
*END

*D_NET *305 0.00200645
*CONN
*I *2299:A I *D sky130_fd_sc_hd__nor3_1
*I *2298:B1 I *D sky130_fd_sc_hd__o21a_1
*I *2295:Y O *D sky130_fd_sc_hd__nand2_1
*CAP
1 *2299:A 9.24964e-05
2 *2298:B1 0.000120257
3 *2295:Y 0.000152538
4 *305:8 0.000365292
5 *2298:B1 *2297:B2 5.58941e-05
6 *2298:B1 *2298:A1 6.74815e-05
7 *2298:B1 *2298:A2 0.00015484
8 *2298:B1 *2299:B 1.08359e-05
9 *2299:A *2295:A 3.89391e-05
10 *2299:A *2297:B2 0.000112323
11 *2299:A *2298:A2 4.46186e-06
12 *2299:A *2299:B 6.60598e-05
13 *2299:A *2299:C 7.91281e-05
14 *305:8 *2295:A 0.000260574
15 *305:8 *2296:A 9.71197e-05
16 *305:8 *2297:A1 0.000109578
17 *305:8 *2297:A2 1.98839e-05
18 *305:8 *2297:B1 0.000175892
19 *305:8 *523:66 2.28499e-05
*RES
1 *2295:Y *305:8 18.0321 
2 *305:8 *2298:B1 16.8893 
3 *305:8 *2299:A 16.5857 
*END

*D_NET *306 0.00297881
*CONN
*I *2347:A1 I *D sky130_fd_sc_hd__o211a_1
*I *2348:B1 I *D sky130_fd_sc_hd__a211oi_1
*I *2299:B I *D sky130_fd_sc_hd__nor3_1
*I *2298:A1 I *D sky130_fd_sc_hd__o21a_1
*I *2296:X O *D sky130_fd_sc_hd__and4_1
*CAP
1 *2347:A1 0.000102716
2 *2348:B1 0.000121962
3 *2299:B 0.00017638
4 *2298:A1 5.70757e-05
5 *2296:X 0
6 *306:30 0.000620934
7 *306:6 0.000233456
8 *306:4 0.000396257
9 *2298:A1 *2296:D 5.80706e-06
10 *2298:A1 *540:56 2.19684e-05
11 *2298:A1 *540:80 2.15363e-05
12 *2299:B *2295:A 0.000197809
13 *2299:B *2296:D 1.81709e-05
14 *2299:B *2297:B2 0.000219803
15 *2347:A1 *2347:A2 6.08004e-05
16 *2348:B1 *2348:A1 9.75232e-05
17 *2348:B1 *2348:C1 9.41642e-05
18 *2348:B1 *544:29 0.000149911
19 *306:30 *2297:A1 0.00014783
20 *306:30 *2297:A2 8.66355e-06
21 *306:30 *2347:A2 8.43535e-06
22 *306:30 *2347:C1 7.32272e-05
23 *2298:B1 *2298:A1 6.74815e-05
24 *2298:B1 *2299:B 1.08359e-05
25 *2299:A *2299:B 6.60598e-05
*RES
1 *2296:X *306:4 9.3 
2 *306:4 *306:6 4.5 
3 *306:6 *2298:A1 15.4429 
4 *306:6 *2299:B 18.0143 
5 *306:4 *306:30 5.07143 
6 *306:30 *2348:B1 21.1929 
7 *306:30 *2347:A1 11.0857 
*END

*D_NET *307 0.0012563
*CONN
*I *2299:C I *D sky130_fd_sc_hd__nor3_1
*I *2298:A2 I *D sky130_fd_sc_hd__o21a_1
*I *2297:Y O *D sky130_fd_sc_hd__a22oi_1
*CAP
1 *2299:C 8.74916e-05
2 *2298:A2 0.000137773
3 *2297:Y 0
4 *307:6 0.000225264
5 *2298:A2 *2348:A2 0.000144773
6 *2298:A2 *540:56 0
7 *2298:A2 *566:22 0.000222878
8 *2299:C *2295:A 0
9 *2299:C *566:22 0.000199691
10 *2298:B1 *2298:A2 0.00015484
11 *2299:A *2298:A2 4.46186e-06
12 *2299:A *2299:C 7.91281e-05
*RES
1 *2297:Y *307:6 13.8 
2 *307:6 *2298:A2 18.0143 
3 *307:6 *2299:C 16.3536 
*END

*D_NET *308 8.41812e-05
*CONN
*I *2300:A I *D sky130_fd_sc_hd__nor2_1
*I *2298:X O *D sky130_fd_sc_hd__o21a_1
*CAP
1 *2300:A 2.76349e-05
2 *2298:X 2.76349e-05
3 *2300:A *2348:A2 2.89114e-05
*RES
1 *2298:X *2300:A 19.1357 
*END

*D_NET *309 0.00201787
*CONN
*I *2347:A2 I *D sky130_fd_sc_hd__o211a_1
*I *2348:C1 I *D sky130_fd_sc_hd__a211oi_1
*I *2300:B I *D sky130_fd_sc_hd__nor2_1
*I *2299:Y O *D sky130_fd_sc_hd__nor3_1
*CAP
1 *2347:A2 0.000132682
2 *2348:C1 0.000187659
3 *2300:B 0
4 *2299:Y 0.000204909
5 *309:14 0.000294058
6 *309:10 0.000443991
7 *2347:A2 *2347:C1 9.71197e-05
8 *2348:C1 *2348:A1 5.33005e-05
9 *2348:C1 *2348:A2 4.24803e-05
10 *309:10 *2295:A 4.05548e-05
11 *309:10 *527:12 4.46186e-06
12 *309:10 *534:96 0.000117896
13 *309:10 *544:29 1.0562e-05
14 *309:10 *544:31 3.37567e-05
15 *309:14 *534:96 3.34366e-05
16 *309:14 *544:29 0.000100009
17 *309:14 *566:22 5.75896e-05
18 *2347:A1 *2347:A2 6.08004e-05
19 *2348:B1 *2348:C1 9.41642e-05
20 *306:30 *2347:A2 8.43535e-06
*RES
1 *2299:Y *309:10 17.2107 
2 *309:10 *309:14 7.05357 
3 *309:14 *2300:B 9.3 
4 *309:14 *2348:C1 12.7464 
5 *309:10 *2347:A2 16.4071 
*END

*D_NET *310 0.00157901
*CONN
*I *2311:A I *D sky130_fd_sc_hd__nand2_1
*I *2310:A I *D sky130_fd_sc_hd__or2_1
*I *2300:Y O *D sky130_fd_sc_hd__nor2_1
*CAP
1 *2311:A 0.000167534
2 *2310:A 0
3 *2300:Y 0.000285133
4 *310:12 0.000452667
5 *2311:A *2311:B 0.000135332
6 *2311:A *2312:A 5.71472e-05
7 *2311:A *2312:B 9.99644e-06
8 *2311:A *2369:B 1.24368e-05
9 *2311:A *323:16 0.00010096
10 *310:12 *2311:B 9.90431e-05
11 *310:12 *544:29 0.000153182
12 *310:12 *566:22 0.000105583
*RES
1 *2300:Y *310:12 24.6571 
2 *310:12 *2310:A 9.3 
3 *310:12 *2311:A 13.1393 
*END

*D_NET *311 0.00259602
*CONN
*I *2309:A I *D sky130_fd_sc_hd__xnor2_1
*I *2308:A I *D sky130_fd_sc_hd__or3_1
*I *2301:Y O *D sky130_fd_sc_hd__a31oi_2
*CAP
1 *2309:A 2.3671e-05
2 *2308:A 0.000174181
3 *2301:Y 0.000325397
4 *311:10 0.00052325
5 *2308:A *2308:C 0.000129531
6 *2308:A *2309:B 8.66228e-05
7 *2308:A *519:23 0.000202128
8 *2309:A *2410:A 5.52302e-05
9 *311:10 *2309:B 1.76135e-05
10 *311:10 *2354:B 0.000102197
11 *311:10 *2391:B 9.90367e-05
12 *311:10 *2407:A2 0.000310286
13 *311:10 *2407:B1 3.18676e-05
14 *311:10 *2409:A 0.000221628
15 *311:10 *2432:A 3.67142e-05
16 *311:10 *519:23 0.000165254
17 *311:10 *523:6 1.97865e-05
18 *311:10 *525:14 2.61099e-05
19 *311:10 *555:12 4.55135e-05
20 *311:10 *566:22 0
*RES
1 *2301:Y *311:10 23.1571 
2 *311:10 *2308:A 18.1214 
3 *311:10 *2309:A 14.3357 
*END

*D_NET *312 0.00190135
*CONN
*I *2305:B1 I *D sky130_fd_sc_hd__o21a_1
*I *2306:A I *D sky130_fd_sc_hd__nor3_1
*I *2302:Y O *D sky130_fd_sc_hd__nand2_1
*CAP
1 *2305:B1 7.90218e-05
2 *2306:A 8.27176e-05
3 *2302:Y 0.000102058
4 *312:6 0.000263797
5 *2305:B1 *520:16 0.000176797
6 *2305:B1 *566:20 1.33343e-05
7 *2305:B1 *571:14 0.000125723
8 *2306:A *317:12 0.000173097
9 *2306:A *375:14 6.8646e-06
10 *2306:A *519:8 7.73758e-05
11 *312:6 *2302:A 0.000268403
12 *312:6 *313:8 5.91367e-05
13 *312:6 *375:14 0.000353079
14 *312:6 *448:42 1.74352e-05
15 *312:6 *520:16 9.50797e-05
16 *312:6 *571:14 7.43578e-06
*RES
1 *2302:Y *312:6 13.9429 
2 *312:6 *2306:A 20.55 
3 *312:6 *2305:B1 12.175 
*END

*D_NET *313 0.00363768
*CONN
*I *2306:B I *D sky130_fd_sc_hd__nor3_1
*I *2305:A1 I *D sky130_fd_sc_hd__o21a_1
*I *2361:A I *D sky130_fd_sc_hd__nor3_1
*I *2362:A1 I *D sky130_fd_sc_hd__o21a_1
*I *2303:X O *D sky130_fd_sc_hd__and3_1
*CAP
1 *2306:B 0.000144952
2 *2305:A1 0
3 *2361:A 7.70193e-05
4 *2362:A1 9.3994e-05
5 *2303:X 0.000370555
6 *313:32 0.000168195
7 *313:10 0.000218683
8 *313:8 0.000441468
9 *2306:B *2306:C 0.000297347
10 *2306:B *2363:A 5.62914e-05
11 *2306:B *2363:B 1.98839e-05
12 *2306:B *490:12 1.39841e-05
13 *2306:B *493:14 0.000219711
14 *2361:A *2361:B 1.32552e-05
15 *2361:A *2361:C 5.52302e-05
16 *2361:A *2363:A 0.00010096
17 *2362:A1 *2361:B 2.44318e-05
18 *2362:A1 *2361:C 0.000214192
19 *2362:A1 *314:10 0.000371059
20 *2362:A1 *375:14 0.00014183
21 *313:8 *2302:A 3.18676e-05
22 *313:8 *571:14 0.000309266
23 *313:10 *2363:A 2.56601e-05
24 *313:10 *314:10 9.30022e-05
25 *313:10 *571:14 0
26 *313:32 *2306:C 1.02504e-05
27 *313:32 *2363:A 1.88048e-05
28 *313:32 *314:10 4.66511e-05
29 *312:6 *313:8 5.91367e-05
*RES
1 *2303:X *313:8 18.8536 
2 *313:8 *313:10 1.33929 
3 *313:10 *2362:A1 17.9429 
4 *313:10 *2361:A 15.5679 
5 *313:8 *313:32 0.732143 
6 *313:32 *2305:A1 13.8 
7 *313:32 *2306:B 18.2286 
*END

*D_NET *314 0.00228857
*CONN
*I *2306:C I *D sky130_fd_sc_hd__nor3_1
*I *2305:A2 I *D sky130_fd_sc_hd__o21a_1
*I *2304:Y O *D sky130_fd_sc_hd__a21oi_1
*CAP
1 *2306:C 0.000153299
2 *2305:A2 0
3 *2304:Y 0.000240167
4 *314:10 0.000393466
5 *2306:C *2363:B 9.41642e-05
6 *2306:C *377:8 1.91414e-05
7 *2306:C *490:12 2.28499e-05
8 *2306:C *493:14 0
9 *2306:C *566:20 0.000144038
10 *314:10 *2304:B1 5.30637e-06
11 *314:10 *2361:B 0.000230482
12 *314:10 *2362:A2 5.52238e-05
13 *314:10 *317:12 0
14 *314:10 *375:14 4.88637e-05
15 *314:10 *377:8 6.32633e-05
16 *2306:B *2306:C 0.000297347
17 *2362:A1 *314:10 0.000371059
18 *313:10 *314:10 9.30022e-05
19 *313:32 *2306:C 1.02504e-05
20 *313:32 *314:10 4.66511e-05
*RES
1 *2304:Y *314:10 20.8893 
2 *314:10 *2305:A2 13.8 
3 *314:10 *2306:C 18.1393 
*END

*D_NET *315 0.00242845
*CONN
*I *2186:C I *D sky130_fd_sc_hd__or4b_4
*I *1964:B I *D sky130_fd_sc_hd__and3b_2
*I *2181:D1 I *D sky130_fd_sc_hd__o2111a_1
*I *1963:Y O *D sky130_fd_sc_hd__nor2_1
*CAP
1 *2186:C 8.96647e-05
2 *1964:B 0
3 *2181:D1 4.8153e-05
4 *1963:Y 0.000190667
5 *315:23 0.000352608
6 *315:8 0.000501763
7 *2181:D1 *326:22 5.52302e-05
8 *2181:D1 *530:45 6.3545e-05
9 *315:8 *1963:A 0
10 *315:8 *1963:B 9.22948e-05
11 *315:8 *2185:C 2.39876e-05
12 *315:8 *2191:A_N 0.000199706
13 *315:8 *511:97 0.000198698
14 *315:8 *530:45 5.16492e-05
15 *2181:B1 *2181:D1 3.85735e-05
16 *2181:B1 *315:8 4.78056e-05
17 *188:10 *2186:C 0
18 *192:10 *2186:C 7.6644e-05
19 *192:37 *2181:D1 5.33005e-05
20 *192:37 *315:23 9.02331e-05
21 *197:60 *2186:C 4.27935e-05
22 *197:60 *315:23 0.000178847
23 *230:32 *315:8 3.22834e-05
*RES
1 *1963:Y *315:8 19.6929 
2 *315:8 *2181:D1 15.3714 
3 *315:8 *315:23 7.91071 
4 *315:23 *1964:B 9.3 
5 *315:23 *2186:C 19.8714 
*END

*D_NET *316 0.00105118
*CONN
*I *2308:B I *D sky130_fd_sc_hd__or3_1
*I *2307:A I *D sky130_fd_sc_hd__nor2_1
*I *2305:X O *D sky130_fd_sc_hd__o21a_1
*CAP
1 *2308:B 4.29108e-05
2 *2307:A 0
3 *2305:X 0.000119486
4 *316:8 0.000162397
5 *2308:B *2308:C 3.45894e-05
6 *2308:B *2309:B 7.83659e-05
7 *2308:B *566:20 1.50563e-05
8 *2308:B *566:22 0.000117421
9 *316:8 *2408:B1 7.15591e-05
10 *316:8 *317:12 0.000195547
11 *316:8 *317:30 0.000126439
12 *316:8 *377:8 7.73662e-05
13 *316:8 *566:20 1.00375e-05
*RES
1 *2305:X *316:8 17.8714 
2 *316:8 *2307:A 13.8 
3 *316:8 *2308:B 15.7464 
*END

*D_NET *317 0.0032589
*CONN
*I *2307:B I *D sky130_fd_sc_hd__nor2_1
*I *2308:C I *D sky130_fd_sc_hd__or3_1
*I *2361:B I *D sky130_fd_sc_hd__nor3_1
*I *2362:A2 I *D sky130_fd_sc_hd__o21a_1
*I *2306:Y O *D sky130_fd_sc_hd__nor3_1
*CAP
1 *2307:B 3.34397e-05
2 *2308:C 0.000145782
3 *2361:B 0.000244959
4 *2362:A2 3.7533e-05
5 *2306:Y 7.26505e-05
6 *317:30 0.000223281
7 *317:12 0.000586148
8 *317:8 0.000420366
9 *2307:B *2309:B 1.58163e-05
10 *2308:C *2309:B 0.000148903
11 *2308:C *519:23 0.000106299
12 *2361:B *2361:C 1.74352e-05
13 *317:8 *490:12 9.60939e-05
14 *317:12 *2304:A1 0
15 *317:12 *375:14 0
16 *317:12 *377:8 6.12813e-05
17 *317:12 *519:8 7.79781e-06
18 *317:12 *519:23 1.88048e-05
19 *317:30 *519:23 3.9718e-05
20 *2306:A *317:12 0.000173097
21 *2308:A *2308:C 0.000129531
22 *2308:B *2308:C 3.45894e-05
23 *2361:A *2361:B 1.32552e-05
24 *2362:A1 *2361:B 2.44318e-05
25 *314:10 *2361:B 0.000230482
26 *314:10 *2362:A2 5.52238e-05
27 *314:10 *317:12 0
28 *316:8 *317:12 0.000195547
29 *316:8 *317:30 0.000126439
*RES
1 *2306:Y *317:8 14.7464 
2 *317:8 *317:12 11 
3 *317:12 *2362:A2 9.83571 
4 *317:12 *2361:B 13.1393 
5 *317:8 *317:30 1.64286 
6 *317:30 *2308:C 18.1393 
7 *317:30 *2307:B 14.3357 
*END

*D_NET *318 0.000836951
*CONN
*I *2309:B I *D sky130_fd_sc_hd__xnor2_1
*I *2307:Y O *D sky130_fd_sc_hd__nor2_1
*CAP
1 *2309:B 0.000175402
2 *2307:Y 0.000175402
3 *2309:B *566:22 0.000138826
4 *2307:B *2309:B 1.58163e-05
5 *2308:A *2309:B 8.66228e-05
6 *2308:B *2309:B 7.83659e-05
7 *2308:C *2309:B 0.000148903
8 *311:10 *2309:B 1.76135e-05
*RES
1 *2307:Y *2309:B 32.5107 
*END

*D_NET *319 0.00249899
*CONN
*I *2366:A I *D sky130_fd_sc_hd__and3_1
*I *2367:A1 I *D sky130_fd_sc_hd__a21oi_1
*I *2308:X O *D sky130_fd_sc_hd__or3_1
*CAP
1 *2366:A 8.3713e-05
2 *2367:A1 6.56749e-05
3 *2308:X 0.000530882
4 *319:10 0.00068027
5 *2366:A *2366:C 9.0573e-05
6 *2366:A *2367:A2 0
7 *2366:A *320:12 0
8 *2367:A1 *2367:B1 0.000196968
9 *2367:A1 *555:12 0.000357048
10 *319:10 *2365:A 0.000102207
11 *319:10 *2365:B 1.74352e-05
12 *319:10 *2366:C 5.83304e-05
13 *319:10 *2367:A2 0
14 *319:10 *2411:B 0
15 *319:10 *381:8 0.000315894
16 *319:10 *383:10 0
*RES
1 *2308:X *319:10 22.7107 
2 *319:10 *2367:A1 17.2107 
3 *319:10 *2366:A 15.4429 
*END

*D_NET *320 0.00202225
*CONN
*I *2311:B I *D sky130_fd_sc_hd__nand2_1
*I *2310:B I *D sky130_fd_sc_hd__or2_1
*I *2309:Y O *D sky130_fd_sc_hd__xnor2_1
*CAP
1 *2311:B 0.00016193
2 *2310:B 0
3 *2309:Y 0.000475644
4 *320:12 0.000637574
5 *2311:B *2312:A 5.71472e-05
6 *2311:B *2312:B 2.89114e-05
7 *320:12 *2312:B 0
8 *320:12 *2366:C 0
9 *320:12 *2409:A 0.000101545
10 *320:12 *2409:B 0.000139913
11 *320:12 *2410:A 5.04589e-05
12 *320:12 *322:23 0
13 *320:12 *368:14 1.08359e-05
14 *320:12 *381:8 0
15 *320:12 *382:8 0
16 *320:12 *544:29 0.000123912
17 *320:12 *566:22 0
18 *2311:A *2311:B 0.000135332
19 *2366:A *320:12 0
20 *310:12 *2311:B 9.90431e-05
*RES
1 *2309:Y *320:12 27.9964 
2 *320:12 *2310:B 9.3 
3 *320:12 *2311:B 13.6929 
*END

*D_NET *321 0.000126884
*CONN
*I *2312:A I *D sky130_fd_sc_hd__nand2_1
*I *2310:X O *D sky130_fd_sc_hd__or2_1
*CAP
1 *2312:A 6.29488e-06
2 *2310:X 6.29488e-06
3 *2311:A *2312:A 5.71472e-05
4 *2311:B *2312:A 5.71472e-05
*RES
1 *2310:X *2312:A 19.1357 
*END

*D_NET *322 0.00142961
*CONN
*I *2367:A2 I *D sky130_fd_sc_hd__a21oi_1
*I *2366:B I *D sky130_fd_sc_hd__and3_1
*I *2312:B I *D sky130_fd_sc_hd__nand2_1
*I *2311:Y O *D sky130_fd_sc_hd__nand2_1
*CAP
1 *2367:A2 0.000266784
2 *2366:B 3.89379e-05
3 *2312:B 0.000126681
4 *2311:Y 0
5 *322:23 0.00035245
6 *322:4 0.000173409
7 *2312:B *382:8 2.60251e-05
8 *2366:B *544:18 2.27416e-05
9 *2367:A2 *382:8 1.19309e-05
10 *2367:A2 *383:10 0.000245342
11 *2367:A2 *544:18 4.97621e-05
12 *322:23 *382:8 7.6644e-05
13 *2311:A *2312:B 9.99644e-06
14 *2311:B *2312:B 2.89114e-05
15 *2366:A *2367:A2 0
16 *319:10 *2367:A2 0
17 *320:12 *2312:B 0
18 *320:12 *322:23 0
*RES
1 *2311:Y *322:4 9.3 
2 *322:4 *2312:B 20.2821 
3 *322:4 *322:23 10.0357 
4 *322:23 *2366:B 9.83571 
5 *322:23 *2367:A2 23.2286 
*END

*D_NET *323 0.00367326
*CONN
*I *2313:A I *D sky130_fd_sc_hd__and3_1
*I *2314:B1 I *D sky130_fd_sc_hd__a21oi_1
*I *2312:Y O *D sky130_fd_sc_hd__nand2_1
*CAP
1 *2313:A 0.000356395
2 *2314:B1 0
3 *2312:Y 0.000738677
4 *323:16 0.00109507
5 *2313:A *2346:A2 3.36025e-05
6 *2313:A *534:96 2.95726e-05
7 *323:16 *2346:A2 3.55937e-05
8 *323:16 *2349:A 0
9 *323:16 *2368:A1 0
10 *323:16 *2371:A 0
11 *323:16 *2389:A 0
12 *323:16 *325:8 9.60875e-05
13 *323:16 *360:10 0
14 *323:16 *529:22 0.000557559
15 *323:16 *529:42 0.000364818
16 *323:16 *544:29 0
17 *2311:A *323:16 0.00010096
18 *2313:B *323:16 3.99614e-06
19 *2314:A1 *2313:A 0.00021556
20 *2314:A2 *323:16 1.3701e-05
21 *288:18 *2313:A 1.95435e-05
22 *290:18 *2313:A 1.21258e-05
*RES
1 *2312:Y *323:16 34.4071 
2 *323:16 *2314:B1 9.3 
3 *323:16 *2313:A 14.2821 
*END

*D_NET *324 0.00228179
*CONN
*I *2315:A I *D sky130_fd_sc_hd__nor2_4
*I *2313:X O *D sky130_fd_sc_hd__and3_1
*CAP
1 *2315:A 0.000710448
2 *2313:X 0.000710448
3 *2315:A *327:6 0.000230206
4 *2315:A *527:31 0.000114111
5 *2315:A *534:96 5.58941e-05
6 *2315:A *566:22 2.18827e-05
7 *2316:A *2315:A 8.66063e-05
8 *280:23 *2315:A 0.000304394
9 *288:18 *2315:A 4.78056e-05
*RES
1 *2313:X *2315:A 40.8679 
*END

*D_NET *325 0.00151742
*CONN
*I *2315:B I *D sky130_fd_sc_hd__nor2_4
*I *2346:B1 I *D sky130_fd_sc_hd__a21o_1
*I *2314:Y O *D sky130_fd_sc_hd__a21oi_1
*CAP
1 *2315:B 0.000303988
2 *2346:B1 0
3 *2314:Y 0.000133624
4 *325:8 0.000437612
5 *2315:B *2346:A2 0.000232399
6 *2315:B *360:10 0.000106455
7 *2315:B *388:12 0
8 *2315:B *431:10 0.000175526
9 *325:8 *2346:A2 3.1725e-05
10 *2313:B *325:8 0
11 *323:16 *325:8 9.60875e-05
*RES
1 *2314:Y *325:8 11.8 
2 *325:8 *2346:B1 9.3 
3 *325:8 *2315:B 25.6036 
*END

*D_NET *326 0.0162194
*CONN
*I *2265:A1 I *D sky130_fd_sc_hd__a211o_1
*I *2213:A2 I *D sky130_fd_sc_hd__a22o_1
*I *2417:B2 I *D sky130_fd_sc_hd__a32o_1
*I *2380:A1 I *D sky130_fd_sc_hd__a211o_1
*I *2337:A1 I *D sky130_fd_sc_hd__a31o_1
*I *2293:A1 I *D sky130_fd_sc_hd__a211oi_1
*I *2236:A1 I *D sky130_fd_sc_hd__a211o_1
*I *2175:B1 I *D sky130_fd_sc_hd__o21a_1
*I *1964:X O *D sky130_fd_sc_hd__and3b_2
*CAP
1 *2265:A1 0
2 *2213:A2 0
3 *2417:B2 0
4 *2380:A1 0.000191304
5 *2337:A1 0.000140332
6 *2293:A1 0
7 *2236:A1 0
8 *2175:B1 0.00033899
9 *1964:X 0.000947106
10 *326:100 0.000984986
11 *326:79 0.00113712
12 *326:66 0.000597604
13 *326:47 0.000575587
14 *326:39 0.000244528
15 *326:26 0.000857066
16 *326:22 0.00140175
17 *2175:B1 *524:78 1.98839e-05
18 *2175:B1 *549:82 4.88546e-05
19 *2337:A1 *2332:C 0.000125717
20 *2337:A1 *2337:B1 0.000127983
21 *2337:A1 *343:23 3.54839e-05
22 *2337:A1 *542:139 1.20729e-05
23 *2380:A1 *2417:A2 0
24 *2380:A1 *2417:B1 0.000356053
25 *2380:A1 *2418:C1 4.12921e-06
26 *2380:A1 *553:30 0.000340059
27 *326:22 *1964:A_N 0.000241886
28 *326:22 *2240:A 0.00010047
29 *326:22 *2241:A 0.000109061
30 *326:22 *2263:A2 0.000357952
31 *326:22 *524:97 2.17375e-05
32 *326:22 *530:45 5.52302e-05
33 *326:22 *542:139 0
34 *326:26 *2241:A 0.000220533
35 *326:26 *524:78 0.000681415
36 *326:47 *516:25 0.000171862
37 *326:66 *2236:A2 7.73662e-05
38 *326:66 *2293:A2 0.000817234
39 *326:66 *516:25 2.89016e-05
40 *326:66 *519:112 0.000160358
41 *326:79 *519:112 4.08637e-05
42 *326:79 *542:139 0.000413587
43 *326:100 *565:28 0.000306855
44 *2181:B1 *326:22 5.71472e-05
45 *2181:D1 *326:22 5.52302e-05
46 *2196:A *326:22 0.000146513
47 *2208:A *2175:B1 0.000786341
48 *2208:A *326:39 0.000162832
49 *2208:A *326:47 0.000366401
50 *2211:A *2175:B1 9.71197e-05
51 *2211:A *326:26 5.33005e-05
52 *2211:A *326:39 0.000197984
53 *2211:A *326:47 2.48938e-05
54 *2212:A2 *2175:B1 3.9846e-05
55 *2212:A2 *326:26 4.43256e-05
56 *2213:B1 *326:39 1.08359e-05
57 *2236:B1 *326:47 5.7661e-06
58 *2236:C1 *326:47 9.7049e-06
59 *2237:B1 *326:47 5.33433e-05
60 *2265:A2 *326:22 4.46186e-06
61 *2265:A2 *326:26 5.52302e-05
62 *2265:A2 *326:79 0.000365533
63 *2265:B1 *326:22 0.00010096
64 *2265:C1 *326:22 4.1331e-06
65 *2266:A_N *326:22 4.1331e-06
66 *2324:B1 *326:66 5.52238e-05
67 *2426:A *326:66 0.00010096
68 *50:37 *2337:A1 0.000160484
69 *50:37 *326:79 1.92931e-05
70 *50:37 *326:100 1.94879e-05
71 *178:25 *326:47 0.00034496
72 *191:54 *326:66 0
73 *192:37 *326:22 9.20618e-05
74 *192:87 *2337:A1 0.000172121
75 *197:10 *326:22 0
76 *215:12 *2175:B1 0.000144941
77 *219:38 *326:66 9.02232e-05
78 *247:8 *326:26 6.62898e-05
79 *273:18 *326:47 1.53756e-05
*RES
1 *1964:X *326:22 42.7821 
2 *326:22 *326:26 12.875 
3 *326:26 *2175:B1 19.3 
4 *326:26 *326:39 7.05357 
5 *326:39 *326:47 11.7857 
6 *326:47 *2236:A1 9.3 
7 *326:47 *326:66 20.375 
8 *326:66 *2293:A1 9.3 
9 *326:66 *326:79 11.0089 
10 *326:79 *2337:A1 18.6304 
11 *326:79 *326:100 18.0446 
12 *326:100 *2380:A1 24.05 
13 *326:100 *2417:B2 9.3 
14 *326:39 *2213:A2 13.8 
15 *326:22 *2265:A1 9.3 
*END

*D_NET *327 0.00134214
*CONN
*I *2316:B I *D sky130_fd_sc_hd__xnor2_2
*I *2346:A2 I *D sky130_fd_sc_hd__a21o_1
*I *2315:Y O *D sky130_fd_sc_hd__nor2_4
*CAP
1 *2316:B 0
2 *2346:A2 0.000309719
3 *2315:Y 7.95908e-05
4 *327:6 0.00038931
5 *2346:A2 *431:10 0
6 *2346:A2 *529:42 0
7 *2313:A *2346:A2 3.36025e-05
8 *2315:A *327:6 0.000230206
9 *2315:B *2346:A2 0.000232399
10 *2346:A1 *2346:A2 0
11 *323:16 *2346:A2 3.55937e-05
12 *325:8 *2346:A2 3.1725e-05
*RES
1 *2315:Y *327:6 11.4786 
2 *327:6 *2346:A2 24.0857 
3 *327:6 *2316:B 9.3 
*END

*D_NET *328 0.00183641
*CONN
*I *2319:B I *D sky130_fd_sc_hd__nand2_1
*I *2317:A I *D sky130_fd_sc_hd__or2_4
*I *2316:Y O *D sky130_fd_sc_hd__xnor2_2
*CAP
1 *2319:B 0.000112725
2 *2317:A 0
3 *2316:Y 0.00053365
4 *328:12 0.000646376
5 *2319:B *2320:B 7.61932e-05
6 *328:12 *2318:A 3.2534e-05
7 *328:12 *2320:A 7.79781e-06
8 *328:12 *2374:A 2.77247e-05
9 *328:12 *2375:A 0
10 *328:12 *2381:A1 0
11 *328:12 *2414:B 1.5942e-05
12 *328:12 *2419:B1 0
13 *328:12 *334:8 0
14 *328:12 *405:12 7.8327e-05
15 *328:12 *431:10 0.00011336
16 *2319:A *2319:B 6.49861e-05
17 *292:20 *2319:B 3.98559e-05
18 *292:20 *328:12 8.69386e-05
*RES
1 *2316:Y *328:12 28.7821 
2 *328:12 *2317:A 9.3 
3 *328:12 *2319:B 12.3357 
*END

*D_NET *329 0.00317319
*CONN
*I *2373:B I *D sky130_fd_sc_hd__xnor2_1
*I *2320:A I *D sky130_fd_sc_hd__nand2_1
*I *2318:A I *D sky130_fd_sc_hd__inv_2
*I *2317:X O *D sky130_fd_sc_hd__or2_4
*CAP
1 *2373:B 0.000214624
2 *2320:A 0.000175153
3 *2318:A 0.000347018
4 *2317:X 2.33972e-05
5 *329:8 0.000522172
6 *329:6 0.000238021
7 *2318:A *2388:A1 0.000167974
8 *2318:A *2388:B1 1.10868e-05
9 *2318:A *2419:B1 0.000106311
10 *2318:A *2419:C1 0.000185839
11 *2320:A *2419:B1 0.000248493
12 *2320:A *514:58 9.68931e-05
13 *2373:B *2374:A 0.000334925
14 *2373:B *2381:A3 7.50601e-05
15 *2373:B *2491:A 0.000170654
16 *329:6 *2374:A 5.49489e-05
17 op_out[6] *2373:B 9.26121e-05
18 *292:20 *2320:A 6.76747e-05
19 *328:12 *2318:A 3.2534e-05
20 *328:12 *2320:A 7.79781e-06
*RES
1 *2317:X *329:6 9.83571 
2 *329:6 *329:8 4.5 
3 *329:8 *2318:A 20.2286 
4 *329:8 *2320:A 18.7286 
5 *329:6 *2373:B 23.9607 
*END

*D_NET *330 0.000265609
*CONN
*I *2388:A1 I *D sky130_fd_sc_hd__o21ai_1
*I *2318:Y O *D sky130_fd_sc_hd__inv_2
*CAP
1 *2388:A1 3.139e-05
2 *2318:Y 3.139e-05
3 *2388:A1 *2419:C1 3.4855e-05
4 *2318:A *2388:A1 0.000167974
*RES
1 *2318:Y *2388:A1 19.975 
*END

*D_NET *331 0.000577157
*CONN
*I *2320:B I *D sky130_fd_sc_hd__nand2_1
*I *2319:Y O *D sky130_fd_sc_hd__nand2_1
*CAP
1 *2320:B 0.000182759
2 *2319:Y 0.000182759
3 *2320:B *334:8 7.83659e-05
4 *2320:B *529:42 0
5 *2319:B *2320:B 7.61932e-05
6 *292:20 *2320:B 5.26184e-05
7 *297:14 *2320:B 4.46186e-06
*RES
1 *2319:Y *2320:B 30.9036 
*END

*D_NET *332 0.00166745
*CONN
*I *2322:B I *D sky130_fd_sc_hd__nor2_1
*I *2323:A2 I *D sky130_fd_sc_hd__o21a_1
*I *2321:B I *D sky130_fd_sc_hd__nand2_1
*I *2320:Y O *D sky130_fd_sc_hd__nand2_1
*CAP
1 *2322:B 2.03441e-05
2 *2323:A2 0.000100414
3 *2321:B 0
4 *2320:Y 5.11101e-05
5 *332:12 0.000408314
6 *332:6 0.000379354
7 *2323:A2 *2336:B1 9.71197e-05
8 *2323:A2 *514:58 2.75524e-05
9 *332:6 *514:58 2.95726e-05
10 *332:12 *514:58 1.74352e-05
11 *2289:B1 *2323:A2 0
12 *2321:A *2323:A2 1.10818e-05
13 *2323:A1 *2323:A2 2.89016e-05
14 *297:14 *332:12 5.52238e-05
15 *297:18 *2322:B 5.7661e-06
16 *297:18 *2323:A2 4.59075e-05
17 *297:18 *332:12 0.000389348
*RES
1 *2320:Y *332:6 10.2464 
2 *332:6 *332:12 6.42857 
3 *332:12 *2321:B 9.3 
4 *332:12 *2323:A2 11.925 
5 *332:6 *2322:B 9.72857 
*END

*D_NET *333 0.00112085
*CONN
*I *2336:B1 I *D sky130_fd_sc_hd__a221o_1
*I *2321:Y O *D sky130_fd_sc_hd__nand2_1
*CAP
1 *2336:B1 0.000287158
2 *2321:Y 0.000287158
3 *2336:B1 *2323:B1 6.05161e-06
4 *2336:B1 *2336:A1 5.33005e-05
5 *2336:B1 *2336:B2 1.28809e-05
6 *2336:B1 *2336:C1 3.35e-05
7 *2336:B1 *514:43 9.8958e-05
8 *2336:B1 *514:58 9.22103e-06
9 *2292:B1 *2336:B1 0.000100476
10 *2323:A2 *2336:B1 9.71197e-05
11 *199:43 *2336:B1 0.000135028
*RES
1 *2321:Y *2336:B1 32.8857 
*END

*D_NET *334 0.00386987
*CONN
*I *2374:A I *D sky130_fd_sc_hd__or2_1
*I *2388:A2 I *D sky130_fd_sc_hd__o21ai_1
*I *2375:A I *D sky130_fd_sc_hd__nand2_1
*I *2322:Y O *D sky130_fd_sc_hd__nor2_1
*CAP
1 *2374:A 0.000620083
2 *2388:A2 9.26863e-05
3 *2375:A 0.000482457
4 *2322:Y 0.000139771
5 *334:10 0.00075031
6 *334:8 0.00093502
7 *2375:A *529:42 0
8 *2388:A2 *397:12 0.000142856
9 *334:8 *529:42 0
10 *334:10 *529:42 0
11 op_out[6] *2374:A 9.1025e-05
12 *2320:B *334:8 7.83659e-05
13 *2373:B *2374:A 0.000334925
14 *292:20 *2374:A 9.90431e-05
15 *292:20 *334:8 2.06507e-05
16 *328:12 *2374:A 2.77247e-05
17 *328:12 *2375:A 0
18 *328:12 *334:8 0
19 *329:6 *2374:A 5.49489e-05
*RES
1 *2322:Y *334:8 16.5054 
2 *334:8 *334:10 2.40179 
3 *334:10 *2375:A 21.6929 
4 *334:10 *2388:A2 15.1571 
5 *334:8 *2374:A 22.6839 
*END

*D_NET *335 0.000473063
*CONN
*I *2336:B2 I *D sky130_fd_sc_hd__a221o_1
*I *2323:X O *D sky130_fd_sc_hd__o21a_1
*CAP
1 *2336:B2 0.000114664
2 *2323:X 0.000114664
3 *2336:B2 *2336:C1 1.28809e-05
4 *2336:B2 *519:63 0.000120504
5 *2336:B2 *519:80 9.25014e-06
6 *2292:B1 *2336:B2 3.404e-05
7 *2336:B1 *2336:B2 1.28809e-05
8 *199:43 *2336:B2 5.41794e-05
*RES
1 *2323:X *2336:B2 29.908 
*END

*D_NET *336 0.00170121
*CONN
*I *2331:A I *D sky130_fd_sc_hd__or2_1
*I *2330:A I *D sky130_fd_sc_hd__nand2_1
*I *2324:X O *D sky130_fd_sc_hd__a21o_1
*CAP
1 *2331:A 0.000100047
2 *2330:A 0.000187915
3 *2324:X 0.000140522
4 *336:8 0.000428484
5 *2330:A *2330:B 3.01979e-05
6 *2330:A *343:6 7.32173e-05
7 *2330:A *542:139 0.00010923
8 *2331:A *565:28 0.000180777
9 *336:8 *497:54 2.04825e-05
10 *336:8 *542:139 0.000134174
11 *192:74 *2330:A 0.000148984
12 *192:74 *336:8 9.19522e-05
13 *192:87 *2330:A 5.52302e-05
*RES
1 *2324:X *336:8 17.5679 
2 *336:8 *2330:A 18.8536 
3 *336:8 *2331:A 15.5679 
*END

*D_NET *337 0.00565832
*CONN
*I *1967:C1 I *D sky130_fd_sc_hd__a2111oi_1
*I *2177:A I *D sky130_fd_sc_hd__or2_1
*I *1968:A4 I *D sky130_fd_sc_hd__o41ai_4
*I *1970:B1 I *D sky130_fd_sc_hd__a211o_1
*I *1974:B1 I *D sky130_fd_sc_hd__a211oi_2
*I *2010:B1 I *D sky130_fd_sc_hd__a21o_1
*I *1965:X O *D sky130_fd_sc_hd__or4_4
*CAP
1 *1967:C1 0.000175319
2 *2177:A 0.000128335
3 *1968:A4 0
4 *1970:B1 0.000157472
5 *1974:B1 0
6 *2010:B1 5.36632e-05
7 *1965:X 0
8 *337:62 0.000361771
9 *337:36 0.000216193
10 *337:34 0.000226478
11 *337:14 0.000224651
12 *337:4 0.000280629
13 *1967:C1 *1967:D1 8.17274e-05
14 *1967:C1 *2176:A 5.33005e-05
15 *1967:C1 *2176:C 5.33005e-05
16 *1970:B1 *1970:A1 6.21768e-05
17 *1970:B1 *1972:A 0
18 *1970:B1 *1972:B 6.17358e-05
19 *1970:B1 *2454:A 0.000123295
20 *1970:B1 *380:12 5.7616e-05
21 *1970:B1 *440:16 1.91414e-05
22 *1970:B1 *520:106 0.00021559
23 *1970:B1 *547:6 6.73496e-05
24 *2010:B1 *2337:A2 2.31791e-05
25 *2010:B1 *2337:A3 0.000174797
26 *2010:B1 *434:8 0.000149904
27 *2177:A *2176:A 0.000219711
28 *337:14 *1974:A1 8.08022e-05
29 *337:14 *2176:A 0
30 *337:14 *2337:A2 0.000196276
31 *337:14 *534:96 0.000142856
32 *337:14 *538:20 0.000142856
33 *337:14 *550:68 4.58194e-05
34 *337:34 *534:96 0.000566239
35 *337:34 *538:20 0.000552904
36 *337:36 *2454:A 0.000187726
37 *337:36 *520:106 0.000197977
38 *337:62 *2454:A 0.000162125
39 *337:62 *520:106 0.000171375
40 *183:10 *1967:C1 2.40354e-05
*RES
1 *1965:X *337:4 9.3 
2 *337:4 *337:14 13.8571 
3 *337:14 *2010:B1 20.55 
4 *337:14 *1974:B1 9.3 
5 *337:4 *337:34 9.96429 
6 *337:34 *337:36 2.55357 
7 *337:36 *1970:B1 18.4607 
8 *337:36 *1968:A4 13.8 
9 *337:34 *337:62 6.75 
10 *337:62 *2177:A 11.4786 
11 *337:62 *1967:C1 12.3179 
*END

*D_NET *338 0.00151299
*CONN
*I *2339:B1 I *D sky130_fd_sc_hd__a21o_1
*I *2326:B I *D sky130_fd_sc_hd__xnor2_1
*I *2325:X O *D sky130_fd_sc_hd__o21a_1
*CAP
1 *2339:B1 8.60592e-05
2 *2326:B 0.000185865
3 *2325:X 0.000161268
4 *338:10 0.000433192
5 *2326:B *2095:B 0
6 *2326:B *2340:A 6.05161e-06
7 *2339:B1 *2325:A1 4.00121e-05
8 *2339:B1 *352:12 0.00014444
9 *338:10 *2325:A1 4.70162e-05
10 *2267:A *2339:B1 6.9911e-05
11 *2267:A *338:10 9.60939e-05
12 *2325:B1 *2339:B1 6.94101e-05
13 *2325:B1 *338:10 9.8958e-05
14 *2384:A2 *2326:B 8.43535e-06
15 *191:62 *2326:B 6.62752e-05
*RES
1 *2325:X *338:10 16.4964 
2 *338:10 *2326:B 16.8179 
3 *338:10 *2339:B1 16.6571 
*END

*D_NET *339 0.00131146
*CONN
*I *2328:B I *D sky130_fd_sc_hd__nand2_1
*I *2327:B I *D sky130_fd_sc_hd__or2_1
*I *2326:Y O *D sky130_fd_sc_hd__xnor2_1
*CAP
1 *2328:B 0
2 *2327:B 9.34986e-05
3 *2326:Y 0.000319731
4 *339:12 0.000413229
5 *2327:B *2326:A 0
6 *2327:B *2328:A 5.71472e-05
7 *2327:B *537:107 4.59075e-05
8 *2327:B *554:81 0
9 *339:12 *2325:A1 6.42242e-05
10 *339:12 *542:139 0
11 *2384:A2 *339:12 0.000221634
12 *191:62 *339:12 9.60875e-05
*RES
1 *2326:Y *339:12 22.9429 
2 *339:12 *2327:B 11.0857 
3 *339:12 *2328:B 9.3 
*END

*D_NET *340 0.000427654
*CONN
*I *2329:A I *D sky130_fd_sc_hd__and2_1
*I *2327:X O *D sky130_fd_sc_hd__or2_1
*CAP
1 *2329:A 7.51351e-05
2 *2327:X 7.51351e-05
3 *2329:A *341:12 0.000125724
4 *2329:A *546:31 2.59355e-05
5 *50:37 *2329:A 0.000125724
*RES
1 *2327:X *2329:A 29.7786 
*END

*D_NET *341 0.00232076
*CONN
*I *2343:A1 I *D sky130_fd_sc_hd__a21oi_1
*I *2344:A1 I *D sky130_fd_sc_hd__a31o_1
*I *2329:B I *D sky130_fd_sc_hd__and2_1
*I *2328:Y O *D sky130_fd_sc_hd__nand2_1
*CAP
1 *2343:A1 0.00022864
2 *2344:A1 0
3 *2329:B 0
4 *2328:Y 0.000216016
5 *341:19 0.000459361
6 *341:12 0.000446737
7 *2343:A1 *2343:A2 6.87574e-05
8 *2343:A1 *2343:B1 0
9 *2343:A1 *2345:B 9.71197e-05
10 *2343:A1 *546:31 3.61629e-06
11 *341:12 *537:107 0.000314139
12 *341:12 *538:14 9.01334e-05
13 *341:19 *342:10 5.03772e-05
14 *341:19 *546:31 0.000195184
15 *2329:A *341:12 0.000125724
16 *50:37 *341:12 2.4958e-05
*RES
1 *2328:Y *341:12 23.55 
2 *341:12 *2329:B 9.3 
3 *341:12 *341:19 5.05357 
4 *341:19 *2344:A1 9.3 
5 *341:19 *2343:A1 12.6214 
*END

*D_NET *342 0.00180063
*CONN
*I *2331:B I *D sky130_fd_sc_hd__or2_1
*I *2330:B I *D sky130_fd_sc_hd__nand2_1
*I *2329:X O *D sky130_fd_sc_hd__and2_1
*CAP
1 *2331:B 0.000113538
2 *2330:B 0.000276532
3 *2329:X 0.000111703
4 *342:10 0.000501774
5 *2331:B *538:14 0.000130448
6 *342:10 *538:14 3.69697e-05
7 *2330:A *2330:B 3.01979e-05
8 *50:37 *2331:B 0.000251127
9 *50:37 *342:10 7.83587e-05
10 *192:87 *2330:B 0.000219607
11 *341:19 *342:10 5.03772e-05
*RES
1 *2329:X *342:10 15.7821 
2 *342:10 *2330:B 18.1929 
3 *342:10 *2331:B 17.2643 
*END

*D_NET *343 0.00264865
*CONN
*I *2343:A2 I *D sky130_fd_sc_hd__a21oi_1
*I *2344:A2 I *D sky130_fd_sc_hd__a31o_1
*I *2332:B I *D sky130_fd_sc_hd__and3b_1
*I *2330:Y O *D sky130_fd_sc_hd__nand2_1
*CAP
1 *2343:A2 4.31048e-05
2 *2344:A2 0
3 *2332:B 0
4 *2330:Y 0.000207203
5 *343:23 0.000687188
6 *343:6 0.000851287
7 *2343:A2 *2343:B1 0.000139913
8 *2343:A2 *2345:B 5.52302e-05
9 *2343:A2 *546:31 1.55885e-05
10 *343:23 *2337:A2 0.000104088
11 *343:23 *2337:B1 0.000137983
12 *343:23 *2345:B 1.19402e-05
13 *343:23 *537:107 0
14 *2330:A *343:6 7.32173e-05
15 *2337:A1 *343:23 3.54839e-05
16 *2343:A1 *2343:A2 6.87574e-05
17 *2344:B1 *343:23 6.5185e-05
18 *2387:A *343:23 2.15245e-05
19 *192:87 *343:6 4.35336e-05
20 *192:87 *343:23 8.74204e-05
*RES
1 *2330:Y *343:6 11.8893 
2 *343:6 *2332:B 9.3 
3 *343:6 *343:23 19.1071 
4 *343:23 *2344:A2 9.3 
5 *343:23 *2343:A2 11.0679 
*END

*D_NET *344 0.000554196
*CONN
*I *2332:C I *D sky130_fd_sc_hd__and3b_1
*I *2331:X O *D sky130_fd_sc_hd__or2_1
*CAP
1 *2332:C 0.000107316
2 *2331:X 0.000107316
3 *2332:C *542:139 0.000173083
4 *2332:C *565:28 1.58163e-05
5 *2337:A1 *2332:C 0.000125717
6 *50:37 *2332:C 2.49484e-05
*RES
1 *2331:X *2332:C 30.3857 
*END

*D_NET *345 0.000379679
*CONN
*I *2337:B1 I *D sky130_fd_sc_hd__a31o_1
*I *2332:X O *D sky130_fd_sc_hd__and3b_1
*CAP
1 *2337:B1 5.68562e-05
2 *2332:X 5.68562e-05
3 *2337:A1 *2337:B1 0.000127983
4 *343:23 *2337:B1 0.000137983
*RES
1 *2332:X *2337:B1 20.3857 
*END

*D_NET *346 0.00065279
*CONN
*I *2334:B2 I *D sky130_fd_sc_hd__o22a_1
*I *2333:Y O *D sky130_fd_sc_hd__a21oi_1
*CAP
1 *2334:B2 0.000119182
2 *2333:Y 0.000119182
3 *2334:B2 *2289:A2 1.00375e-05
4 *2334:B2 *490:23 6.0038e-05
5 *2334:B2 *490:32 0.000167368
6 *2334:B2 *490:53 9.25014e-06
7 *2334:B2 *526:43 0
8 *2333:B1 *2334:B2 3.15238e-05
9 *2416:B1 *2334:B2 1.39841e-05
10 *188:47 *2334:B2 0.000122226
*RES
1 *2333:Y *2334:B2 30.9929 
*END

*D_NET *347 0.000681187
*CONN
*I *2336:C1 I *D sky130_fd_sc_hd__a221o_1
*I *2334:X O *D sky130_fd_sc_hd__o22a_1
*CAP
1 *2336:C1 0.000204454
2 *2334:X 0.000204454
3 *2336:C1 *2336:A1 9.41642e-05
4 *2336:C1 *2338:B 5.33005e-05
5 *2336:A2 *2336:C1 3.33238e-05
6 *2336:B1 *2336:C1 3.35e-05
7 *2336:B2 *2336:C1 1.28809e-05
8 *199:43 *2336:C1 4.51096e-05
*RES
1 *2334:X *2336:C1 22.4393 
*END

*D_NET *348 0.0021603
*CONN
*I *1967:D1 I *D sky130_fd_sc_hd__a2111oi_1
*I *2176:C I *D sky130_fd_sc_hd__or3_1
*I *1968:A3 I *D sky130_fd_sc_hd__o41ai_4
*I *1970:C1 I *D sky130_fd_sc_hd__a211o_1
*I *1966:X O *D sky130_fd_sc_hd__or2_4
*CAP
1 *1967:D1 3.41373e-05
2 *2176:C 2.04425e-05
3 *1968:A3 2.25053e-05
4 *1970:C1 6.80777e-05
5 *1966:X 2.46036e-05
6 *348:32 0.000121565
7 *348:10 0.000149285
8 *348:8 0.000150291
9 *1968:A3 *1968:B1 5.33005e-05
10 *1968:A3 *545:27 1.58163e-05
11 *1970:C1 *552:26 0.000168217
12 *1970:C1 *554:75 0.000168224
13 *348:8 *534:96 9.60939e-05
14 *348:8 *538:20 9.60939e-05
15 *348:10 *552:26 0.000196269
16 *348:10 *554:75 0.000189448
17 *348:32 *552:26 0.00019384
18 *348:32 *554:75 0.000185304
19 *1967:C1 *1967:D1 8.17274e-05
20 *1967:C1 *2176:C 5.33005e-05
21 *183:10 *1967:D1 4.58194e-05
22 *183:10 *2176:C 2.59355e-05
*RES
1 *1966:X *348:8 14.7464 
2 *348:8 *348:10 2.55357 
3 *348:10 *1970:C1 16.05 
4 *348:10 *1968:A3 14.3357 
5 *348:8 *348:32 7.05357 
6 *348:32 *2176:C 9.83571 
7 *348:32 *1967:D1 10.2464 
*END

*D_NET *349 0.000475798
*CONN
*I *2338:A I *D sky130_fd_sc_hd__or3_1
*I *2335:X O *D sky130_fd_sc_hd__a32o_1
*CAP
1 *2338:A 0.000142174
2 *2335:X 0.000142174
3 *2338:A *529:70 5.71563e-05
4 *2338:A *565:28 3.71731e-05
5 *2335:A3 *2338:A 9.71197e-05
*RES
1 *2335:X *2338:A 30.1893 
*END

*D_NET *350 0.00483019
*CONN
*I *2338:B I *D sky130_fd_sc_hd__or3_1
*I *2336:X O *D sky130_fd_sc_hd__a221o_1
*CAP
1 *2338:B 0.00121321
2 *2336:X 0.00121321
3 *2338:B *2334:A1 2.14658e-05
4 *2338:B *2334:A2 9.90431e-05
5 *2338:B *2379:A1 1.58163e-05
6 *2338:B *2379:B1 6.34485e-05
7 *2338:B *526:73 2.32517e-05
8 *2338:B *529:70 1.52077e-05
9 *2338:B *537:26 0.000576374
10 *2338:B *537:95 0.000386121
11 *2338:B *553:24 0.00026546
12 *2338:B *565:10 1.00073e-05
13 *2232:A_N *2338:B 3.63775e-05
14 *2336:C1 *2338:B 5.33005e-05
15 *2379:A2 *2338:B 1.98839e-05
16 *199:43 *2338:B 1.43763e-05
17 *199:51 *2338:B 0.000803625
*RES
1 *2336:X *2338:B 43.0107 
*END

*D_NET *351 0.000973608
*CONN
*I *2338:C I *D sky130_fd_sc_hd__or3_1
*I *2337:X O *D sky130_fd_sc_hd__a31o_1
*CAP
1 *2338:C 0.000350542
2 *2337:X 0.000350542
3 *2338:C *529:70 0.000229178
4 *2338:C *538:14 0
5 *2338:C *565:28 4.33466e-05
*RES
1 *2337:X *2338:C 34.2518 
*END

*D_NET *352 0.00118489
*CONN
*I *2384:B1 I *D sky130_fd_sc_hd__a21o_1
*I *2340:B I *D sky130_fd_sc_hd__xor2_1
*I *2339:X O *D sky130_fd_sc_hd__a21o_1
*CAP
1 *2384:B1 0.000124827
2 *2340:B 0
3 *2339:X 0.000114987
4 *352:12 0.000239814
5 *2384:B1 *2340:A 0.000139907
6 *2384:B1 *2384:A1 5.3461e-05
7 *2384:B1 *353:16 0.00018372
8 *352:12 *2325:A1 0.00014101
9 *352:12 *537:107 1.58163e-05
10 *2339:B1 *352:12 0.00014444
11 *2384:A2 *2384:B1 2.69081e-05
*RES
1 *2339:X *352:12 20.7821 
2 *352:12 *2340:B 9.3 
3 *352:12 *2384:B1 12.7286 
*END

*D_NET *353 0.00224122
*CONN
*I *2341:A I *D sky130_fd_sc_hd__inv_2
*I *2342:B I *D sky130_fd_sc_hd__xor2_1
*I *2340:X O *D sky130_fd_sc_hd__xor2_1
*CAP
1 *2341:A 9.05235e-05
2 *2342:B 0
3 *2340:X 0.000348895
4 *353:16 0.000439419
5 *2341:A *2342:A 0.000170964
6 *2341:A *537:107 0.000357952
7 *2341:A *554:81 1.02821e-05
8 *353:16 *2328:A 0
9 *353:16 *2342:A 1.04232e-05
10 *353:16 *2384:A1 4.40596e-05
11 *353:16 *2443:A 1.90936e-05
12 *353:16 *537:107 0.000164361
13 *353:16 *538:14 6.22677e-05
14 *353:16 *554:81 0.000122101
15 *2384:B1 *353:16 0.00018372
16 *50:37 *353:16 0.000217163
*RES
1 *2340:X *353:16 26.7643 
2 *353:16 *2342:B 9.3 
3 *353:16 *2341:A 13.1393 
*END

*D_NET *354 0.000344378
*CONN
*I *2382:A2 I *D sky130_fd_sc_hd__a21oi_1
*I *2341:Y O *D sky130_fd_sc_hd__inv_2
*CAP
1 *2382:A2 2.53145e-05
2 *2341:Y 2.53145e-05
3 *2382:A2 *2342:A 0.000188586
4 *2382:A2 *537:107 0.000105163
*RES
1 *2341:Y *2382:A2 20.3679 
*END

*D_NET *355 0.00130942
*CONN
*I *2343:B1 I *D sky130_fd_sc_hd__a21oi_1
*I *2344:A3 I *D sky130_fd_sc_hd__a31o_1
*I *2342:X O *D sky130_fd_sc_hd__xor2_1
*CAP
1 *2343:B1 9.44253e-05
2 *2344:A3 0
3 *2342:X 0.000239553
4 *355:12 0.000333978
5 *2343:B1 *2345:A 3.77609e-05
6 *2343:B1 *2345:B 9.05283e-05
7 *2343:B1 *546:31 0.000119125
8 *355:12 *2337:A2 0
9 *355:12 *2345:B 1.76039e-05
10 *355:12 *537:107 0.000232399
11 *2343:A1 *2343:B1 0
12 *2343:A2 *2343:B1 0.000139913
13 *2344:B1 *355:12 4.1331e-06
*RES
1 *2342:X *355:12 22.1214 
2 *355:12 *2344:A3 9.3 
3 *355:12 *2343:B1 12.4429 
*END

*D_NET *356 0.000648034
*CONN
*I *2345:A I *D sky130_fd_sc_hd__nor2_1
*I *2382:B1 I *D sky130_fd_sc_hd__a21oi_1
*I *2343:Y O *D sky130_fd_sc_hd__a21oi_1
*CAP
1 *2345:A 5.95686e-05
2 *2382:B1 5.00965e-05
3 *2343:Y 0
4 *356:4 0.000109665
5 *2345:A *2345:B 2.72319e-05
6 *2382:B1 *2452:A 0.00015304
7 *2382:B1 *497:62 0.000177234
8 *2382:B1 *546:44 3.34366e-05
9 *2343:B1 *2345:A 3.77609e-05
*RES
1 *2343:Y *356:4 9.3 
2 *356:4 *2382:B1 20.55 
3 *356:4 *2345:A 10.6929 
*END

*D_NET *357 0.000811708
*CONN
*I *2345:B I *D sky130_fd_sc_hd__nor2_1
*I *2344:X O *D sky130_fd_sc_hd__a31o_1
*CAP
1 *2345:B 0.000194318
2 *2344:X 0.000194318
3 *2345:B *2380:B1 2.89114e-05
4 *2345:B *440:16 5.52302e-05
5 *2345:B *537:107 3.92757e-05
6 *2343:A1 *2345:B 9.71197e-05
7 *2343:A2 *2345:B 5.52302e-05
8 *2343:B1 *2345:B 9.05283e-05
9 *2344:B1 *2345:B 0
10 *2345:A *2345:B 2.72319e-05
11 *343:23 *2345:B 1.19402e-05
12 *355:12 *2345:B 1.76039e-05
*RES
1 *2344:X *2345:B 32.0643 
*END

*D_NET *358 0.00109268
*CONN
*I *2503:A I *D sky130_fd_sc_hd__clkbuf_1
*I *1967:Y O *D sky130_fd_sc_hd__a2111oi_1
*CAP
1 *2503:A 0.000140429
2 *1967:Y 0.000140429
3 *2503:A *1967:B1 2.84398e-05
4 *2503:A *535:27 1.40849e-05
5 *2503:A *552:26 0.000431654
6 *183:10 *2503:A 0.000337644
*RES
1 *1967:Y *2503:A 33.1893 
*END

*D_NET *359 0.000576403
*CONN
*I *2380:B1 I *D sky130_fd_sc_hd__a211o_1
*I *2345:Y O *D sky130_fd_sc_hd__nor2_1
*CAP
1 *2380:B1 0.000202436
2 *2345:Y 0.000202436
3 *2380:B1 *2380:C1 5.52238e-05
4 *2380:B1 *440:16 8.7396e-05
5 *2345:B *2380:B1 2.89114e-05
*RES
1 *2345:Y *2380:B1 22.4393 
*END

*D_NET *360 0.00267014
*CONN
*I *2372:A I *D sky130_fd_sc_hd__xnor2_2
*I *2371:A I *D sky130_fd_sc_hd__and3_1
*I *2346:X O *D sky130_fd_sc_hd__a21o_1
*CAP
1 *2372:A 0
2 *2371:A 0.000542396
3 *2346:X 0.000268336
4 *360:10 0.000810732
5 *2371:A *2370:B 7.34719e-05
6 *2371:A *2371:B 4.88637e-05
7 *2371:A *2389:B 0.000542235
8 *2371:A *2412:B 8.80467e-05
9 *2371:A *385:21 5.7993e-06
10 *2371:A *431:10 0.000128032
11 *360:10 *431:10 5.57727e-05
12 *2315:B *360:10 0.000106455
13 *323:16 *2371:A 0
14 *323:16 *360:10 0
*RES
1 *2346:X *360:10 18.3357 
2 *360:10 *2371:A 27.425 
3 *360:10 *2372:A 13.8 
*END

*D_NET *361 0.000683076
*CONN
*I *2389:A I *D sky130_fd_sc_hd__xnor2_1
*I *2349:A I *D sky130_fd_sc_hd__or2_1
*I *2347:X O *D sky130_fd_sc_hd__o211a_1
*CAP
1 *2389:A 3.50298e-05
2 *2349:A 8.0683e-05
3 *2347:X 0.000225825
4 *361:8 0.000341538
5 *2349:A *384:10 0
6 *2349:A *431:10 0
7 *2389:A *431:10 0
8 *323:16 *2349:A 0
9 *323:16 *2389:A 0
*RES
1 *2347:X *361:8 16.3893 
2 *361:8 *2349:A 15.1393 
3 *361:8 *2389:A 14.5321 
*END

*D_NET *362 0.000318942
*CONN
*I *2349:B I *D sky130_fd_sc_hd__or2_1
*I *2348:Y O *D sky130_fd_sc_hd__a211oi_1
*CAP
1 *2349:B 0.000159471
2 *2348:Y 0.000159471
*RES
1 *2348:Y *2349:B 21.1893 
*END

*D_NET *363 0.00147482
*CONN
*I *2369:A I *D sky130_fd_sc_hd__or3_4
*I *2368:B1 I *D sky130_fd_sc_hd__o21ai_1
*I *2349:X O *D sky130_fd_sc_hd__or2_1
*CAP
1 *2369:A 0.000301349
2 *2368:B1 0
3 *2349:X 0.000215042
4 *363:12 0.000516391
5 *2369:A *2412:A 0
6 *2369:A *384:10 5.33433e-05
7 *2369:A *385:21 0.000106542
8 *2369:A *494:12 0.00024425
9 *363:12 *2412:A 0
10 *363:12 *384:10 3.69697e-05
11 *363:12 *431:10 9.33978e-07
*RES
1 *2349:X *363:12 21.3 
2 *363:12 *2368:B1 9.3 
3 *363:12 *2369:A 25.0857 
*END

*D_NET *364 0.0011013
*CONN
*I *2354:A I *D sky130_fd_sc_hd__xnor2_1
*I *2350:Y O *D sky130_fd_sc_hd__nand2_1
*CAP
1 *2354:A 0.00034315
2 *2350:Y 0.00034315
3 *2354:A *2350:A 1.92789e-05
4 *2354:A *2410:A 0.000101056
5 *2354:A *519:23 0.000148189
6 *2354:A *520:31 0.000146474
*RES
1 *2350:Y *2354:A 33.3679 
*END

*D_NET *365 0.000906898
*CONN
*I *2353:A I *D sky130_fd_sc_hd__nor2_1
*I *2351:Y O *D sky130_fd_sc_hd__a22oi_1
*CAP
1 *2353:A 0.000182546
2 *2351:Y 0.000182546
3 *2353:A *2394:A1 2.44318e-05
4 *2353:A *367:12 5.33334e-05
5 *2353:A *519:23 0.000128154
6 *2353:A *526:12 0.000211249
7 *2353:A *526:18 5.71472e-05
8 *2353:A *540:56 6.74911e-05
*RES
1 *2351:Y *2353:A 32.6714 
*END

*D_NET *366 0.00114516
*CONN
*I *2353:B I *D sky130_fd_sc_hd__nor2_1
*I *2407:B1 I *D sky130_fd_sc_hd__a31o_1
*I *2352:X O *D sky130_fd_sc_hd__and4_1
*CAP
1 *2353:B 8.66922e-05
2 *2407:B1 0.000152352
3 *2352:X 6.59538e-05
4 *366:8 0.000304998
5 *2353:B *525:14 0
6 *2353:B *526:18 4.1331e-06
7 *2353:B *555:12 0.000142797
8 *2353:B *555:31 9.25014e-06
9 *2407:B1 *2350:A 4.46186e-06
10 *2407:B1 *367:12 0
11 *2407:B1 *490:23 1.91418e-05
12 *2407:B1 *555:12 0.000224473
13 *366:8 *520:35 9.90431e-05
14 *311:10 *2407:B1 3.18676e-05
*RES
1 *2352:X *366:8 14.7464 
2 *366:8 *2407:B1 17.4964 
3 *366:8 *2353:B 15.7464 
*END

*D_NET *367 0.00133446
*CONN
*I *2354:B I *D sky130_fd_sc_hd__xnor2_1
*I *2407:A3 I *D sky130_fd_sc_hd__a31o_1
*I *2353:Y O *D sky130_fd_sc_hd__nor2_1
*CAP
1 *2354:B 5.99081e-05
2 *2407:A3 0
3 *2353:Y 0.000370391
4 *367:12 0.000430299
5 *2354:B *525:14 9.90431e-05
6 *2354:B *555:12 4.58976e-05
7 *367:12 *2350:A 5.80706e-06
8 *367:12 *2394:A1 2.32625e-05
9 *367:12 *525:14 0.000144323
10 *2353:A *367:12 5.33334e-05
11 *2407:B1 *367:12 0
12 *311:10 *2354:B 0.000102197
*RES
1 *2353:Y *367:12 24.1393 
2 *367:12 *2407:A3 9.3 
3 *367:12 *2354:B 11.4964 
*END

*D_NET *368 0.00186026
*CONN
*I *2365:A I *D sky130_fd_sc_hd__xor2_1
*I *2408:A1 I *D sky130_fd_sc_hd__a21oi_1
*I *2354:Y O *D sky130_fd_sc_hd__xnor2_1
*CAP
1 *2365:A 6.97639e-05
2 *2408:A1 0.000117155
3 *2354:Y 0.00031608
4 *368:14 0.000502999
5 *2365:A *2365:B 1.33343e-05
6 *2408:A1 *2365:B 0
7 *2408:A1 *2409:B 8.39e-05
8 *2408:A1 *378:8 0
9 *2408:A1 *381:8 0
10 *2408:A1 *566:20 2.69614e-05
11 *2408:A1 *566:22 0
12 *368:14 *2409:A 0.000427714
13 *368:14 *2409:B 0.000100735
14 *368:14 *381:8 0
15 *368:14 *555:12 8.85761e-05
16 *368:14 *566:22 0
17 *319:10 *2365:A 0.000102207
18 *320:12 *368:14 1.08359e-05
*RES
1 *2354:Y *368:14 21.8357 
2 *368:14 *2408:A1 16.6571 
3 *368:14 *2365:A 15.5679 
*END

*D_NET *369 0.00286614
*CONN
*I *1974:A2 I *D sky130_fd_sc_hd__a211oi_2
*I *2010:A2 I *D sky130_fd_sc_hd__a21o_1
*I *1973:B1_N I *D sky130_fd_sc_hd__o21bai_1
*I *1977:A2 I *D sky130_fd_sc_hd__a211o_1
*I *1976:A1 I *D sky130_fd_sc_hd__a21oi_1
*I *1968:Y O *D sky130_fd_sc_hd__o41ai_4
*CAP
1 *1974:A2 0
2 *2010:A2 4.83547e-05
3 *1973:B1_N 9.02801e-05
4 *1977:A2 0
5 *1976:A1 0.000256471
6 *1968:Y 0.000114291
7 *369:18 0.000479135
8 *369:12 0.000377438
9 *369:10 0.000242452
10 *369:6 0.000243894
11 *1973:B1_N *550:62 0
12 *1976:A1 *1977:A1 0.000300164
13 *1976:A1 *517:86 3.61629e-06
14 *2010:A2 *1971:A 5.7661e-06
15 *2010:A2 *1971:B 0
16 *2010:A2 *423:10 0.00014285
17 *2010:A2 *547:12 9.99644e-06
18 *2010:A2 *547:18 5.62995e-05
19 *369:6 *1968:A1 1.56e-05
20 *369:6 *2452:A 9.60875e-05
21 *369:6 *545:27 4.27437e-05
22 *369:6 *550:68 0.000272371
23 *369:10 *1974:A1 1.41706e-05
24 *369:10 *2337:A2 0
25 *369:10 *434:8 0
26 *369:10 *550:62 0
27 *369:12 *434:8 0
28 *369:12 *550:62 0
29 *369:18 *434:8 0
30 *369:18 *517:86 5.41609e-05
31 *369:18 *547:83 0
32 *369:18 *550:62 0
*RES
1 *1968:Y *369:6 12.7107 
2 *369:6 *369:10 6.75 
3 *369:10 *369:12 0.883929 
4 *369:12 *369:18 8.25893 
5 *369:18 *1976:A1 13.0321 
6 *369:18 *1977:A2 9.3 
7 *369:12 *1973:B1_N 15.0232 
8 *369:10 *2010:A2 15.5857 
9 *369:6 *1974:A2 9.3 
*END

*D_NET *370 0.000679882
*CONN
*I *2360:A I *D sky130_fd_sc_hd__xor2_1
*I *2400:A1 I *D sky130_fd_sc_hd__o21bai_1
*I *2355:Y O *D sky130_fd_sc_hd__nand2_1
*CAP
1 *2360:A 5.61466e-05
2 *2400:A1 2.61882e-05
3 *2355:Y 0
4 *370:4 8.23348e-05
5 *2360:A *2302:B 5.7431e-05
6 *2360:A *2355:B 0
7 *2360:A *2401:B 3.18676e-05
8 *2360:A *448:42 0.000216121
9 *2360:A *545:58 1.74352e-05
10 *2400:A1 *2355:B 3.99614e-06
11 *2400:A1 *2401:B 8.74014e-05
12 *2400:A1 *448:42 0.00010096
*RES
1 *2355:Y *370:4 9.3 
2 *370:4 *2400:A1 10.675 
3 *370:4 *2360:A 11.9071 
*END

*D_NET *371 0.000406807
*CONN
*I *2403:A I *D sky130_fd_sc_hd__xor2_1
*I *2356:Y O *D sky130_fd_sc_hd__nand2_1
*CAP
1 *2403:A 0.000110325
2 *2356:Y 0.000110325
3 *2403:A *1983:A 5.33005e-05
4 *2403:A *2356:A 9.71197e-05
5 *2403:A *2403:B 3.57366e-05
*RES
1 *2356:Y *2403:A 20.7964 
*END

*D_NET *372 0.000767021
*CONN
*I *2400:B1_N I *D sky130_fd_sc_hd__o21bai_1
*I *2359:A I *D sky130_fd_sc_hd__or2_4
*I *2357:X O *D sky130_fd_sc_hd__and3_1
*CAP
1 *2400:B1_N 9.75961e-05
2 *2359:A 0.000130327
3 *2357:X 0
4 *372:4 0.000227923
5 *2359:A *2357:A 0
6 *2359:A *548:58 0.000105163
7 *2400:B1_N *2357:C 3.92757e-05
8 *2400:B1_N *2358:B2 5.59013e-05
9 *2400:B1_N *2359:B 5.64858e-05
10 *2400:B1_N *448:27 5.43491e-05
*RES
1 *2357:X *372:4 9.3 
2 *372:4 *2359:A 11.925 
3 *372:4 *2400:B1_N 20.55 
*END

*D_NET *373 0.000897713
*CONN
*I *2400:A2 I *D sky130_fd_sc_hd__o21bai_1
*I *2359:B I *D sky130_fd_sc_hd__or2_4
*I *2358:Y O *D sky130_fd_sc_hd__a22oi_1
*CAP
1 *2400:A2 2.42736e-05
2 *2359:B 0.000171788
3 *2358:Y 6.84781e-05
4 *373:8 0.00026454
5 *2359:B *2355:A 0
6 *2359:B *2357:C 0
7 *2359:B *2358:B2 3.17148e-05
8 *2359:B *2360:B 0
9 *2359:B *548:47 0
10 *2400:A2 *2401:B 6.5299e-05
11 *2400:A2 *2405:A 2.89114e-05
12 *373:8 *2358:B2 9.60875e-05
13 *373:8 *2401:B 2.14658e-05
14 *373:8 *2405:A 6.86693e-05
15 *2400:B1_N *2359:B 5.64858e-05
*RES
1 *2358:Y *373:8 11.0857 
2 *373:8 *2359:B 20.8536 
3 *373:8 *2400:A2 10.2643 
*END

*D_NET *374 0.00052314
*CONN
*I *2360:B I *D sky130_fd_sc_hd__xor2_1
*I *2359:X O *D sky130_fd_sc_hd__or2_4
*CAP
1 *2360:B 0.000221204
2 *2359:X 0.000221204
3 *2360:B *2304:A1 0
4 *2360:B *2355:A 0
5 *2360:B *518:12 0
6 *2360:B *548:58 8.07313e-05
7 *2359:B *2360:B 0
*RES
1 *2359:X *2360:B 31.2071 
*END

*D_NET *375 0.00225404
*CONN
*I *2361:C I *D sky130_fd_sc_hd__nor3_1
*I *2362:B1 I *D sky130_fd_sc_hd__o21a_1
*I *2360:X O *D sky130_fd_sc_hd__xor2_1
*CAP
1 *2361:C 9.87915e-05
2 *2362:B1 0
3 *2360:X 0.00040312
4 *375:14 0.000501911
5 *375:14 *2302:A 5.41794e-05
6 *375:14 *2302:B 5.62995e-05
7 *375:14 *2303:B 0
8 *375:14 *448:42 9.22103e-06
9 *375:14 *518:38 0.000230475
10 *375:14 *519:8 9.25014e-06
11 *375:14 *520:16 5.33005e-05
12 *2306:A *375:14 6.8646e-06
13 *2361:A *2361:C 5.52302e-05
14 *2361:B *2361:C 1.74352e-05
15 *2362:A1 *2361:C 0.000214192
16 *2362:A1 *375:14 0.00014183
17 *312:6 *375:14 0.000353079
18 *314:10 *375:14 4.88637e-05
19 *317:12 *375:14 0
*RES
1 *2360:X *375:14 27.9786 
2 *375:14 *2362:B1 9.3 
3 *375:14 *2361:C 11.8893 
*END

*D_NET *376 0.000966787
*CONN
*I *2363:A I *D sky130_fd_sc_hd__or2_4
*I *2361:Y O *D sky130_fd_sc_hd__nor3_1
*CAP
1 *2363:A 0.000331763
2 *2361:Y 0.000331763
3 *2363:A *571:14 0.000101545
4 *2306:B *2363:A 5.62914e-05
5 *2361:A *2363:A 0.00010096
6 *313:10 *2363:A 2.56601e-05
7 *313:32 *2363:A 1.88048e-05
*RES
1 *2361:Y *2363:A 32.9214 
*END

*D_NET *377 0.00157733
*CONN
*I *2408:B1 I *D sky130_fd_sc_hd__a21oi_1
*I *2363:B I *D sky130_fd_sc_hd__or2_4
*I *2362:X O *D sky130_fd_sc_hd__o21a_1
*CAP
1 *2408:B1 0.000101736
2 *2363:B 4.77608e-05
3 *2362:X 0.000177613
4 *377:8 0.00032711
5 *2363:B *490:12 0.00018372
6 *2363:B *493:14 1.56e-05
7 *2408:B1 *566:20 0.000148911
8 *377:8 *566:20 0.000168217
9 *2306:B *2363:B 1.98839e-05
10 *2306:C *2363:B 9.41642e-05
11 *2306:C *377:8 1.91414e-05
12 *314:10 *377:8 6.32633e-05
13 *316:8 *2408:B1 7.15591e-05
14 *316:8 *377:8 7.73662e-05
15 *317:12 *377:8 6.12813e-05
*RES
1 *2362:X *377:8 18.175 
2 *377:8 *2363:B 15.5679 
3 *377:8 *2408:B1 16.2821 
*END

*D_NET *378 0.000567858
*CONN
*I *2365:B I *D sky130_fd_sc_hd__xor2_1
*I *2364:A I *D sky130_fd_sc_hd__inv_2
*I *2363:X O *D sky130_fd_sc_hd__or2_4
*CAP
1 *2365:B 0.000172079
2 *2364:A 0
3 *2363:X 9.64651e-05
4 *378:8 0.000268544
5 *378:8 *566:20 0
6 *2365:A *2365:B 1.33343e-05
7 *2408:A1 *2365:B 0
8 *2408:A1 *378:8 0
9 *319:10 *2365:B 1.74352e-05
*RES
1 *2363:X *378:8 15.4429 
2 *378:8 *2364:A 13.8 
3 *378:8 *2365:B 17.0143 
*END

*D_NET *379 0.000112637
*CONN
*I *2408:A2 I *D sky130_fd_sc_hd__a21oi_1
*I *2364:Y O *D sky130_fd_sc_hd__inv_2
*CAP
1 *2408:A2 5.63185e-05
2 *2364:Y 5.63185e-05
*RES
1 *2364:Y *2408:A2 19.5464 
*END

*D_NET *380 0.0024864
*CONN
*I *1972:B I *D sky130_fd_sc_hd__or2_1
*I *1971:B I *D sky130_fd_sc_hd__nor2_1
*I *1970:A2 I *D sky130_fd_sc_hd__a211o_1
*I *1969:X O *D sky130_fd_sc_hd__and2b_1
*CAP
1 *1972:B 0.000216421
2 *1971:B 0.00022656
3 *1970:A2 0
4 *1969:X 0.000110639
5 *380:19 0.000455039
6 *380:12 0.000122697
7 *1971:B *1970:A1 6.05161e-06
8 *1971:B *1971:A 0
9 *1971:B *1973:A1 5.33005e-05
10 *1971:B *1973:A2 0.000176685
11 *1971:B *2454:A 1.33343e-05
12 *1971:B *391:6 5.33005e-05
13 *1971:B *423:10 8.66299e-05
14 *1971:B *547:8 2.80068e-05
15 *1972:B *1970:A1 1.98839e-05
16 *1972:B *1972:A 0.000178847
17 *1972:B *2454:A 0.000303362
18 *1972:B *547:6 5.37908e-05
19 *380:12 *1969:B 5.71472e-05
20 *380:12 *440:16 0.000150618
21 *380:12 *520:106 4.43142e-05
22 *380:19 *1970:A1 1.04232e-05
23 *380:19 *1973:A2 0
24 *1970:B1 *1972:B 6.17358e-05
25 *1970:B1 *380:12 5.7616e-05
26 *2010:A2 *1971:B 0
*RES
1 *1969:X *380:12 20.7821 
2 *380:12 *1970:A2 9.3 
3 *380:12 *380:19 0.428571 
4 *380:19 *1971:B 14.0857 
5 *380:19 *1972:B 14.3536 
*END

*D_NET *381 0.00213853
*CONN
*I *2366:C I *D sky130_fd_sc_hd__and3_1
*I *2367:B1 I *D sky130_fd_sc_hd__a21oi_1
*I *2365:X O *D sky130_fd_sc_hd__xor2_1
*CAP
1 *2366:C 0.00018978
2 *2367:B1 0.000218117
3 *2365:X 0.000222337
4 *381:8 0.000630234
5 *2366:C *544:18 7.74762e-05
6 *2367:B1 *383:10 9.71197e-05
7 *2367:B1 *555:12 4.16984e-05
8 *381:8 *2409:A 0
9 *2366:A *2366:C 9.0573e-05
10 *2367:A1 *2367:B1 0.000196968
11 *2408:A1 *381:8 0
12 *319:10 *2366:C 5.83304e-05
13 *319:10 *381:8 0.000315894
14 *320:12 *2366:C 0
15 *320:12 *381:8 0
16 *368:14 *381:8 0
*RES
1 *2365:X *381:8 18.7821 
2 *381:8 *2367:B1 18.8714 
3 *381:8 *2366:C 17.175 
*END

*D_NET *382 0.00210145
*CONN
*I *2368:A1 I *D sky130_fd_sc_hd__o21ai_1
*I *2369:B I *D sky130_fd_sc_hd__or3_4
*I *2366:X O *D sky130_fd_sc_hd__and3_1
*CAP
1 *2368:A1 0.000153613
2 *2369:B 0.000484979
3 *2366:X 0.000154839
4 *382:8 0.00079343
5 *2368:A1 *2368:A2 0
6 *2368:A1 *494:12 0.000142856
7 *2369:B *2369:C 3.18676e-05
8 *2369:B *2390:B 1.74352e-05
9 *2369:B *383:14 0.000195396
10 *382:8 *2368:A2 0
11 *382:8 *383:10 0
12 *2311:A *2369:B 1.24368e-05
13 *2312:B *382:8 2.60251e-05
14 *2367:A2 *382:8 1.19309e-05
15 *320:12 *382:8 0
16 *322:23 *382:8 7.6644e-05
17 *323:16 *2368:A1 0
*RES
1 *2366:X *382:8 16.6571 
2 *382:8 *2369:B 20.4071 
3 *382:8 *2368:A1 16.8 
*END

*D_NET *383 0.00197269
*CONN
*I *2368:A2 I *D sky130_fd_sc_hd__o21ai_1
*I *2369:C I *D sky130_fd_sc_hd__or3_4
*I *2390:A_N I *D sky130_fd_sc_hd__and2b_1
*I *2367:Y O *D sky130_fd_sc_hd__a21oi_1
*CAP
1 *2368:A2 0.000144926
2 *2369:C 6.93665e-06
3 *2390:A_N 0
4 *2367:Y 0.000257379
5 *383:14 0.000121952
6 *383:10 0.00051732
7 *2368:A2 *2412:A 0
8 *2369:C *2390:B 4.38128e-05
9 *383:10 *2411:A 4.38511e-05
10 *383:10 *2411:B 0.000124957
11 *383:10 *2412:A 0
12 *383:14 *2390:B 0.00014183
13 *2367:A2 *383:10 0.000245342
14 *2367:B1 *383:10 9.71197e-05
15 *2368:A1 *2368:A2 0
16 *2369:B *2369:C 3.18676e-05
17 *2369:B *383:14 0.000195396
18 *319:10 *383:10 0
19 *382:8 *2368:A2 0
20 *382:8 *383:10 0
*RES
1 *2367:Y *383:10 20.3357 
2 *383:10 *383:14 7.91071 
3 *383:14 *2390:A_N 9.3 
4 *383:14 *2369:C 9.83571 
5 *383:10 *2368:A2 16.05 
*END

*D_NET *384 0.00195667
*CONN
*I *2371:B I *D sky130_fd_sc_hd__and3_1
*I *2370:A I *D sky130_fd_sc_hd__nand2_4
*I *2368:Y O *D sky130_fd_sc_hd__o21ai_1
*CAP
1 *2371:B 0.000336303
2 *2370:A 0
3 *2368:Y 0.00026166
4 *384:10 0.000597964
5 *2371:B *2372:B 2.61337e-05
6 *2371:B *2389:B 0.000358977
7 *2371:B *431:10 3.57844e-05
8 *384:10 *2412:A 4.16114e-05
9 *384:10 *2412:B 8.15843e-05
10 *384:10 *431:10 6.42242e-05
11 *384:10 *494:12 1.32552e-05
12 *2349:A *384:10 0
13 *2369:A *384:10 5.33433e-05
14 *2371:A *2371:B 4.88637e-05
15 *363:12 *384:10 3.69697e-05
*RES
1 *2368:Y *384:10 19.2286 
2 *384:10 *2370:A 13.8 
3 *384:10 *2371:B 19.0679 
*END

*D_NET *385 0.0020079
*CONN
*I *2371:C I *D sky130_fd_sc_hd__and3_1
*I *2370:B I *D sky130_fd_sc_hd__nand2_4
*I *2390:B I *D sky130_fd_sc_hd__and2b_1
*I *2369:X O *D sky130_fd_sc_hd__or3_4
*CAP
1 *2371:C 0
2 *2370:B 0.000158749
3 *2390:B 0.00021425
4 *2369:X 0
5 *385:21 0.000409525
6 *385:4 0.000465026
7 *385:21 *2412:A 0
8 *385:21 *2412:B 0
9 *385:21 *494:12 0.000176234
10 *385:21 *533:16 0.000195228
11 *2369:A *385:21 0.000106542
12 *2369:B *2390:B 1.74352e-05
13 *2369:C *2390:B 4.38128e-05
14 *2371:A *2370:B 7.34719e-05
15 *2371:A *385:21 5.7993e-06
16 *383:14 *2390:B 0.00014183
*RES
1 *2369:X *385:4 9.3 
2 *385:4 *2390:B 13.55 
3 *385:4 *385:21 16 
4 *385:21 *2370:B 11.7286 
5 *385:21 *2371:C 9.3 
*END

*D_NET *386 0.000845638
*CONN
*I *2372:B I *D sky130_fd_sc_hd__xnor2_2
*I *2370:Y O *D sky130_fd_sc_hd__nand2_4
*CAP
1 *2372:B 0.00038214
2 *2370:Y 0.00038214
3 *2372:B *388:12 5.52238e-05
4 *2372:B *431:10 0
5 *2372:B *533:16 0
6 *2371:B *2372:B 2.61337e-05
*RES
1 *2370:Y *2372:B 34.0464 
*END

*D_NET *387 0.00131508
*CONN
*I *2389:B I *D sky130_fd_sc_hd__xnor2_1
*I *2371:X O *D sky130_fd_sc_hd__and3_1
*CAP
1 *2389:B 0.000206933
2 *2371:X 0.000206933
3 *2371:A *2389:B 0.000542235
4 *2371:B *2389:B 0.000358977
*RES
1 *2371:X *2389:B 24.9036 
*END

*D_NET *388 0.00290657
*CONN
*I *2373:A I *D sky130_fd_sc_hd__xnor2_1
*I *2388:B1 I *D sky130_fd_sc_hd__o21ai_1
*I *2372:Y O *D sky130_fd_sc_hd__xnor2_2
*CAP
1 *2373:A 7.40446e-05
2 *2388:B1 0.000127977
3 *2372:Y 0.000668421
4 *388:12 0.000870443
5 *2373:A *2419:A2 0.000138881
6 *2373:A *2492:A 2.42516e-05
7 *2388:B1 *2419:A2 6.21188e-05
8 *2388:B1 *2419:B1 5.68722e-05
9 *2388:B1 *2419:C1 5.68713e-05
10 *2388:B1 *2492:A 6.05161e-06
11 *2388:B1 *397:12 0.000226681
12 *388:12 *2381:A1 0
13 *388:12 *2381:A2 0.000123295
14 *388:12 *2491:A 0.000125724
15 *388:12 *2492:A 0.000118179
16 *388:12 *397:12 9.10431e-06
17 *388:12 *431:10 0
18 *388:12 *545:134 0.00015134
19 *2315:B *388:12 0
20 *2318:A *2388:B1 1.10868e-05
21 *2372:B *388:12 5.52238e-05
*RES
1 *2372:Y *388:12 31.6214 
2 *388:12 *2388:B1 12.7107 
3 *388:12 *2373:A 11.0857 
*END

*D_NET *389 0.00161598
*CONN
*I *2374:B I *D sky130_fd_sc_hd__or2_1
*I *2375:B I *D sky130_fd_sc_hd__nand2_1
*I *2373:Y O *D sky130_fd_sc_hd__xnor2_1
*CAP
1 *2374:B 0.000165219
2 *2375:B 0.000428687
3 *2373:Y 0
4 *389:6 0.000593906
5 *2374:B *2381:A3 0.000101009
6 *2374:B *2419:A2 5.99125e-05
7 *2375:B *2381:A2 5.68722e-05
8 *2375:B *2381:A3 6.75007e-05
9 *2375:B *2419:A2 4.15914e-05
10 *2375:B *2492:A 0
11 op_out[6] *2374:B 7.72855e-05
12 op_out[7] *2375:B 2.39923e-05
*RES
1 *2373:Y *389:6 13.8 
2 *389:6 *2375:B 21.4071 
3 *389:6 *2374:B 17.8536 
*END

*D_NET *390 0.000941804
*CONN
*I *2381:A3 I *D sky130_fd_sc_hd__a31o_1
*I *2374:X O *D sky130_fd_sc_hd__or2_1
*CAP
1 *2381:A3 0.000204336
2 *2374:X 0.000204336
3 *2381:A3 *2413:A 0.000183726
4 *2381:A3 *2491:A 4.39196e-05
5 *2381:A3 *2492:A 6.19181e-05
6 *2373:B *2381:A3 7.50601e-05
7 *2374:B *2381:A3 0.000101009
8 *2375:B *2381:A3 6.75007e-05
*RES
1 *2374:X *2381:A3 33.4393 
*END

*D_NET *391 0.00112354
*CONN
*I *1977:B1 I *D sky130_fd_sc_hd__a211o_1
*I *1976:B1 I *D sky130_fd_sc_hd__a21oi_1
*I *1973:A1 I *D sky130_fd_sc_hd__o21bai_1
*I *1970:X O *D sky130_fd_sc_hd__a211o_1
*CAP
1 *1977:B1 5.67109e-05
2 *1976:B1 0
3 *1973:A1 2.25053e-05
4 *1970:X 1.92319e-05
5 *391:19 0.000151674
6 *391:6 0.0001367
7 *1973:A1 *547:8 1.58163e-05
8 *1977:B1 *1969:B 9.41642e-05
9 *1977:B1 *1977:A1 5.85575e-05
10 *391:6 *547:8 1.21258e-05
11 *391:19 *1968:A1 0.000148903
12 *391:19 *1985:A 1.02504e-05
13 *391:19 *497:62 0.000214977
14 *391:19 *517:88 7.53238e-05
15 *1971:B *1973:A1 5.33005e-05
16 *1971:B *391:6 5.33005e-05
*RES
1 *1970:X *391:6 9.83571 
2 *391:6 *1973:A1 9.83571 
3 *391:6 *391:19 11.8571 
4 *391:19 *1976:B1 9.3 
5 *391:19 *1977:B1 11.1036 
*END

*D_NET *392 0.000492814
*CONN
*I *2381:A2 I *D sky130_fd_sc_hd__a31o_1
*I *2375:Y O *D sky130_fd_sc_hd__nand2_1
*CAP
1 *2381:A2 0.00015491
2 *2375:Y 0.00015491
3 *2381:A2 *2381:A1 2.8266e-06
4 *2381:A2 *431:10 0
5 *2375:B *2381:A2 5.68722e-05
6 *388:12 *2381:A2 0.000123295
*RES
1 *2375:Y *2381:A2 30.1893 
*END

*D_NET *393 0.000843799
*CONN
*I *2377:B2 I *D sky130_fd_sc_hd__o22a_1
*I *2376:Y O *D sky130_fd_sc_hd__a21oi_1
*CAP
1 *2377:B2 0.000187506
2 *2376:Y 0.000187506
3 *2377:B2 *2376:A2 3.72394e-05
4 *2377:B2 *2377:A1 0.000195504
5 *2377:B2 *2377:A2 3.48705e-05
6 *2377:B2 *2460:A 5.7616e-05
7 *2378:A3 *2377:B2 0
8 *188:20 *2377:B2 0.00011167
9 *188:26 *2377:B2 3.1889e-05
10 *197:68 *2377:B2 0
*RES
1 *2376:Y *2377:B2 32.35 
*END

*D_NET *394 0.000472532
*CONN
*I *2379:B1 I *D sky130_fd_sc_hd__a211o_1
*I *2377:X O *D sky130_fd_sc_hd__o22a_1
*CAP
1 *2379:B1 0.000145456
2 *2377:X 0.000145456
3 *2379:B1 *2379:C1 9.54301e-05
4 *2338:B *2379:B1 6.34485e-05
5 *199:43 *2379:B1 2.27416e-05
6 *199:51 *2379:B1 0
*RES
1 *2377:X *2379:B1 30.3321 
*END

*D_NET *395 0.000457202
*CONN
*I *2379:C1 I *D sky130_fd_sc_hd__a211o_1
*I *2378:X O *D sky130_fd_sc_hd__a32o_1
*CAP
1 *2379:C1 0.000142235
2 *2378:X 0.000142235
3 *2379:C1 *2379:A1 8.6229e-06
4 *2379:C1 *2416:B2 5.60681e-05
5 *2379:C1 *2418:B1 8.00843e-06
6 *2379:C1 *537:26 4.6025e-06
7 *2379:B1 *2379:C1 9.54301e-05
*RES
1 *2378:X *2379:C1 30.0821 
*END

*D_NET *396 0.00212797
*CONN
*I *2380:C1 I *D sky130_fd_sc_hd__a211o_1
*I *2379:X O *D sky130_fd_sc_hd__a211o_1
*CAP
1 *2380:C1 0.000513048
2 *2379:X 0.000513048
3 *2380:C1 *2419:B1 6.53083e-05
4 *2380:C1 *440:16 2.59355e-05
5 *2380:C1 *492:33 0.000111017
6 *2380:C1 *492:39 0.000248486
7 *2380:C1 *532:23 2.37761e-05
8 *2380:C1 *532:25 6.35798e-05
9 *2380:C1 *552:26 0.000146474
10 *2380:C1 *554:97 7.73662e-05
11 *2380:B1 *2380:C1 5.52238e-05
12 *2387:A *2380:C1 0.000257619
13 *2417:A3 *2380:C1 2.70899e-05
*RES
1 *2379:X *2380:C1 47.9929 
*END

*D_NET *397 0.00616477
*CONN
*I *2381:B1 I *D sky130_fd_sc_hd__a31o_1
*I *2380:X O *D sky130_fd_sc_hd__a211o_1
*CAP
1 *2381:B1 0
2 *2380:X 0.00148317
3 *397:12 0.00148317
4 *397:12 *2381:A1 0.000148189
5 *397:12 *2419:A3 0.000101545
6 *397:12 *2419:C1 0.00210318
7 *397:12 *405:12 9.71197e-05
8 *397:12 *545:134 1.08359e-05
9 *2387:A *397:12 0.000358915
10 *2388:A2 *397:12 0.000142856
11 *2388:B1 *397:12 0.000226681
12 *388:12 *397:12 9.10431e-06
*RES
1 *2380:X *397:12 49.5321 
2 *397:12 *2381:B1 9.3 
*END

*D_NET *398 0.00226613
*CONN
*I *2386:A I *D sky130_fd_sc_hd__xnor2_1
*I *2382:Y O *D sky130_fd_sc_hd__a21oi_1
*CAP
1 *2386:A 0.000856581
2 *2382:Y 0.000856581
3 *2386:A *2383:A 8.64753e-05
4 *2386:A *2385:A 0.000139907
5 *2386:A *2386:B 0.000136697
6 *2386:A *545:115 0
7 *2386:A *553:30 0.000189887
*RES
1 *2382:Y *2386:A 31.8143 
*END

*D_NET *399 0.000345295
*CONN
*I *2385:A I *D sky130_fd_sc_hd__xnor2_1
*I *2383:Y O *D sky130_fd_sc_hd__xnor2_1
*CAP
1 *2385:A 9.96682e-05
2 *2383:Y 9.96682e-05
3 *2385:A *2383:A 6.05161e-06
4 *2385:A *2386:B 0
5 *2386:A *2385:A 0.000139907
*RES
1 *2383:Y *2385:A 20.6893 
*END

*D_NET *400 0.00364795
*CONN
*I *2385:B I *D sky130_fd_sc_hd__xnor2_1
*I *2384:X O *D sky130_fd_sc_hd__a21o_1
*CAP
1 *2385:B 0.00148028
2 *2384:X 0.00148028
3 *2385:B *1967:A1 0
4 *2385:B *2384:A1 0.000110589
5 *2385:B *535:21 0.000345292
6 *2385:B *535:72 0.000231516
7 *2385:B *545:115 0
*RES
1 *2384:X *2385:B 46.9214 
*END

*D_NET *401 0.000456968
*CONN
*I *1973:A2 I *D sky130_fd_sc_hd__o21bai_1
*I *1971:Y O *D sky130_fd_sc_hd__nor2_1
*CAP
1 *1973:A2 7.32491e-05
2 *1971:Y 7.32491e-05
3 *1973:A2 *1970:A1 0
4 *1973:A2 *1971:A 5.7661e-06
5 *1973:A2 *547:8 6.05161e-06
6 *1973:A2 *547:12 0.000121967
7 *1971:B *1973:A2 0.000176685
8 *380:19 *1973:A2 0
*RES
1 *1971:Y *1973:A2 21.225 
*END

*D_NET *402 0.000226494
*CONN
*I *2386:B I *D sky130_fd_sc_hd__xnor2_1
*I *2385:Y O *D sky130_fd_sc_hd__xnor2_1
*CAP
1 *2386:B 4.48987e-05
2 *2385:Y 4.48987e-05
3 *2385:A *2386:B 0
4 *2386:A *2386:B 0.000136697
*RES
1 *2385:Y *2386:B 19.975 
*END

*D_NET *403 0.000385737
*CONN
*I *2387:B I *D sky130_fd_sc_hd__nor2_1
*I *2386:Y O *D sky130_fd_sc_hd__xnor2_1
*CAP
1 *2387:B 5.92467e-05
2 *2386:Y 5.92467e-05
3 *2387:B *1967:A1 9.24395e-05
4 *2387:B *523:115 0.000174805
*RES
1 *2386:Y *2387:B 29.85 
*END

*D_NET *404 0.0040441
*CONN
*I *2419:C1 I *D sky130_fd_sc_hd__a311o_1
*I *2387:Y O *D sky130_fd_sc_hd__nor2_1
*CAP
1 *2419:C1 0.000831678
2 *2387:Y 0.000831678
3 *2318:A *2419:C1 0.000185839
4 *2388:A1 *2419:C1 3.4855e-05
5 *2388:B1 *2419:C1 5.68713e-05
6 *397:12 *2419:C1 0.00210318
*RES
1 *2387:Y *2419:C1 40.225 
*END

*D_NET *405 0.00168352
*CONN
*I *2414:A I *D sky130_fd_sc_hd__nand2_1
*I *2413:A I *D sky130_fd_sc_hd__or2_1
*I *2388:Y O *D sky130_fd_sc_hd__o21ai_1
*CAP
1 *2414:A 0
2 *2413:A 0.000212697
3 *2388:Y 0.000142169
4 *405:12 0.000354866
5 *2413:A *2381:A1 0.000100261
6 *2413:A *2413:B 0.000360194
7 *2413:A *2414:B 5.52302e-05
8 *2413:A *545:134 4.01985e-05
9 *405:12 *2381:A1 4.8476e-05
10 *405:12 *2414:B 1.02504e-05
11 *2381:A3 *2413:A 0.000183726
12 *328:12 *405:12 7.8327e-05
13 *397:12 *405:12 9.71197e-05
*RES
1 *2388:Y *405:12 21.1929 
2 *405:12 *2413:A 15.7464 
3 *405:12 *2414:A 9.3 
*END

*D_NET *406 0.00070378
*CONN
*I *2412:B I *D sky130_fd_sc_hd__xnor2_1
*I *2389:Y O *D sky130_fd_sc_hd__xnor2_1
*CAP
1 *2412:B 0.000249502
2 *2389:Y 0.000249502
3 *2412:B *2412:A 3.51442e-05
4 *2371:A *2412:B 8.80467e-05
5 *384:10 *2412:B 8.15843e-05
6 *385:21 *2412:B 0
*RES
1 *2389:Y *2412:B 31.725 
*END

*D_NET *407 0.000432232
*CONN
*I *2411:A I *D sky130_fd_sc_hd__xnor2_2
*I *2390:X O *D sky130_fd_sc_hd__and2b_1
*CAP
1 *2411:A 0.000128463
2 *2390:X 0.000128463
3 *2411:A *2411:B 3.34366e-05
4 *2411:A *2412:A 0
5 *2411:A *544:18 9.80173e-05
6 *383:10 *2411:A 4.38511e-05
*RES
1 *2390:X *2411:A 30.4929 
*END

*D_NET *408 0.000503693
*CONN
*I *2399:A I *D sky130_fd_sc_hd__xnor2_1
*I *2391:Y O *D sky130_fd_sc_hd__nand2_1
*CAP
1 *2399:A 0.000165471
2 *2391:Y 0.000165471
3 *2399:A *2391:A 0
4 *2399:A *2391:B 0.000103033
5 *2399:A *2406:A 8.43535e-06
6 *2399:A *548:37 5.52302e-05
7 *2277:A2 *2399:A 6.05161e-06
*RES
1 *2391:Y *2399:A 21.6179 
*END

*D_NET *409 0.00093595
*CONN
*I *2396:A I *D sky130_fd_sc_hd__and4_1
*I *2397:A1 I *D sky130_fd_sc_hd__a22o_1
*I *2392:X O *D sky130_fd_sc_hd__a22o_1
*CAP
1 *2396:A 2.84912e-05
2 *2397:A1 0.000173574
3 *2392:X 5.04519e-05
4 *409:8 0.000252517
5 *2396:A *497:89 5.52302e-05
6 *2397:A1 *2394:A2 1.76039e-05
7 *2397:A1 *2397:A2 9.16311e-05
8 *2397:A1 *2397:B1 0.000173083
9 *2397:A1 *554:75 0
10 *409:8 *2394:A2 4.44529e-05
11 *409:8 *2397:A2 1.76135e-05
12 *409:8 *410:8 3.13013e-05
*RES
1 *2392:X *409:8 15.1393 
2 *409:8 *2397:A1 17.6214 
3 *409:8 *2396:A 14.3357 
*END

*D_NET *410 0.000973737
*CONN
*I *2396:B I *D sky130_fd_sc_hd__and4_1
*I *2397:A2 I *D sky130_fd_sc_hd__a22o_1
*I *2393:Y O *D sky130_fd_sc_hd__nand4_1
*CAP
1 *2396:B 3.92213e-05
2 *2397:A2 0.000205045
3 *2393:Y 5.51697e-05
4 *410:8 0.000299436
5 *2396:B *497:89 5.52302e-05
6 *2397:A2 *2396:C 2.61337e-05
7 *2397:A2 *2396:D 0.000143407
8 *410:8 *2393:B 9.54798e-06
9 *410:8 *2402:B 0
10 *2397:A1 *2397:A2 9.16311e-05
11 *409:8 *2397:A2 1.76135e-05
12 *409:8 *410:8 3.13013e-05
*RES
1 *2393:Y *410:8 14.8357 
2 *410:8 *2397:A2 18.2107 
3 *410:8 *2396:B 14.3357 
*END

*D_NET *411 0.00118114
*CONN
*I *2396:C I *D sky130_fd_sc_hd__and4_1
*I *2397:B1 I *D sky130_fd_sc_hd__a22o_1
*I *2394:X O *D sky130_fd_sc_hd__a22o_1
*CAP
1 *2396:C 5.62573e-05
2 *2397:B1 0.000132645
3 *2394:X 0
4 *411:4 0.000188903
5 *2396:C *2394:A1 0.00018372
6 *2396:C *2396:D 5.59013e-05
7 *2396:C *520:56 0.000172309
8 *2397:B1 *2394:A1 9.60939e-05
9 *2397:B1 *520:56 9.60939e-05
10 *2397:B1 *554:75 0
11 *2397:A1 *2397:B1 0.000173083
12 *2397:A2 *2396:C 2.61337e-05
*RES
1 *2394:X *411:4 9.3 
2 *411:4 *2397:B1 21.4964 
3 *411:4 *2396:C 20.8 
*END

*D_NET *412 0.0019111
*CONN
*I *1976:A2 I *D sky130_fd_sc_hd__a21oi_1
*I *1977:A1 I *D sky130_fd_sc_hd__a211o_1
*I *1972:X O *D sky130_fd_sc_hd__or2_1
*CAP
1 *1976:A2 0
2 *1977:A1 0.000127134
3 *1972:X 0.00046508
4 *412:12 0.000592213
5 *1977:A1 *1969:B 4.17014e-05
6 *1977:A1 *517:86 1.97756e-05
7 *412:12 *1969:A_N 5.52302e-05
8 *412:12 *1969:B 5.33334e-05
9 *412:12 *2402:B 7.24945e-05
10 *412:12 *532:29 0
11 *412:12 *548:104 0.00012542
12 *1976:A1 *1977:A1 0.000300164
13 *1977:B1 *1977:A1 5.85575e-05
*RES
1 *1972:X *412:12 26.9429 
2 *412:12 *1977:A1 13.1571 
3 *412:12 *1976:A2 9.3 
*END

*D_NET *413 0.00522661
*CONN
*I *2396:D I *D sky130_fd_sc_hd__and4_1
*I *2397:B2 I *D sky130_fd_sc_hd__a22o_1
*I *2395:X O *D sky130_fd_sc_hd__or4b_1
*CAP
1 *2396:D 0.000294195
2 *2397:B2 0
3 *2395:X 0.00128542
4 *413:16 0.00157962
5 *2396:D *2398:B 9.90431e-05
6 *2396:D *2399:B 1.92789e-05
7 *2396:D *2402:B 0.000197991
8 *413:16 *1985:B 0.000230475
9 *413:16 *1989:A1 0.00018372
10 *413:16 *1989:B1 7.3237e-05
11 *413:16 *1989:C1 0.000265447
12 *413:16 *1991:A1 5.83233e-05
13 *413:16 *1993:A1 0.000140933
14 *413:16 *1993:A2 0.000137696
15 *413:16 *1993:B1 5.5671e-05
16 *413:16 *2009:A1 9.35757e-05
17 *413:16 *449:6 3.67142e-05
18 *413:16 *449:10 0.00022266
19 *413:16 *547:83 0
20 *2395:B *413:16 5.33005e-05
21 *2396:C *2396:D 5.59013e-05
22 *2397:A2 *2396:D 0.000143407
*RES
1 *2395:X *413:16 43.2286 
2 *413:16 *2397:B2 9.3 
3 *413:16 *2396:D 25.1036 
*END

*D_NET *414 0.000412134
*CONN
*I *2398:A_N I *D sky130_fd_sc_hd__and2b_1
*I *2396:X O *D sky130_fd_sc_hd__and4_1
*CAP
1 *2398:A_N 8.64663e-05
2 *2396:X 8.64663e-05
3 *2398:A_N *2394:A1 5.52238e-05
4 *2398:A_N *2402:B 9.24299e-05
5 *2398:A_N *520:56 2.89016e-05
6 *2398:A_N *523:40 6.26466e-05
*RES
1 *2396:X *2398:A_N 30.3857 
*END

*D_NET *415 0.00019222
*CONN
*I *2398:B I *D sky130_fd_sc_hd__and2b_1
*I *2397:X O *D sky130_fd_sc_hd__a22o_1
*CAP
1 *2398:B 4.65883e-05
2 *2397:X 4.65883e-05
3 *2396:D *2398:B 9.90431e-05
*RES
1 *2397:X *2398:B 19.5464 
*END

*D_NET *416 0.000369025
*CONN
*I *2399:B I *D sky130_fd_sc_hd__xnor2_1
*I *2398:X O *D sky130_fd_sc_hd__and2b_1
*CAP
1 *2399:B 0.000134081
2 *2398:X 0.000134081
3 *2399:B *2402:B 8.15843e-05
4 *2396:D *2399:B 1.92789e-05
*RES
1 *2398:X *2399:B 30.0821 
*END

*D_NET *417 0.00121376
*CONN
*I *2406:A I *D sky130_fd_sc_hd__xnor2_1
*I *2399:Y O *D sky130_fd_sc_hd__xnor2_1
*CAP
1 *2406:A 0.000214858
2 *2399:Y 0.000214858
3 *2406:A *2276:C 6.89067e-05
4 *2406:A *2391:A 1.39726e-05
5 *2406:A *2391:B 0.000294349
6 *2406:A *493:31 2.8266e-06
7 *2406:A *493:48 0.000117997
8 *2406:A *518:49 1.19309e-05
9 *2277:A2 *2406:A 0.000139907
10 *2399:A *2406:A 8.43535e-06
11 *286:10 *2406:A 0.000125717
*RES
1 *2399:Y *2406:A 34.5643 
*END

*D_NET *418 0.00107459
*CONN
*I *2405:A I *D sky130_fd_sc_hd__xnor2_1
*I *2400:Y O *D sky130_fd_sc_hd__o21bai_1
*CAP
1 *2405:A 0.000355831
2 *2400:Y 0.000355831
3 *2405:A *2358:A1 0.000100831
4 *2405:A *2401:B 7.49387e-06
5 *2405:A *448:27 0.000136951
6 *2405:A *548:37 2.00751e-05
7 *2400:A2 *2405:A 2.89114e-05
8 *373:8 *2405:A 6.86693e-05
*RES
1 *2400:Y *2405:A 32.9571 
*END

*D_NET *419 0.000828577
*CONN
*I *2404:A I *D sky130_fd_sc_hd__xnor2_1
*I *2401:Y O *D sky130_fd_sc_hd__nand2_1
*CAP
1 *2404:A 0.000124636
2 *2401:Y 0.000124636
3 *2404:A *2403:B 0.000227532
4 *2404:A *2404:B 0.00018372
5 *2404:A *552:92 0
6 *2404:A *554:10 1.74352e-05
7 *2404:A *554:14 8.00806e-05
8 *2404:A *554:64 7.05375e-05
*RES
1 *2401:Y *2404:A 31.725 
*END

*D_NET *420 0.0012762
*CONN
*I *2403:B I *D sky130_fd_sc_hd__xor2_1
*I *2402:Y O *D sky130_fd_sc_hd__nand2_1
*CAP
1 *2403:B 0.000442395
2 *2402:Y 0.000442395
3 *2403:B *2404:B 2.28499e-05
4 *2403:B *2405:B 5.62995e-05
5 *2403:B *548:37 0
6 *2403:B *554:10 4.89867e-05
7 *2403:B *554:64 0
8 *2403:A *2403:B 3.57366e-05
9 *2404:A *2403:B 0.000227532
*RES
1 *2402:Y *2403:B 35.9571 
*END

*D_NET *421 0.000422064
*CONN
*I *2404:B I *D sky130_fd_sc_hd__xnor2_1
*I *2403:X O *D sky130_fd_sc_hd__xor2_1
*CAP
1 *2404:B 6.88598e-05
2 *2403:X 6.88598e-05
3 *2404:B *554:10 7.77751e-05
4 *2403:B *2404:B 2.28499e-05
5 *2404:A *2404:B 0.00018372
*RES
1 *2403:X *2404:B 20.7786 
*END

*D_NET *422 0.00040677
*CONN
*I *2405:B I *D sky130_fd_sc_hd__xnor2_1
*I *2404:Y O *D sky130_fd_sc_hd__xnor2_1
*CAP
1 *2405:B 9.82216e-05
2 *2404:Y 9.82216e-05
3 *2405:B *554:10 0.000154027
4 *2403:B *2405:B 5.62995e-05
*RES
1 *2404:Y *2405:B 21.6179 
*END

*D_NET *423 0.00405675
*CONN
*I *2006:B1 I *D sky130_fd_sc_hd__a21o_1
*I *1987:B I *D sky130_fd_sc_hd__nor2_1
*I *1988:B I *D sky130_fd_sc_hd__or2_1
*I *1973:Y O *D sky130_fd_sc_hd__o21bai_1
*CAP
1 *2006:B1 9.63585e-05
2 *1987:B 5.68421e-05
3 *1988:B 4.04604e-05
4 *1973:Y 0.000713362
5 *423:14 0.000180511
6 *423:10 0.000892929
7 *1987:B *1987:A 0.000175251
8 *1987:B *520:70 0.000274294
9 *1987:B *524:31 4.88637e-05
10 *1988:B *1987:A 9.60939e-05
11 *1988:B *520:70 0.000180764
12 *1988:B *524:31 4.88637e-05
13 *2006:B1 *2006:A1 0.000139907
14 *2006:B1 *2006:A2 9.71197e-05
15 *2006:B1 *517:86 3.80277e-05
16 *423:10 *2010:A1 0.000221641
17 *423:10 *534:75 1.91512e-05
18 *423:10 *543:72 0.000110793
19 *423:10 *547:12 2.88018e-06
20 *423:10 *547:18 0.000107991
21 *423:14 *474:8 0
22 *423:14 *516:85 8.3e-05
23 *423:14 *543:72 1.437e-05
24 *1971:B *423:10 8.66299e-05
25 *2010:A2 *423:10 0.00014285
26 *50:37 *423:10 0.000148281
27 *50:37 *423:14 3.95183e-05
*RES
1 *1973:Y *423:10 25.4964 
2 *423:10 *423:14 6.14286 
3 *423:14 *1988:B 11.0679 
4 *423:14 *1987:B 12.3179 
5 *423:10 *2006:B1 16.4071 
*END

*D_NET *424 0.000805667
*CONN
*I *2406:B I *D sky130_fd_sc_hd__xnor2_1
*I *2405:Y O *D sky130_fd_sc_hd__xnor2_1
*CAP
1 *2406:B 0.000275346
2 *2405:Y 0.000275346
3 *2406:B *2358:A1 1.40306e-05
4 *2406:B *2461:A 5.71472e-05
5 *2406:B *493:14 1.00073e-05
6 *2406:B *493:31 0.00017379
7 *2406:B *518:49 0
*RES
1 *2405:Y *2406:B 33.0286 
*END

*D_NET *425 0.00314871
*CONN
*I *2410:A I *D sky130_fd_sc_hd__xnor2_1
*I *2406:Y O *D sky130_fd_sc_hd__xnor2_1
*CAP
1 *2410:A 0.00118916
2 *2406:Y 0.00118916
3 *2410:A *2276:C 5.56943e-05
4 *2410:A *2350:A 5.71472e-05
5 *2410:A *2350:B 0.00014183
6 *2410:A *2409:B 7.3237e-05
7 *2410:A *2410:B 0.000134181
8 *2410:A *545:54 0.000101545
9 *2309:A *2410:A 5.52302e-05
10 *2354:A *2410:A 0.000101056
11 *320:12 *2410:A 5.04589e-05
*RES
1 *2406:Y *2410:A 48.1 
*END

*D_NET *426 0.00183479
*CONN
*I *2409:A I *D sky130_fd_sc_hd__xnor2_1
*I *2407:X O *D sky130_fd_sc_hd__a31o_1
*CAP
1 *2409:A 0.000536379
2 *2407:X 0.000536379
3 *2409:A *555:12 1.11474e-05
4 *311:10 *2409:A 0.000221628
5 *320:12 *2409:A 0.000101545
6 *368:14 *2409:A 0.000427714
7 *381:8 *2409:A 0
*RES
1 *2407:X *2409:A 35.8321 
*END

*D_NET *427 0.000891315
*CONN
*I *2409:B I *D sky130_fd_sc_hd__xnor2_1
*I *2408:Y O *D sky130_fd_sc_hd__a21oi_1
*CAP
1 *2409:B 0.000154923
2 *2408:Y 0.000154923
3 *2409:B *566:22 0.000183684
4 *2408:A1 *2409:B 8.39e-05
5 *2410:A *2409:B 7.3237e-05
6 *320:12 *2409:B 0.000139913
7 *368:14 *2409:B 0.000100735
*RES
1 *2408:Y *2409:B 33.3321 
*END

*D_NET *428 0.000549451
*CONN
*I *2410:B I *D sky130_fd_sc_hd__xnor2_1
*I *2409:Y O *D sky130_fd_sc_hd__xnor2_1
*CAP
1 *2410:B 0.000207635
2 *2409:Y 0.000207635
3 *2410:A *2410:B 0.000134181
*RES
1 *2409:Y *2410:B 22.4393 
*END

*D_NET *429 0.000708889
*CONN
*I *2411:B I *D sky130_fd_sc_hd__xnor2_2
*I *2410:Y O *D sky130_fd_sc_hd__xnor2_1
*CAP
1 *2411:B 0.000193248
2 *2410:Y 0.000193248
3 *2411:B *544:18 0.000163999
4 *2411:A *2411:B 3.34366e-05
5 *319:10 *2411:B 0
6 *383:10 *2411:B 0.000124957
*RES
1 *2410:Y *2411:B 32.2786 
*END

*D_NET *430 0.000994244
*CONN
*I *2412:A I *D sky130_fd_sc_hd__xnor2_1
*I *2411:Y O *D sky130_fd_sc_hd__xnor2_2
*CAP
1 *2412:A 0.000458744
2 *2411:Y 0.000458744
3 *2412:A *494:12 0
4 *2412:A *533:16 0
5 *2368:A2 *2412:A 0
6 *2369:A *2412:A 0
7 *2411:A *2412:A 0
8 *2412:B *2412:A 3.51442e-05
9 *363:12 *2412:A 0
10 *383:10 *2412:A 0
11 *384:10 *2412:A 4.16114e-05
12 *385:21 *2412:A 0
*RES
1 *2411:Y *2412:A 35.5464 
*END

*D_NET *431 0.00336576
*CONN
*I *2414:B I *D sky130_fd_sc_hd__nand2_1
*I *2413:B I *D sky130_fd_sc_hd__or2_1
*I *2412:Y O *D sky130_fd_sc_hd__xnor2_1
*CAP
1 *2414:B 5.427e-05
2 *2413:B 0.000329945
3 *2412:Y 0.000774352
4 *431:10 0.00115857
5 *2414:B *2381:A1 4.46186e-06
6 *2414:B *545:134 2.89114e-05
7 *2315:B *431:10 0.000175526
8 *2346:A2 *431:10 0
9 *2349:A *431:10 0
10 *2371:A *431:10 0.000128032
11 *2371:B *431:10 3.57844e-05
12 *2372:B *431:10 0
13 *2381:A2 *431:10 0
14 *2389:A *431:10 0
15 *2413:A *2413:B 0.000360194
16 *2413:A *2414:B 5.52302e-05
17 *328:12 *2414:B 1.5942e-05
18 *328:12 *431:10 0.00011336
19 *360:10 *431:10 5.57727e-05
20 *363:12 *431:10 9.33978e-07
21 *384:10 *431:10 6.42242e-05
22 *388:12 *431:10 0
23 *405:12 *2414:B 1.02504e-05
*RES
1 *2412:Y *431:10 29.9429 
2 *431:10 *2413:B 18.4607 
3 *431:10 *2414:B 15.0679 
*END

*D_NET *432 0.00116491
*CONN
*I *2419:A2 I *D sky130_fd_sc_hd__a311o_1
*I *2413:X O *D sky130_fd_sc_hd__or2_1
*CAP
1 *2419:A2 0.000371169
2 *2413:X 0.000371169
3 op_out[6] *2419:A2 0.000120065
4 *2373:A *2419:A2 0.000138881
5 *2374:B *2419:A2 5.99125e-05
6 *2375:B *2419:A2 4.15914e-05
7 *2388:B1 *2419:A2 6.21188e-05
*RES
1 *2413:X *2419:A2 34.4929 
*END

*D_NET *433 0.000823451
*CONN
*I *2419:A3 I *D sky130_fd_sc_hd__a311o_1
*I *2414:Y O *D sky130_fd_sc_hd__nand2_1
*CAP
1 *2419:A3 0.000182575
2 *2414:Y 0.000182575
3 *2419:A3 *2381:A1 2.39876e-05
4 *2419:A3 *545:134 0.000332768
5 *397:12 *2419:A3 0.000101545
*RES
1 *2414:Y *2419:A3 31.3143 
*END

*D_NET *434 0.00510596
*CONN
*I *2337:A2 I *D sky130_fd_sc_hd__a31o_1
*I *2006:A1 I *D sky130_fd_sc_hd__a21o_1
*I *1975:A I *D sky130_fd_sc_hd__inv_2
*I *1992:B2 I *D sky130_fd_sc_hd__a22o_1
*I *1974:Y O *D sky130_fd_sc_hd__a211oi_2
*CAP
1 *2337:A2 0.000721747
2 *2006:A1 0.000422916
3 *1975:A 1.40568e-05
4 *1992:B2 0.000132009
5 *1974:Y 0
6 *434:10 0.000227961
7 *434:8 0.00075734
8 *434:6 0.000974276
9 *1975:A *520:70 2.89016e-05
10 *1975:A *524:31 5.52238e-05
11 *1992:B2 *1980:A1 0
12 *1992:B2 *441:8 0
13 *1992:B2 *454:8 5.80706e-06
14 *1992:B2 *454:17 0.000116427
15 *2006:A1 *2006:A2 0.000181831
16 *2006:A1 *517:86 8.27184e-06
17 *2337:A2 *2337:A3 0.000583521
18 *2337:A2 *538:14 0
19 *434:8 *2337:A3 0.000105739
20 *434:8 *454:17 2.49484e-05
21 *434:8 *547:83 0
22 *434:10 *441:8 0
23 *434:10 *454:17 5.84075e-05
24 *2006:B1 *2006:A1 0.000139907
25 *2010:B1 *2337:A2 2.31791e-05
26 *2010:B1 *434:8 0.000149904
27 *2344:B1 *2337:A2 0
28 *192:87 *2337:A2 7.32272e-05
29 *337:14 *2337:A2 0.000196276
30 *343:23 *2337:A2 0.000104088
31 *355:12 *2337:A2 0
32 *369:10 *2337:A2 0
33 *369:10 *434:8 0
34 *369:12 *434:8 0
35 *369:18 *434:8 0
*RES
1 *1974:Y *434:6 13.8 
2 *434:6 *434:8 5.28571 
3 *434:8 *434:10 1.64286 
4 *434:10 *1992:B2 16.6571 
5 *434:10 *1975:A 14.3357 
6 *434:8 *2006:A1 19.2643 
7 *434:6 *2337:A2 30.4607 
*END

*D_NET *435 0.0013764
*CONN
*I *2416:B2 I *D sky130_fd_sc_hd__o22a_1
*I *2415:Y O *D sky130_fd_sc_hd__a21oi_1
*CAP
1 *2416:B2 0.000391476
2 *2415:Y 0.000391476
3 *2416:B2 *1967:A1 0
4 *2416:B2 *2335:A1 7.43578e-06
5 *2416:B2 *2377:A2 5.33005e-05
6 *2416:B2 *2378:B2 2.14658e-05
7 *2416:B2 *2379:A1 0.000118573
8 *2416:B2 *535:72 0.000294963
9 *2378:A3 *2416:B2 1.40034e-05
10 *2378:B1 *2416:B2 2.35097e-05
11 *2379:C1 *2416:B2 5.60681e-05
12 *2417:A3 *2416:B2 4.12921e-06
*RES
1 *2415:Y *2416:B2 34.2607 
*END

*D_NET *436 0.00232923
*CONN
*I *2418:B1 I *D sky130_fd_sc_hd__a211o_1
*I *2416:X O *D sky130_fd_sc_hd__o22a_1
*CAP
1 *2418:B1 0.000494661
2 *2416:X 0.000494661
3 *2418:B1 *1967:A1 0
4 *2418:B1 *2379:A1 0
5 *2418:B1 *2418:A1 5.52302e-05
6 *2418:B1 *2419:B1 1.46911e-05
7 *2418:B1 *492:33 2.31845e-05
8 *2418:B1 *532:6 1.24368e-05
9 *2418:B1 *532:23 0.000137983
10 *2418:B1 *537:26 0.000410388
11 *2293:C1 *2418:B1 0.000427609
12 *2379:C1 *2418:B1 8.00843e-06
13 *2416:B1 *2418:B1 0.00010096
14 *2417:A3 *2418:B1 4.34627e-05
15 *199:43 *2418:B1 1.73088e-05
16 *199:51 *2418:B1 8.86413e-05
*RES
1 *2416:X *2418:B1 41.7763 
*END

*D_NET *437 0.00093323
*CONN
*I *2418:C1 I *D sky130_fd_sc_hd__a211o_1
*I *2417:X O *D sky130_fd_sc_hd__a32o_1
*CAP
1 *2418:C1 0.000259644
2 *2417:X 0.000259644
3 *2418:C1 *2415:A2 5.54204e-05
4 *2418:C1 *2417:A1 0.000180777
5 *2418:C1 *2417:B1 1.65787e-05
6 *2418:C1 *553:30 3.25078e-05
7 *2380:A1 *2418:C1 4.12921e-06
8 *183:10 *2418:C1 0.000124529
*RES
1 *2417:X *2418:C1 31.8321 
*END

*D_NET *438 0.00638883
*CONN
*I *2419:B1 I *D sky130_fd_sc_hd__a311o_1
*I *2418:X O *D sky130_fd_sc_hd__a211o_1
*CAP
1 *2419:B1 0.00242912
2 *2418:X 0.00242912
3 *2419:B1 *2381:A1 3.34366e-05
4 *2419:B1 *514:58 0.000307344
5 *2419:B1 *537:26 0.000211839
6 *2419:B1 *545:134 0
7 *2293:C1 *2419:B1 0.000412536
8 *2318:A *2419:B1 0.000106311
9 *2320:A *2419:B1 0.000248493
10 *2380:C1 *2419:B1 6.53083e-05
11 *2388:B1 *2419:B1 5.68722e-05
12 *2417:A3 *2419:B1 6.71336e-05
13 *2418:B1 *2419:B1 1.46911e-05
14 *259:24 *2419:B1 6.63171e-06
15 *292:20 *2419:B1 0
16 *328:12 *2419:B1 0
*RES
1 *2418:X *2419:B1 46.4562 
*END

*D_NET *439 0.00405855
*CONN
*I *1993:C1 I *D sky130_fd_sc_hd__a211o_1
*I *1998:A1 I *D sky130_fd_sc_hd__o21ai_1
*I *1999:A I *D sky130_fd_sc_hd__or4_4
*I *2007:C1 I *D sky130_fd_sc_hd__a211o_2
*I *1975:Y O *D sky130_fd_sc_hd__inv_2
*CAP
1 *1993:C1 0
2 *1998:A1 8.55726e-05
3 *1999:A 0
4 *2007:C1 0
5 *1975:Y 0.000170419
6 *439:27 0.00075624
7 *439:21 0.000923873
8 *439:10 0.000423625
9 *1998:A1 *1998:A2 4.22908e-05
10 *1998:A1 *1998:B1 9.7049e-06
11 *1998:A1 *1999:B 0.000188586
12 *439:10 *2007:B1 0.00015234
13 *439:10 *451:10 0.000217692
14 *439:10 *474:8 0
15 *439:10 *516:85 1.41029e-05
16 *439:10 *524:31 0.000313235
17 *439:21 *1989:B1 0.000215886
18 *439:21 *2028:C1 4.21208e-05
19 *439:21 *451:10 0.000157707
20 *439:21 *516:85 5.91666e-05
21 *439:27 *1989:B1 1.02504e-05
22 *439:27 *1997:A 0
23 *439:27 *2026:B1 0
24 *439:27 *2026:C1 4.94362e-05
25 *439:27 *2028:C1 0.000191036
26 *439:27 *453:19 0
27 *439:27 *456:14 3.52655e-05
28 *439:27 *474:8 0
29 *439:27 *474:10 0
*RES
1 *1975:Y *439:10 19.05 
2 *439:10 *2007:C1 13.8 
3 *439:10 *439:21 5.51786 
4 *439:21 *439:27 17.7143 
5 *439:27 *1999:A 9.3 
6 *439:27 *1998:A1 11.9071 
7 *439:21 *1993:C1 13.8 
*END

*D_NET *440 0.00462322
*CONN
*I *2380:A2 I *D sky130_fd_sc_hd__a211o_1
*I *1976:Y O *D sky130_fd_sc_hd__a21oi_1
*CAP
1 *2380:A2 0
2 *1976:Y 0.00100485
3 *440:16 0.00100485
4 *440:16 *1969:B 9.60939e-05
5 *440:16 *2454:A 0.000566088
6 *440:16 *497:62 0.00131707
7 *440:16 *520:106 0.000285488
8 *440:16 *549:51 1.04707e-05
9 *1970:B1 *440:16 1.91414e-05
10 *2345:B *440:16 5.52302e-05
11 *2380:B1 *440:16 8.7396e-05
12 *2380:C1 *440:16 2.59355e-05
13 *380:12 *440:16 0.000150618
*RES
1 *1976:Y *440:16 41.7464 
2 *440:16 *2380:A2 9.3 
*END

*D_NET *441 0.00376205
*CONN
*I *1992:A2 I *D sky130_fd_sc_hd__a22o_1
*I *1978:C I *D sky130_fd_sc_hd__and3_1
*I *1979:C I *D sky130_fd_sc_hd__nand3_1
*I *1980:A1 I *D sky130_fd_sc_hd__a21o_1
*I *1977:X O *D sky130_fd_sc_hd__a211o_1
*CAP
1 *1992:A2 2.23854e-05
2 *1978:C 0.000473709
3 *1979:C 0
4 *1980:A1 0.000313005
5 *1977:X 0.000277104
6 *441:32 0.000680153
7 *441:23 0.000218892
8 *441:8 0.000624943
9 *1978:C *1956:A 0.000146495
10 *1978:C *1986:A 5.03772e-05
11 *1978:C *1989:C1 1.63919e-05
12 *1978:C *2007:A2 0.000175314
13 *1978:C *443:6 0.000120123
14 *1978:C *456:14 5.52238e-05
15 *1978:C *471:6 3.69047e-06
16 *1978:C *516:85 0
17 *1980:A1 *1979:B 0
18 *1980:A1 *1991:A1 7.40526e-05
19 *1980:A1 *444:16 0.00018077
20 *1980:A1 *454:8 0
21 *1980:A1 *547:83 0
22 *1992:A2 *552:42 0
23 *441:8 *547:83 0
24 *441:23 *552:38 9.90367e-05
25 *441:32 *1992:A1 4.58194e-05
26 *441:32 *443:6 1.02821e-05
27 *441:32 *552:38 0.000128379
28 *441:32 *552:42 4.59075e-05
29 *1992:B2 *1980:A1 0
30 *1992:B2 *441:8 0
31 *434:10 *441:8 0
*RES
1 *1977:X *441:8 18.175 
2 *441:8 *1980:A1 18.0321 
3 *441:8 *441:23 5.44643 
4 *441:23 *1979:C 9.3 
5 *441:23 *441:32 3.83929 
6 *441:32 *1978:C 26.7286 
7 *441:32 *1992:A2 9.72857 
*END

*D_NET *442 0.00150161
*CONN
*I *1990:C1 I *D sky130_fd_sc_hd__a211o_1
*I *1989:C1 I *D sky130_fd_sc_hd__a211oi_2
*I *1978:X O *D sky130_fd_sc_hd__and3_1
*CAP
1 *1990:C1 2.78957e-05
2 *1989:C1 0.000372722
3 *1978:X 3.66925e-05
4 *442:6 0.00043731
5 *1989:C1 *1978:B 1.3623e-05
6 *1989:C1 *1986:A 6.05161e-06
7 *1989:C1 *1989:B1 5.58941e-05
8 *1989:C1 *1993:A1 4.15914e-05
9 *1989:C1 *2007:A2 1.7845e-05
10 *1989:C1 *2028:C1 7.83659e-05
11 *1989:C1 *456:14 5.58941e-05
12 *1989:C1 *516:85 2.21038e-05
13 *1989:C1 *516:121 3.67257e-05
14 *1990:C1 *516:121 1.39726e-05
15 *442:6 *1990:A1 3.08382e-06
16 *1978:C *1989:C1 1.63919e-05
17 *413:16 *1989:C1 0.000265447
*RES
1 *1978:X *442:6 10.0321 
2 *442:6 *1989:C1 34.175 
3 *442:6 *1990:C1 9.83571 
*END

*D_NET *443 0.00291901
*CONN
*I *1991:A1 I *D sky130_fd_sc_hd__a21o_1
*I *2007:A1 I *D sky130_fd_sc_hd__a211o_2
*I *1986:A I *D sky130_fd_sc_hd__nand3_1
*I *1979:Y O *D sky130_fd_sc_hd__nand3_1
*CAP
1 *1991:A1 0.000239279
2 *2007:A1 3.89389e-05
3 *1986:A 0.000128631
4 *1979:Y 0
5 *443:6 0.00067172
6 *443:4 0.000743429
7 *1986:A *1978:A 2.06178e-05
8 *1986:A *2007:A2 4.27591e-05
9 *1986:A *516:85 0.000115446
10 *1991:A1 *1979:B 2.36085e-05
11 *1991:A1 *444:46 0.000245335
12 *1991:A1 *547:83 0
13 *1991:A1 *552:38 9.90367e-05
14 *443:6 *1992:A1 9.41642e-05
15 *443:6 *552:38 5.02242e-05
16 *443:6 *552:42 8.66063e-05
17 *1978:C *1986:A 5.03772e-05
18 *1978:C *443:6 0.000120123
19 *1980:A1 *1991:A1 7.40526e-05
20 *1989:C1 *1986:A 6.05161e-06
21 *413:16 *1991:A1 5.83233e-05
22 *441:32 *443:6 1.02821e-05
*RES
1 *1979:Y *443:4 9.3 
2 *443:4 *443:6 6.28571 
3 *443:6 *1986:A 20.8893 
4 *443:6 *2007:A1 10.0321 
5 *443:4 *1991:A1 23.6214 
*END

*D_NET *444 0.00294565
*CONN
*I *1989:A1 I *D sky130_fd_sc_hd__a211oi_2
*I *1991:A2 I *D sky130_fd_sc_hd__a21o_1
*I *1990:A2 I *D sky130_fd_sc_hd__a211o_1
*I *1986:B I *D sky130_fd_sc_hd__nand3_1
*I *1980:X O *D sky130_fd_sc_hd__a21o_1
*CAP
1 *1989:A1 6.08303e-05
2 *1991:A2 0
3 *1990:A2 0
4 *1986:B 0.000311449
5 *1980:X 0
6 *444:46 0.000173177
7 *444:16 0.000483676
8 *444:4 0.000284573
9 *1986:B *1956:A 9.25014e-06
10 *1986:B *1978:A 0.000435278
11 *1986:B *1986:C 4.97144e-05
12 *1986:B *2007:A2 4.5539e-05
13 *1986:B *2009:A2 0
14 *1986:B *456:14 4.26759e-05
15 *1986:B *474:8 4.26759e-05
16 *1989:A1 *1989:A2 5.52302e-05
17 *1989:A1 *1991:B1 1.3701e-05
18 *1989:A1 *1993:A2 7.32955e-05
19 *444:16 *1990:A1 1.07928e-05
20 *444:16 *516:121 0.000154458
21 *444:46 *1979:B 1.76039e-05
22 *444:46 *1989:A2 2.34204e-05
23 *444:46 *449:27 4.84853e-05
24 *1980:A1 *444:16 0.00018077
25 *1991:A1 *444:46 0.000245335
26 *413:16 *1989:A1 0.00018372
*RES
1 *1980:X *444:4 9.3 
2 *444:4 *444:16 4.35714 
3 *444:16 *1986:B 27.1204 
4 *444:16 *1990:A2 9.3 
5 *444:4 *444:46 12.1607 
6 *444:46 *1991:A2 9.3 
7 *444:46 *1989:A1 11.925 
*END

*D_NET *445 0.000674775
*CONN
*I *2023:A I *D sky130_fd_sc_hd__and2_1
*I *2024:A I *D sky130_fd_sc_hd__nand2_1
*I *1981:X O *D sky130_fd_sc_hd__or2_1
*CAP
1 *2023:A 0
2 *2024:A 0.00016146
3 *1981:X 2.00869e-05
4 *445:6 0.000181547
5 *2024:A *2024:B 0.0001399
6 *2024:A *2026:C1 3.18676e-05
7 *2024:A *486:14 8.46829e-05
8 *445:6 *486:14 5.52302e-05
*RES
1 *1981:X *445:6 9.83571 
2 *445:6 *2024:A 12.7286 
3 *445:6 *2023:A 9.3 
*END

*D_NET *446 0.00342758
*CONN
*I *2003:B1 I *D sky130_fd_sc_hd__a31o_1
*I *2018:A I *D sky130_fd_sc_hd__xor2_1
*I *2017:A I *D sky130_fd_sc_hd__xnor2_1
*I *1982:Y O *D sky130_fd_sc_hd__nor2_1
*CAP
1 *2003:B1 0.000351366
2 *2018:A 0
3 *2017:A 5.39855e-05
4 *1982:Y 0.000112636
5 *446:12 0.000223824
6 *446:10 0.000633841
7 *2003:B1 *2003:A1 5.71472e-05
8 *2003:B1 *462:25 9.90431e-05
9 *2003:B1 *464:6 0.000612934
10 *2003:B1 *547:93 1.98839e-05
11 *2017:A *2016:B 0.00040765
12 *2017:A *2018:B 0.00030669
13 *2017:A *480:8 5.71472e-05
14 *446:10 *464:19 0
15 *446:12 *2016:B 8.57023e-05
16 *446:12 *464:6 0.000405733
*RES
1 *1982:Y *446:10 20.2464 
2 *446:10 *446:12 4.64286 
3 *446:12 *2017:A 13.1214 
4 *446:12 *2018:A 9.3 
5 *446:10 *2003:B1 18.6036 
*END

*D_NET *447 0.000652059
*CONN
*I *1999:B I *D sky130_fd_sc_hd__or4_4
*I *1983:Y O *D sky130_fd_sc_hd__nor2_1
*CAP
1 *1999:B 0.000124707
2 *1983:Y 0.000124707
3 *1999:B *1998:A2 1.74352e-05
4 *1999:B *1998:B1 3.18676e-05
5 *1999:B *1999:C 0.000164756
6 *1998:A1 *1999:B 0.000188586
*RES
1 *1983:Y *1999:B 22.0107 
*END

*D_NET *448 0.00672236
*CONN
*I *2303:C I *D sky130_fd_sc_hd__and3_1
*I *2304:B1 I *D sky130_fd_sc_hd__a21oi_1
*I *2357:C I *D sky130_fd_sc_hd__and3_1
*I *1999:C I *D sky130_fd_sc_hd__or4_4
*I *1984:X O *D sky130_fd_sc_hd__and2_4
*CAP
1 *2303:C 4.71378e-05
2 *2304:B1 0.000136547
3 *2357:C 5.45094e-05
4 *1999:C 0.000264068
5 *1984:X 0
6 *448:42 0.000886375
7 *448:27 0.00141296
8 *448:4 0.000919827
9 *1999:C *462:12 0.000179233
10 *1999:C *463:10 0
11 *1999:C *547:93 0.000114655
12 *2303:C *2302:A 3.04742e-05
13 *2304:B1 *2303:B 0.000101545
14 *2304:B1 *2304:A1 0.000120688
15 *2304:B1 *548:58 3.18676e-05
16 *2357:C *548:47 9.89442e-05
17 *2357:C *548:58 1.16848e-05
18 *448:27 *2358:A2 7.13226e-06
19 *448:27 *2401:B 0.000295415
20 *448:27 *547:93 0.000185643
21 *448:27 *548:37 5.83233e-05
22 *448:27 *548:47 4.73656e-05
23 *448:27 *554:27 0.000407835
24 *448:27 *554:39 0.000102207
25 *448:42 *2302:A 4.87854e-05
26 *448:42 *2302:B 0.000138816
27 *448:42 *2401:B 0.00027595
28 *1999:B *1999:C 0.000164756
29 *2359:B *2357:C 0
30 *2360:A *448:42 0.000216121
31 *2400:A1 *448:42 0.00010096
32 *2400:B1_N *2357:C 3.92757e-05
33 *2400:B1_N *448:27 5.43491e-05
34 *2405:A *448:27 0.000136951
35 *312:6 *448:42 1.74352e-05
36 *314:10 *2304:B1 5.30637e-06
37 *375:14 *448:42 9.22103e-06
*RES
1 *1984:X *448:4 9.3 
2 *448:4 *1999:C 23.6839 
3 *448:4 *448:27 19.9464 
4 *448:27 *2357:C 15.3357 
5 *448:27 *448:42 14.4821 
6 *448:42 *2304:B1 21.4071 
7 *448:42 *2303:C 9.92946 
*END

*D_NET *449 0.00410709
*CONN
*I *1991:B1 I *D sky130_fd_sc_hd__a21o_1
*I *1990:A1 I *D sky130_fd_sc_hd__a211o_1
*I *1986:C I *D sky130_fd_sc_hd__nand3_1
*I *1989:A2 I *D sky130_fd_sc_hd__a211oi_2
*I *1985:X O *D sky130_fd_sc_hd__or2_1
*CAP
1 *1991:B1 5.05495e-05
2 *1990:A1 6.63186e-05
3 *1986:C 0.000189087
4 *1989:A2 7.8207e-05
5 *1985:X 9.94477e-05
6 *449:27 0.000503964
7 *449:10 0.000518155
8 *449:6 0.000341388
9 *1986:C *1956:A 4.50033e-05
10 *1986:C *1978:A 0.000341119
11 *1986:C *2009:A2 0
12 *1989:A2 *1993:A2 5.71472e-05
13 *1989:A2 *474:8 0
14 *1990:A1 *1989:B1 9.54798e-06
15 *1990:A1 *451:10 6.69871e-05
16 *1990:A1 *456:14 6.53397e-05
17 *1990:A1 *516:121 1.95011e-05
18 *449:6 *1993:A2 9.22103e-06
19 *449:10 *1993:A2 1.32552e-05
20 *449:27 *1978:A 0.000220019
21 *449:27 *1979:B 6.52967e-05
22 *449:27 *474:8 0
23 *449:27 *552:53 2.91578e-05
24 *1986:B *1986:C 4.97144e-05
25 *1989:A1 *1989:A2 5.52302e-05
26 *1989:A1 *1991:B1 1.3701e-05
27 *38:12 *1986:C 0.000515385
28 *38:12 *449:27 0.000339195
29 *413:16 *449:6 3.67142e-05
30 *413:16 *449:10 0.00022266
31 *442:6 *1990:A1 3.08382e-06
32 *444:16 *1990:A1 1.07928e-05
33 *444:46 *1989:A2 2.34204e-05
34 *444:46 *449:27 4.84853e-05
*RES
1 *1985:X *449:6 10.6571 
2 *449:6 *449:10 7.08929 
3 *449:10 *1989:A2 15.3714 
4 *449:10 *449:27 6.66682 
5 *449:27 *1986:C 18.6301 
6 *449:27 *1990:A1 18.8975 
7 *449:6 *1991:B1 10.3357 
*END

*D_NET *450 0.00115277
*CONN
*I *2007:A2 I *D sky130_fd_sc_hd__a211o_2
*I *1993:A1 I *D sky130_fd_sc_hd__a211o_1
*I *1986:Y O *D sky130_fd_sc_hd__nand3_1
*CAP
1 *2007:A2 0.000137022
2 *1993:A1 0.000146981
3 *1986:Y 0
4 *450:6 0.000284003
5 *1993:A1 *1993:A2 2.97021e-05
6 *1993:A1 *1993:B1 5.7661e-06
7 *1993:A1 *2009:A2 0
8 *1993:A1 *2028:C1 1.46717e-05
9 *2007:A2 *1956:A 2.0587e-05
10 *2007:A2 *1978:A 2.22043e-05
11 *2007:A2 *2009:A2 0
12 *2007:A2 *516:85 2.78474e-05
13 *1978:C *2007:A2 0.000175314
14 *1986:A *2007:A2 4.27591e-05
15 *1986:B *2007:A2 4.5539e-05
16 *1989:C1 *1993:A1 4.15914e-05
17 *1989:C1 *2007:A2 1.7845e-05
18 *413:16 *1993:A1 0.000140933
*RES
1 *1986:Y *450:6 13.8 
2 *450:6 *1993:A1 17.2286 
3 *450:6 *2007:A2 17.4964 
*END

*D_NET *451 0.00182655
*CONN
*I *1990:B1 I *D sky130_fd_sc_hd__a211o_1
*I *1989:B1 I *D sky130_fd_sc_hd__a211oi_2
*I *1987:Y O *D sky130_fd_sc_hd__nor2_1
*CAP
1 *1990:B1 0
2 *1989:B1 0.000124025
3 *1987:Y 0.000241852
4 *451:10 0.000365877
5 *1989:B1 *1993:B1 0.00014183
6 *1989:B1 *456:14 7.31534e-05
7 *451:10 *456:14 7.26128e-05
8 *451:10 *474:8 0
9 *1989:C1 *1989:B1 5.58941e-05
10 *1990:A1 *1989:B1 9.54798e-06
11 *1990:A1 *451:10 6.69871e-05
12 *413:16 *1989:B1 7.3237e-05
13 *439:10 *451:10 0.000217692
14 *439:21 *1989:B1 0.000215886
15 *439:21 *451:10 0.000157707
16 *439:27 *1989:B1 1.02504e-05
*RES
1 *1987:Y *451:10 19.2286 
2 *451:10 *1989:B1 18.0143 
3 *451:10 *1990:B1 13.8 
*END

*D_NET *452 0.00038811
*CONN
*I *2007:B1 I *D sky130_fd_sc_hd__a211o_2
*I *1988:X O *D sky130_fd_sc_hd__or2_1
*CAP
1 *2007:B1 4.17151e-05
2 *1988:X 4.17151e-05
3 *2007:B1 *516:85 0.00015234
4 *439:10 *2007:B1 0.00015234
*RES
1 *1988:X *2007:B1 29.5464 
*END

*D_NET *453 0.00266914
*CONN
*I *1998:A2 I *D sky130_fd_sc_hd__o21ai_1
*I *1999:D I *D sky130_fd_sc_hd__or4_4
*I *1993:B1 I *D sky130_fd_sc_hd__a211o_1
*I *1989:Y O *D sky130_fd_sc_hd__a211oi_2
*CAP
1 *1998:A2 6.50676e-05
2 *1999:D 0
3 *1993:B1 9.48237e-05
4 *1989:Y 0
5 *453:19 0.000576798
6 *453:4 0.000606554
7 *1993:B1 *1993:A2 0.000318971
8 *1998:A2 *1998:B1 5.7661e-06
9 *453:19 *2026:B1 0.000196269
10 *453:19 *474:8 0.000390561
11 *453:19 *474:10 0.00015134
12 *1989:B1 *1993:B1 0.00014183
13 *1993:A1 *1993:B1 5.7661e-06
14 *1998:A1 *1998:A2 4.22908e-05
15 *1999:B *1998:A2 1.74352e-05
16 *413:16 *1993:B1 5.5671e-05
17 *439:27 *453:19 0
*RES
1 *1989:Y *453:4 9.3 
2 *453:4 *1993:B1 12.7286 
3 *453:4 *453:19 20.3571 
4 *453:19 *1999:D 9.3 
5 *453:19 *1998:A2 10.675 
*END

*D_NET *454 0.0048012
*CONN
*I *2337:A3 I *D sky130_fd_sc_hd__a31o_1
*I *2006:A2 I *D sky130_fd_sc_hd__a21o_1
*I *1992:B1 I *D sky130_fd_sc_hd__a22o_1
*I *1990:X O *D sky130_fd_sc_hd__a211o_1
*CAP
1 *2337:A3 0.00069456
2 *2006:A2 0.000127335
3 *1992:B1 0
4 *1990:X 6.52295e-05
5 *454:17 0.00096101
6 *454:8 0.000204345
7 *2006:A2 *517:86 0.00015684
8 *2337:A3 *2010:A1 7.6021e-05
9 *2337:A3 *474:8 0.000137968
10 *2337:A3 *538:14 0.000310397
11 *2337:A3 *540:33 0.000129977
12 *454:8 *474:8 0.000119179
13 *454:8 *552:53 9.49928e-05
14 *454:17 *474:8 0.000374752
15 *1980:A1 *454:8 0
16 *1992:B2 *454:8 5.80706e-06
17 *1992:B2 *454:17 0.000116427
18 *2006:A1 *2006:A2 0.000181831
19 *2006:B1 *2006:A2 9.71197e-05
20 *2010:B1 *2337:A3 0.000174797
21 *2337:A2 *2337:A3 0.000583521
22 *50:37 *2337:A3 0
23 *434:8 *2337:A3 0.000105739
24 *434:8 *454:17 2.49484e-05
25 *434:10 *454:17 5.84075e-05
*RES
1 *1990:X *454:8 15.4429 
2 *454:8 *1992:B1 13.8 
3 *454:8 *454:17 4.98214 
4 *454:17 *2006:A2 18.0321 
5 *454:17 *2337:A3 33.3536 
*END

*D_NET *455 0.00183089
*CONN
*I *1993:A2 I *D sky130_fd_sc_hd__a211o_1
*I *1991:X O *D sky130_fd_sc_hd__a21o_1
*CAP
1 *1993:A2 0.000595801
2 *1991:X 0.000595801
3 *1989:A1 *1993:A2 7.32955e-05
4 *1989:A2 *1993:A2 5.71472e-05
5 *1993:A1 *1993:A2 2.97021e-05
6 *1993:B1 *1993:A2 0.000318971
7 *413:16 *1993:A2 0.000137696
8 *449:6 *1993:A2 9.22103e-06
9 *449:10 *1993:A2 1.32552e-05
*RES
1 *1991:X *1993:A2 28.6357 
*END

*D_NET *456 0.00579026
*CONN
*I *1995:A I *D sky130_fd_sc_hd__and3_1
*I *1996:A1 I *D sky130_fd_sc_hd__a21oi_1
*I *1994:A I *D sky130_fd_sc_hd__nand2_1
*I *1992:X O *D sky130_fd_sc_hd__a22o_1
*CAP
1 *1995:A 1.67089e-05
2 *1996:A1 0.000373574
3 *1994:A 0.000262514
4 *1992:X 0.000876189
5 *456:31 0.000542979
6 *456:14 0.0012914
7 *1994:A *1982:A 0
8 *1994:A *1994:B 0.00022266
9 *1994:A *2013:A0 1.15172e-05
10 *1994:A *518:101 4.46186e-06
11 *1995:A *2005:C1 5.33005e-05
12 *1995:A *2028:C1 2.89114e-05
13 *1996:A1 *1996:A2 0
14 *1996:A1 *2005:B1 6.19181e-05
15 *1996:A1 *2005:C1 0.000239762
16 *1996:A1 *2012:B 3.30352e-05
17 *1996:A1 *2013:A1 5.84267e-05
18 *456:14 *1994:B 4.08637e-05
19 *456:14 *457:12 0.000316184
20 *456:14 *474:8 0.000239099
21 *456:31 *2005:C1 1.17968e-05
22 *456:31 *2009:A2 5.58941e-05
23 *456:31 *2013:A0 8.15939e-05
24 *456:31 *2013:A1 4.06875e-05
25 *456:31 *457:29 0.000390568
26 *1978:C *456:14 5.52238e-05
27 *1986:B *456:14 4.26759e-05
28 *1989:B1 *456:14 7.31534e-05
29 *1989:C1 *456:14 5.58941e-05
30 *1990:A1 *456:14 6.53397e-05
31 *1996:B1 *1996:A1 9.90367e-05
32 *2027:B1 *1994:A 5.30637e-06
33 *294:10 *1994:A 3.17067e-05
34 *294:10 *456:31 0
35 *439:27 *456:14 3.52655e-05
36 *451:10 *456:14 7.26128e-05
*RES
1 *1992:X *456:14 33.05 
2 *456:14 *1994:A 22.0321 
3 *456:14 *456:31 9.78571 
4 *456:31 *1996:A1 20.7821 
5 *456:31 *1995:A 14.3357 
*END

*D_NET *457 0.00312612
*CONN
*I *1996:A2 I *D sky130_fd_sc_hd__a21oi_1
*I *1995:C I *D sky130_fd_sc_hd__and3_1
*I *1994:B I *D sky130_fd_sc_hd__nand2_1
*I *1993:X O *D sky130_fd_sc_hd__a211o_1
*CAP
1 *1996:A2 0.000268872
2 *1995:C 0
3 *1994:B 0.000119913
4 *1993:X 0.000182951
5 *457:29 0.000468656
6 *457:12 0.000502648
7 *1994:B *2013:A0 5.06983e-05
8 *1996:A2 *2005:A1 0.000140361
9 *1996:A2 *2005:A2 1.08359e-05
10 *1996:A2 *2005:B1 5.31185e-05
11 *1996:A2 *2005:C1 8.48296e-05
12 *1996:A2 *2026:A2 6.62618e-05
13 *1996:A2 *2028:C1 6.18314e-05
14 *1996:A2 *459:19 4.18895e-05
15 *1996:A2 *466:10 1.02504e-05
16 *1996:A2 *473:10 1.76039e-05
17 *457:12 *2009:A2 0
18 *457:12 *2028:C1 3.2534e-05
19 *457:29 *2005:C1 2.66566e-05
20 *457:29 *2028:C1 1.59338e-05
21 *457:29 *473:8 0
22 *457:29 *473:10 0
23 *1994:A *1994:B 0.00022266
24 *1996:A1 *1996:A2 0
25 *456:14 *1994:B 4.08637e-05
26 *456:14 *457:12 0.000316184
27 *456:31 *457:29 0.000390568
*RES
1 *1993:X *457:12 22.6393 
2 *457:12 *1994:B 12.3179 
3 *457:12 *457:29 14.25 
4 *457:29 *1995:C 9.3 
5 *457:29 *1996:A2 24.8 
*END

*D_NET *458 0.000522158
*CONN
*I *2013:A0 I *D sky130_fd_sc_hd__mux2_4
*I *1994:Y O *D sky130_fd_sc_hd__nand2_1
*CAP
1 *2013:A0 0.000161284
2 *1994:Y 0.000161284
3 *1994:A *2013:A0 1.15172e-05
4 *1994:B *2013:A0 5.06983e-05
5 *294:10 *2013:A0 5.5782e-05
6 *456:31 *2013:A0 8.15939e-05
*RES
1 *1994:Y *2013:A0 31.3143 
*END

*D_NET *459 0.00355191
*CONN
*I *1997:A I *D sky130_fd_sc_hd__nor2_1
*I *2009:B1_N I *D sky130_fd_sc_hd__o21ba_4
*I *2005:C1 I *D sky130_fd_sc_hd__a211o_4
*I *1995:X O *D sky130_fd_sc_hd__and3_1
*CAP
1 *1997:A 0.000373401
2 *2009:B1_N 0.000130998
3 *2005:C1 0.000259313
4 *1995:X 0
5 *459:19 0.000633304
6 *459:4 0.000388219
7 *1997:A *2005:A2 0
8 *1997:A *2025:A1 3.92757e-05
9 *1997:A *2026:C1 0.000149911
10 *1997:A *2028:C1 0.000158287
11 *1997:A *467:8 0
12 *1997:A *469:20 0.000105591
13 *2005:C1 *2013:A1 0.000267092
14 *2005:C1 *2028:C1 2.42547e-05
15 *2009:B1_N *2025:A1 0.000126439
16 *2009:B1_N *2028:C1 0
17 *2009:B1_N *473:8 0.000202842
18 *2009:B1_N *473:10 0.000126439
19 *459:19 *2028:C1 0.000108311
20 *1995:A *2005:C1 5.33005e-05
21 *1996:A1 *2005:C1 0.000239762
22 *1996:A2 *2005:C1 8.48296e-05
23 *1996:A2 *459:19 4.18895e-05
24 *439:27 *1997:A 0
25 *456:31 *2005:C1 1.17968e-05
26 *457:29 *2005:C1 2.66566e-05
*RES
1 *1995:X *459:4 9.3 
2 *459:4 *2005:C1 23.9429 
3 *459:4 *459:19 1.76786 
4 *459:19 *2009:B1_N 22.3714 
5 *459:19 *1997:A 25.2464 
*END

*D_NET *460 0.00166771
*CONN
*I *1997:B I *D sky130_fd_sc_hd__nor2_1
*I *2005:B1 I *D sky130_fd_sc_hd__a211o_4
*I *1996:Y O *D sky130_fd_sc_hd__a21oi_1
*CAP
1 *1997:B 0.000310109
2 *2005:B1 0.000230657
3 *1996:Y 0
4 *460:4 0.000540766
5 *1997:B *2004:B 3.99614e-06
6 *1997:B *2012:A 0.000319651
7 *2005:B1 *1982:B 0
8 *2005:B1 *466:10 0
9 *2005:B1 *469:16 9.71197e-05
10 *2005:B1 *518:75 5.03772e-05
11 *1996:A1 *2005:B1 6.19181e-05
12 *1996:A2 *2005:B1 5.31185e-05
*RES
1 *1996:Y *460:4 9.3 
2 *460:4 *2005:B1 22.4071 
3 *460:4 *1997:B 14.2821 
*END

*D_NET *461 0.000993185
*CONN
*I *2012:A I *D sky130_fd_sc_hd__xnor2_1
*I *1997:Y O *D sky130_fd_sc_hd__nor2_1
*CAP
1 *2012:A 0.000160515
2 *1997:Y 0.000160515
3 *2012:A *2004:B 2.28598e-05
4 *2012:A *2012:B 0.000312209
5 *1996:B1 *2012:A 1.74352e-05
6 *1997:B *2012:A 0.000319651
*RES
1 *1997:Y *2012:A 23.5643 
*END

*D_NET *462 0.00197885
*CONN
*I *2003:A2 I *D sky130_fd_sc_hd__a31o_1
*I *2002:A1 I *D sky130_fd_sc_hd__a21o_1
*I *2000:A I *D sky130_fd_sc_hd__nand2_1
*I *1998:Y O *D sky130_fd_sc_hd__o21ai_1
*CAP
1 *2003:A2 0
2 *2002:A1 0.000100067
3 *2000:A 0
4 *1998:Y 0.000187931
5 *462:25 0.000234969
6 *462:12 0.000322833
7 *2002:A1 *2002:A2 4.25809e-05
8 *2002:A1 *2002:B1 0.000127446
9 *2002:A1 *547:93 1.02504e-05
10 *462:12 *547:93 6.44345e-05
11 *462:12 *554:39 0
12 *462:25 *2000:B 0.000102207
13 *462:25 *2002:A2 4.1331e-06
14 *462:25 *2003:A1 2.14658e-05
15 *462:25 *463:10 1.46624e-05
16 *462:25 *464:6 1.74352e-05
17 *462:25 *547:93 0.000450156
18 *1999:C *462:12 0.000179233
19 *2003:B1 *462:25 9.90431e-05
*RES
1 *1998:Y *462:12 22.425 
2 *462:12 *2000:A 9.3 
3 *462:12 *462:25 9.78571 
4 *462:25 *2002:A1 15.9786 
5 *462:25 *2003:A2 13.8 
*END

*D_NET *463 0.0012618
*CONN
*I *2000:B I *D sky130_fd_sc_hd__nand2_1
*I *2003:A1 I *D sky130_fd_sc_hd__a31o_1
*I *2002:A2 I *D sky130_fd_sc_hd__a21o_1
*I *1999:X O *D sky130_fd_sc_hd__or4_4
*CAP
1 *2000:B 2.97011e-05
2 *2003:A1 1.85618e-05
3 *2002:A2 0.000152609
4 *1999:X 0.000172298
5 *463:23 4.82628e-05
6 *463:10 0.000324906
7 *2000:B *464:6 0.000174232
8 *2002:A2 *2002:B1 0
9 *2003:A1 *464:6 9.90367e-05
10 *463:10 *467:8 0
11 *463:10 *547:93 0
12 *1999:C *463:10 0
13 *2002:A1 *2002:A2 4.25809e-05
14 *2003:B1 *2003:A1 5.71472e-05
15 *462:25 *2000:B 0.000102207
16 *462:25 *2002:A2 4.1331e-06
17 *462:25 *2003:A1 2.14658e-05
18 *462:25 *463:10 1.46624e-05
*RES
1 *1999:X *463:10 16.2821 
2 *463:10 *2002:A2 16.5857 
3 *463:10 *463:23 4.5 
4 *463:23 *2003:A1 10.2464 
5 *463:23 *2000:B 11.0679 
*END

*D_NET *464 0.00494473
*CONN
*I *2020:A0 I *D sky130_fd_sc_hd__mux2_4
*I *2001:A I *D sky130_fd_sc_hd__inv_2
*I *2016:B I *D sky130_fd_sc_hd__xnor2_1
*I *2000:Y O *D sky130_fd_sc_hd__nand2_1
*CAP
1 *2020:A0 0.00025651
2 *2001:A 0
3 *2016:B 0.000380998
4 *2000:Y 0.00070444
5 *464:19 0.000437278
6 *464:6 0.00126621
7 *2016:B *480:8 7.72917e-05
8 *2020:A0 *1982:A 0
9 *2020:A0 *2020:A1 0
10 *464:19 *1982:A 0
11 *464:19 *2020:A1 0
12 *2000:B *464:6 0.000174232
13 *2003:A1 *464:6 9.90367e-05
14 *2003:B1 *464:6 0.000612934
15 *2017:A *2016:B 0.00040765
16 *2029:B1 *2020:A0 1.92789e-05
17 *446:10 *464:19 0
18 *446:12 *2016:B 8.57023e-05
19 *446:12 *464:6 0.000405733
20 *462:25 *464:6 1.74352e-05
*RES
1 *2000:Y *464:6 24.2107 
2 *464:6 *2016:B 17.1393 
3 *464:6 *464:19 7.66071 
4 *464:19 *2001:A 13.8 
5 *464:19 *2020:A0 18.2286 
*END

*D_NET *465 0.000380093
*CONN
*I *2019:A0 I *D sky130_fd_sc_hd__mux2_2
*I *2001:Y O *D sky130_fd_sc_hd__inv_2
*CAP
1 *2019:A0 0.000128822
2 *2001:Y 0.000128822
3 *2019:A0 *2019:A1 9.80173e-05
4 *2019:A0 *2019:S 2.44318e-05
*RES
1 *2001:Y *2019:A0 21.1893 
*END

*D_NET *466 0.00146017
*CONN
*I *2005:A1 I *D sky130_fd_sc_hd__a211o_4
*I *2004:A I *D sky130_fd_sc_hd__nand2_1
*I *2002:X O *D sky130_fd_sc_hd__a21o_1
*CAP
1 *2005:A1 9.92332e-05
2 *2004:A 0
3 *2002:X 0.000255483
4 *466:10 0.000354716
5 *2005:A1 *2005:A2 0.000168767
6 *2005:A1 *467:8 3.51442e-05
7 *2005:A1 *469:16 0.000150324
8 *2005:A1 *518:75 3.30237e-05
9 *466:10 *2002:B1 4.25809e-05
10 *466:10 *467:8 0.000147474
11 *466:10 *547:93 2.28159e-05
12 *1996:A2 *2005:A1 0.000140361
13 *1996:A2 *466:10 1.02504e-05
14 *2005:B1 *466:10 0
*RES
1 *2002:X *466:10 18.7107 
2 *466:10 *2004:A 13.8 
3 *466:10 *2005:A1 17.5321 
*END

*D_NET *467 0.00111602
*CONN
*I *2005:A2 I *D sky130_fd_sc_hd__a211o_4
*I *2004:B I *D sky130_fd_sc_hd__nand2_1
*I *2003:X O *D sky130_fd_sc_hd__a31o_1
*CAP
1 *2005:A2 0.00012898
2 *2004:B 4.74318e-05
3 *2003:X 0.00013499
4 *467:8 0.000311402
5 *2004:B *2012:B 1.24368e-05
6 *2005:A2 *2026:A2 9.25014e-06
7 *2005:A2 *469:16 2.6269e-05
8 *2005:A2 *518:75 5.03772e-05
9 *467:8 *547:93 5.80706e-06
10 *1996:A2 *2005:A2 1.08359e-05
11 *1997:A *2005:A2 0
12 *1997:A *467:8 0
13 *1997:B *2004:B 3.99614e-06
14 *2005:A1 *2005:A2 0.000168767
15 *2005:A1 *467:8 3.51442e-05
16 *2012:A *2004:B 2.28598e-05
17 *463:10 *467:8 0
18 *466:10 *467:8 0.000147474
*RES
1 *2003:X *467:8 16.05 
2 *467:8 *2004:B 14.7643 
3 *467:8 *2005:A2 16.6929 
*END

*D_NET *468 0.000590617
*CONN
*I *2012:B I *D sky130_fd_sc_hd__xnor2_1
*I *2004:Y O *D sky130_fd_sc_hd__nand2_1
*CAP
1 *2012:B 8.98015e-05
2 *2004:Y 8.98015e-05
3 *1996:A1 *2012:B 3.30352e-05
4 *1996:B1 *2012:B 5.33334e-05
5 *2004:B *2012:B 1.24368e-05
6 *2012:A *2012:B 0.000312209
*RES
1 *2004:Y *2012:B 21.6 
*END

*D_NET *469 0.0022877
*CONN
*I *2026:A1 I *D sky130_fd_sc_hd__a211o_1
*I *2025:A1 I *D sky130_fd_sc_hd__a211o_1
*I *2011:A2 I *D sky130_fd_sc_hd__a21oi_4
*I *2005:X O *D sky130_fd_sc_hd__a211o_4
*CAP
1 *2026:A1 0
2 *2025:A1 7.94744e-05
3 *2011:A2 0
4 *2005:X 0.000497964
5 *469:20 0.000146928
6 *469:16 0.000565418
7 *2025:A1 *2026:A2 2.31791e-05
8 *2025:A1 *2028:C1 4.29179e-05
9 *2025:A1 *473:10 1.721e-05
10 *469:16 *2026:B1 5.7661e-06
11 *469:16 *518:75 0.000164117
12 *469:20 *2026:A2 0.000199706
13 *1997:A *2025:A1 3.92757e-05
14 *1997:A *469:20 0.000105591
15 *2005:A1 *469:16 0.000150324
16 *2005:A2 *469:16 2.6269e-05
17 *2005:B1 *469:16 9.71197e-05
18 *2009:B1_N *2025:A1 0.000126439
*RES
1 *2005:X *469:16 17.9429 
2 *469:16 *469:20 7.05357 
3 *469:20 *2011:A2 13.8 
4 *469:20 *2025:A1 16.3536 
5 *469:16 *2026:A1 9.3 
*END

*D_NET *470 0.00121139
*CONN
*I *2037:A I *D sky130_fd_sc_hd__or2_1
*I *2008:A I *D sky130_fd_sc_hd__and2_1
*I *2006:X O *D sky130_fd_sc_hd__a21o_1
*CAP
1 *2037:A 0.000222284
2 *2008:A 0
3 *2006:X 0.000246011
4 *470:12 0.000468295
5 *2037:A *2037:B 9.90367e-05
6 *2037:A *524:31 0.000134278
7 *2037:A *550:80 1.98839e-05
8 *470:12 *2008:B 5.80706e-06
9 *470:12 *517:86 1.57931e-05
10 *470:12 *520:70 0
11 *470:12 *550:80 0
*RES
1 *2006:X *470:12 21.3 
2 *470:12 *2008:A 9.3 
3 *470:12 *2037:A 13.55 
*END

*D_NET *471 0.024232
*CONN
*I *2008:B I *D sky130_fd_sc_hd__and2_1
*I *2041:B I *D sky130_fd_sc_hd__and3_1
*I *2131:A1 I *D sky130_fd_sc_hd__a21oi_1
*I *2132:B I *D sky130_fd_sc_hd__and3_1
*I *2107:B1 I *D sky130_fd_sc_hd__o21ai_1
*I *2063:A1 I *D sky130_fd_sc_hd__a21o_1
*I *2062:B I *D sky130_fd_sc_hd__and3_1
*I *2038:A1 I *D sky130_fd_sc_hd__a21oi_1
*I *2007:X O *D sky130_fd_sc_hd__a211o_2
*CAP
1 *2008:B 0.000155732
2 *2041:B 0
3 *2131:A1 8.28697e-05
4 *2132:B 0.000107677
5 *2107:B1 0.000654023
6 *2063:A1 0
7 *2062:B 0.000444234
8 *2038:A1 0
9 *2007:X 0.000230988
10 *471:96 0.000190547
11 *471:94 0.00188703
12 *471:45 0.000660102
13 *471:43 0.00247464
14 *471:33 0.00355774
15 *471:29 0.000760851
16 *471:12 0.00168794
17 *471:6 0.00137977
18 *2008:B *1956:A 0
19 *2008:B *2009:A2 0.000197627
20 *2008:B *520:70 0
21 *2008:B *550:80 0
22 *2062:B *536:16 7.92879e-05
23 *2107:B1 *2059:A 0.000546001
24 *2107:B1 *2125:B 2.12687e-05
25 *2107:B1 *536:8 0
26 *2107:B1 *539:40 0.000196262
27 *2131:A1 *2132:A 1.90213e-05
28 *471:6 *2031:B 7.70589e-05
29 *471:12 *2031:B 0.000144094
30 *471:12 *2032:A 4.43256e-05
31 *471:12 *2395:D_N 0.000135549
32 *471:12 *539:76 1.02504e-05
33 *471:12 *542:92 0.00027025
34 *471:29 *2041:A 7.84041e-05
35 *471:29 *2043:B 2.14658e-05
36 *471:29 *534:56 0.000503399
37 *471:29 *534:75 3.33174e-05
38 *471:29 *536:57 6.87146e-05
39 *471:29 *539:72 7.58103e-05
40 *471:29 *539:76 0.000130458
41 *471:29 *542:92 0.000210272
42 *471:29 *567:56 0.000118391
43 *471:33 *534:56 9.90431e-05
44 *471:43 *2057:A1 2.8266e-06
45 *471:43 *2061:A1 4.52914e-05
46 *471:43 *2086:C1 0.000339987
47 *471:43 *531:24 9.20464e-06
48 *471:43 *559:10 3.60626e-05
49 *471:45 *2059:A 3.18676e-05
50 *471:94 *2130:B 6.12603e-05
51 *471:94 *2451:A 3.05584e-05
52 *471:94 *2501:A 0
53 *471:94 *496:18 0
54 *471:94 *497:33 0.000363768
55 *471:94 *531:22 2.6949e-05
56 *471:94 *531:24 7.79781e-06
57 *471:94 *542:77 0.000667446
58 *471:94 *543:103 2.13481e-06
59 *471:94 *546:27 5.30237e-05
60 *471:94 *561:10 0
61 *471:94 *568:8 0
62 *471:94 *568:51 0
63 *1978:C *471:6 3.69047e-06
64 *2041:C *471:43 0
65 *2059:B *2107:B1 9.27921e-05
66 *2059:B *471:43 5.33433e-05
67 *2059:B *471:45 6.05161e-06
68 *2062:C *2062:B 0.0001119
69 *2063:A2 *2062:B 4.75911e-05
70 *2064:B *2062:B 6.26774e-06
71 *2073:A *471:43 0.000169538
72 *2073:B *471:43 0.000229354
73 *2077:A *471:43 0.0001863
74 *2083:A2 *471:43 5.52238e-05
75 *2083:B1 *471:43 4.27935e-05
76 *2089:A1 *2107:B1 0
77 *2106:B *2107:B1 0.000193424
78 *2129:B1 *2107:B1 0.000149904
79 *2130:A *471:94 0.00070115
80 *2131:A2 *2131:A1 5.92747e-05
81 *2131:A2 *2132:B 3.95896e-05
82 *45:42 *471:43 9.73258e-05
83 *61:16 *471:43 1.36251e-05
84 *61:16 *471:94 3.25078e-05
85 *67:29 *2062:B 0.000105449
86 *67:48 *2107:B1 0.000809932
87 *70:22 *2062:B 9.7659e-05
88 *76:16 *471:43 8.51331e-05
89 *95:10 *2107:B1 0.000367389
90 *95:19 *2107:B1 7.97198e-05
91 *100:25 *471:94 3.85665e-05
92 *110:16 *471:94 0.000223112
93 *130:10 *471:94 0
94 *136:14 *2132:B 5.7993e-06
95 *136:14 *471:94 0.000162084
96 *137:10 *2131:A1 0.000142856
97 *137:10 *471:94 3.34295e-05
98 *138:10 *471:94 3.34295e-05
99 *241:25 *471:12 0.000312209
100 *241:27 *471:12 0.000178865
101 *283:87 *471:94 0.000226302
102 *294:10 *2008:B 0
103 *470:12 *2008:B 5.80706e-06
*RES
1 *2007:X *471:6 12.3 
2 *471:6 *471:12 20 
3 *471:12 *2038:A1 13.8 
4 *471:12 *471:29 16.6607 
5 *471:29 *471:33 5.44643 
6 *471:33 *471:43 31.0893 
7 *471:43 *471:45 2.58929 
8 *471:45 *2062:B 26.8893 
9 *471:45 *2063:A1 9.3 
10 *471:43 *2107:B1 39.8357 
11 *471:33 *471:94 47.5357 
12 *471:94 *471:96 4.5 
13 *471:96 *2132:B 11.0857 
14 *471:96 *2131:A1 11.8 
15 *471:29 *2041:B 9.3 
16 *471:6 *2008:B 21.7643 
*END

*D_NET *472 0.00133659
*CONN
*I *2009:A2 I *D sky130_fd_sc_hd__o21ba_4
*I *2008:X O *D sky130_fd_sc_hd__and2_1
*CAP
1 *2009:A2 0.000507388
2 *2008:X 0.000507388
3 *2009:A2 *1956:A 0
4 *2009:A2 *2009:A1 3.93893e-05
5 *2009:A2 *524:31 2.89016e-05
6 *1986:B *2009:A2 0
7 *1986:C *2009:A2 0
8 *1993:A1 *2009:A2 0
9 *2007:A2 *2009:A2 0
10 *2008:B *2009:A2 0.000197627
11 *294:10 *2009:A2 0
12 *456:31 *2009:A2 5.58941e-05
13 *457:12 *2009:A2 0
*RES
1 *2008:X *2009:A2 37.0643 
*END

*D_NET *473 0.0017732
*CONN
*I *2025:A2 I *D sky130_fd_sc_hd__a211o_1
*I *2026:A2 I *D sky130_fd_sc_hd__a211o_1
*I *2011:A1 I *D sky130_fd_sc_hd__a21oi_4
*I *2009:X O *D sky130_fd_sc_hd__o21ba_4
*CAP
1 *2025:A2 4.26984e-05
2 *2026:A2 0.000123901
3 *2011:A1 5.39264e-05
4 *2009:X 8.94526e-05
5 *473:10 0.000287225
6 *473:8 0.000241549
7 *2011:A1 *2028:C1 0.000178847
8 *2011:A1 *475:8 9.3111e-05
9 *1996:A2 *2026:A2 6.62618e-05
10 *1996:A2 *473:10 1.76039e-05
11 *2005:A2 *2026:A2 9.25014e-06
12 *2009:B1_N *473:8 0.000202842
13 *2009:B1_N *473:10 0.000126439
14 *2025:A1 *2026:A2 2.31791e-05
15 *2025:A1 *473:10 1.721e-05
16 *457:29 *473:8 0
17 *457:29 *473:10 0
18 *469:20 *2026:A2 0.000199706
*RES
1 *2009:X *473:8 16.3536 
2 *473:8 *473:10 2.25 
3 *473:10 *2011:A1 15.5679 
4 *473:10 *2026:A2 17.1929 
5 *473:8 *2025:A2 14.3357 
*END

*D_NET *474 0.00522479
*CONN
*I *2025:B1 I *D sky130_fd_sc_hd__a211o_1
*I *2011:B1 I *D sky130_fd_sc_hd__a21oi_4
*I *2026:B1 I *D sky130_fd_sc_hd__a211o_1
*I *2010:X O *D sky130_fd_sc_hd__a21o_1
*CAP
1 *2025:B1 0.000219417
2 *2011:B1 2.91823e-05
3 *2026:B1 0.000283244
4 *2010:X 0.000779032
5 *474:10 0.000387814
6 *474:8 0.00107384
7 *2011:B1 *2026:C1 1.92789e-05
8 *2025:B1 *2025:C1 0.000357054
9 *2026:B1 *518:75 0.000397918
10 *474:8 *516:85 0
11 *474:8 *552:53 2.03997e-05
12 *1986:B *474:8 4.26759e-05
13 *1989:A2 *474:8 0
14 *2337:A3 *474:8 0.000137968
15 *50:37 *474:8 0
16 *423:14 *474:8 0
17 *439:10 *474:8 0
18 *439:27 *2026:B1 0
19 *439:27 *474:8 0
20 *439:27 *474:10 0
21 *449:27 *474:8 0
22 *451:10 *474:8 0
23 *453:19 *2026:B1 0.000196269
24 *453:19 *474:8 0.000390561
25 *453:19 *474:10 0.00015134
26 *454:8 *474:8 0.000119179
27 *454:17 *474:8 0.000374752
28 *456:14 *474:8 0.000239099
29 *469:16 *2026:B1 5.7661e-06
*RES
1 *2010:X *474:8 30.6214 
2 *474:8 *474:10 1.94643 
3 *474:10 *2026:B1 20.6036 
4 *474:10 *2011:B1 14.3357 
5 *474:8 *2025:B1 18.05 
*END

*D_NET *475 0.0168573
*CONN
*I *2028:A2 I *D sky130_fd_sc_hd__o211a_1
*I *2293:A2 I *D sky130_fd_sc_hd__a211oi_1
*I *2037:B I *D sky130_fd_sc_hd__or2_1
*I *2027:A2 I *D sky130_fd_sc_hd__o21ai_1
*I *2029:A2 I *D sky130_fd_sc_hd__o211ai_2
*I *2013:S I *D sky130_fd_sc_hd__mux2_4
*I *2020:S I *D sky130_fd_sc_hd__mux2_4
*I *2019:S I *D sky130_fd_sc_hd__mux2_2
*I *2011:Y O *D sky130_fd_sc_hd__a21oi_4
*CAP
1 *2028:A2 2.23854e-05
2 *2293:A2 0.000686081
3 *2037:B 0.000354239
4 *2027:A2 0
5 *2029:A2 0
6 *2013:S 0.00018599
7 *2020:S 3.72884e-05
8 *2019:S 0.000191638
9 *2011:Y 0.000453512
10 *475:98 0.00214149
11 *475:73 0.00221722
12 *475:64 0.00054163
13 *475:24 0.000604228
14 *475:18 0.000583677
15 *475:16 2.23854e-05
16 *475:14 0.000493124
17 *475:8 0.000834973
18 *2013:S *477:16 0.000215126
19 *2019:S *2019:A1 9.80173e-05
20 *2019:S *2020:A1 0.000126439
21 *2028:A2 *2028:C1 0
22 *2037:B *550:80 0.00033994
23 *2293:A2 *2172:B 4.58194e-05
24 *475:8 *2026:C1 0.000183726
25 *475:8 *2028:C1 0.000414644
26 *475:14 *1982:A 0
27 *475:24 *2020:A1 9.25014e-06
28 *475:24 *2029:C1 5.71472e-05
29 *475:64 *2029:C1 0
30 *475:64 *477:16 8.15939e-05
31 *475:73 *1982:A 0
32 *475:73 *2029:C1 0
33 *475:73 *2033:A 0.000578696
34 *475:98 *2054:B 6.03953e-05
35 *475:98 *2101:B 0.000267814
36 *475:98 *2159:A 0
37 *475:98 *2236:A2 0.000304256
38 *475:98 *512:40 0
39 *475:98 *517:34 0
40 *475:98 *517:60 0
41 *475:98 *524:65 1.97488e-05
42 *475:98 *524:74 0.000127577
43 *475:98 *526:75 1.98839e-05
44 *475:98 *526:81 0.000225609
45 *475:98 *526:87 0.000274256
46 *475:98 *542:92 0
47 *475:98 *542:128 7.41757e-05
48 *1995:B *475:8 0.000265453
49 *2011:A1 *475:8 9.3111e-05
50 *2019:A0 *2019:S 2.44318e-05
51 *2029:A1 *475:14 0
52 *2029:A1 *475:64 0
53 *2029:A1 *475:73 0
54 *2029:B1 *475:14 0.000102315
55 *2029:B1 *475:24 0
56 *2037:A *2037:B 9.90367e-05
57 *2045:A *2037:B 9.71197e-05
58 *2048:A *475:98 0.00021523
59 *2051:B *475:73 2.0953e-05
60 *2051:B *475:98 7.91647e-05
61 *2075:B1 *475:73 0.000160722
62 *2090:B *475:98 0.000287849
63 *2091:A0 *475:98 2.0586e-05
64 *2091:A1 *475:98 0
65 *2096:A *475:98 0.000259647
66 *2161:A1 *475:98 0
67 *2395:A *475:73 0
68 *2426:A *2293:A2 1.02936e-05
69 *31:8 *2013:S 9.71197e-05
70 *34:12 *475:14 0.000148105
71 *35:8 *475:24 4.88546e-05
72 *51:12 *475:73 6.54357e-05
73 *51:12 *475:98 3.45423e-05
74 *57:12 *475:98 7.10038e-05
75 *97:36 *475:98 0
76 *178:25 *475:98 9.25014e-06
77 *273:12 *475:98 0.000232247
78 *273:18 *475:98 0
79 *294:36 *2013:S 0.000346542
80 *294:36 *475:24 0.000357054
81 *326:66 *2293:A2 0.000817234
*RES
1 *2011:Y *475:8 19.3 
2 *475:8 *475:14 11.2857 
3 *475:14 *475:16 4.5 
4 *475:16 *475:18 0.428571 
5 *475:18 *475:24 12.5893 
6 *475:24 *2019:S 17.2286 
7 *475:24 *2020:S 14.3357 
8 *475:18 *2013:S 15.3179 
9 *475:16 *2029:A2 9.3 
10 *475:14 *475:64 2.85714 
11 *475:64 *2027:A2 13.8 
12 *475:64 *475:73 10.4464 
13 *475:73 *2037:B 20.1214 
14 *475:73 *475:98 45.4821 
15 *475:98 *2293:A2 18.8893 
16 *475:8 *2028:A2 9.72857 
*END

*D_NET *476 0.00138942
*CONN
*I *2013:A1 I *D sky130_fd_sc_hd__mux2_4
*I *2012:Y O *D sky130_fd_sc_hd__xnor2_1
*CAP
1 *2013:A1 0.000331796
2 *2012:Y 0.000331796
3 *1996:A1 *2013:A1 5.84267e-05
4 *1996:B1 *2013:A1 0.00023252
5 *2005:C1 *2013:A1 0.000267092
6 *294:10 *2013:A1 2.61337e-05
7 *294:12 *2013:A1 0.000100969
8 *456:31 *2013:A1 4.06875e-05
*RES
1 *2012:Y *2013:A1 35.4571 
*END

*D_NET *477 0.00369452
*CONN
*I *2014:B I *D sky130_fd_sc_hd__nor2_1
*I *2015:B I *D sky130_fd_sc_hd__xnor2_2
*I *2057:B1 I *D sky130_fd_sc_hd__a21oi_1
*I *2013:X O *D sky130_fd_sc_hd__mux2_4
*CAP
1 *2014:B 0
2 *2015:B 0
3 *2057:B1 0.000349654
4 *2013:X 0.000564943
5 *477:18 0.000374706
6 *477:16 0.000589995
7 *2057:B1 *2016:A 4.038e-06
8 *2057:B1 *2039:C1 9.41642e-05
9 *2057:B1 *478:6 4.27935e-05
10 *477:16 *478:6 1.74352e-05
11 *477:18 *478:6 0.00010096
12 *2013:S *477:16 0.000215126
13 *2015:A *2057:B1 0.000148189
14 *2027:B1 *477:16 0.00018372
15 *2029:A1 *477:16 7.92975e-05
16 *2033:B *2057:B1 3.57844e-05
17 *2040:B1 *2057:B1 5.41794e-05
18 *2075:B1 *2057:B1 0.000279933
19 *44:10 *2057:B1 0.000329108
20 *49:20 *2057:B1 0.000148903
21 *475:64 *477:16 8.15939e-05
*RES
1 *2013:X *477:16 29.4429 
2 *477:16 *477:18 0.946429 
3 *477:18 *2057:B1 27.6393 
4 *477:18 *2015:B 9.3 
5 *477:16 *2014:B 9.3 
*END

*D_NET *478 0.00267484
*CONN
*I *2040:C1 I *D sky130_fd_sc_hd__a311o_1
*I *2039:C1 I *D sky130_fd_sc_hd__a311oi_2
*I *2014:Y O *D sky130_fd_sc_hd__nor2_1
*CAP
1 *2040:C1 0.000137029
2 *2039:C1 0.000388082
3 *2014:Y 8.33533e-05
4 *478:6 0.000608464
5 *2039:C1 *2039:A1 5.55213e-05
6 *2039:C1 *2040:A1 0.000117543
7 *2039:C1 *479:10 8.43918e-05
8 *2039:B1 *2039:C1 0.000697327
9 *2040:B1 *2040:C1 0.000247771
10 *2057:B1 *2039:C1 9.41642e-05
11 *2057:B1 *478:6 4.27935e-05
12 *477:16 *478:6 1.74352e-05
13 *477:18 *478:6 0.00010096
*RES
1 *2014:Y *478:6 11.0679 
2 *478:6 *2039:C1 19.3179 
3 *478:6 *2040:C1 21.4607 
*END

*D_NET *479 0.00179674
*CONN
*I *2040:A1 I *D sky130_fd_sc_hd__a311o_1
*I *2056:A I *D sky130_fd_sc_hd__xnor2_1
*I *2039:A1 I *D sky130_fd_sc_hd__a311oi_2
*I *2015:Y O *D sky130_fd_sc_hd__xnor2_2
*CAP
1 *2040:A1 0.000205202
2 *2056:A 9.44072e-05
3 *2039:A1 2.38239e-05
4 *2015:Y 0
5 *479:10 0.000268686
6 *479:4 0.000355657
7 *2040:A1 *2016:A 0.000160162
8 *2056:A *2039:A2 9.25014e-06
9 *2056:A *2067:B1 0.00014297
10 *2039:C1 *2039:A1 5.55213e-05
11 *2039:C1 *2040:A1 0.000117543
12 *2039:C1 *479:10 8.43918e-05
13 *2040:B1 *2040:A1 0.000105229
14 *2056:B *2056:A 3.83748e-05
15 *2075:A1 *2056:A 2.83284e-06
16 *41:20 *479:10 9.41642e-05
17 *46:16 *2056:A 5.7903e-06
18 *283:24 *2056:A 3.27359e-05
*RES
1 *2015:Y *479:4 9.3 
2 *479:4 *479:10 3.31696 
3 *479:10 *2039:A1 9.85804 
4 *479:10 *2056:A 20.55 
5 *479:4 *2040:A1 23.6929 
*END

*D_NET *480 0.000843787
*CONN
*I *2018:B I *D sky130_fd_sc_hd__xor2_1
*I *2017:B I *D sky130_fd_sc_hd__xnor2_1
*I *2016:Y O *D sky130_fd_sc_hd__xnor2_1
*CAP
1 *2018:B 0.000111446
2 *2017:B 0
3 *2016:Y 8.98828e-05
4 *480:8 0.000201329
5 *2016:B *480:8 7.72917e-05
6 *2017:A *2018:B 0.00030669
7 *2017:A *480:8 5.71472e-05
*RES
1 *2016:Y *480:8 11.4964 
2 *480:8 *2017:B 9.3 
3 *480:8 *2018:B 12.3 
*END

*D_NET *481 0.000582461
*CONN
*I *2019:A1 I *D sky130_fd_sc_hd__mux2_2
*I *2017:Y O *D sky130_fd_sc_hd__xnor2_1
*CAP
1 *2019:A1 0.000145365
2 *2017:Y 0.000145365
3 *2019:A1 *2016:A 0
4 *2019:A1 *2020:A1 9.56968e-05
5 *2019:A0 *2019:A1 9.80173e-05
6 *2019:S *2019:A1 9.80173e-05
*RES
1 *2017:Y *2019:A1 31.2071 
*END

*D_NET *482 0.000613611
*CONN
*I *2020:A1 I *D sky130_fd_sc_hd__mux2_4
*I *2018:X O *D sky130_fd_sc_hd__xor2_1
*CAP
1 *2020:A1 0.000191113
2 *2018:X 0.000191113
3 *2019:A1 *2020:A1 9.56968e-05
4 *2019:S *2020:A1 0.000126439
5 *2020:A0 *2020:A1 0
6 *464:19 *2020:A1 0
7 *475:24 *2020:A1 9.25014e-06
*RES
1 *2018:X *2020:A1 31.6714 
*END

*D_NET *483 0.00190579
*CONN
*I *2065:B I *D sky130_fd_sc_hd__xnor2_1
*I *2021:B I *D sky130_fd_sc_hd__nand2_1
*I *2019:X O *D sky130_fd_sc_hd__mux2_2
*CAP
1 *2065:B 0.000167726
2 *2021:B 0
3 *2019:X 0.000642574
4 *483:12 0.0008103
5 *2065:B *2021:A 0.000184225
6 *2065:B *484:12 0.00010096
7 *483:12 *2016:A 0
8 *2065:A *483:12 0
*RES
1 *2019:X *483:12 28.2643 
2 *483:12 *2021:B 9.3 
3 *483:12 *2065:B 13.55 
*END

*D_NET *484 0.00290387
*CONN
*I *2067:B1 I *D sky130_fd_sc_hd__a21o_1
*I *2035:A1 I *D sky130_fd_sc_hd__a221o_1
*I *2020:X O *D sky130_fd_sc_hd__mux2_4
*CAP
1 *2067:B1 0.000326277
2 *2035:A1 0
3 *2020:X 0.000629447
4 *484:12 0.000955725
5 *2067:B1 *2039:A2 0.000102081
6 *2067:B1 *2067:A1 8.24165e-05
7 *2067:B1 *485:12 0
8 *484:12 *485:12 0.000144773
9 *2056:A *2067:B1 0.00014297
10 *2065:A *484:12 0
11 *2065:B *484:12 0.00010096
12 *35:16 *2067:B1 2.48938e-05
13 *35:16 *484:12 0.000100831
14 *39:14 *2067:B1 0.000262079
15 *41:20 *2067:B1 0
16 *45:8 *2067:B1 0
17 *49:20 *2067:B1 3.14193e-05
*RES
1 *2020:X *484:12 24.9964 
2 *484:12 *2035:A1 13.8 
3 *484:12 *2067:B1 21.3893 
*END

*D_NET *485 0.00206168
*CONN
*I *2040:A3 I *D sky130_fd_sc_hd__a311o_1
*I *2039:A2 I *D sky130_fd_sc_hd__a311oi_2
*I *2036:A I *D sky130_fd_sc_hd__nand2_1
*I *2021:Y O *D sky130_fd_sc_hd__nand2_1
*CAP
1 *2040:A3 5.86194e-05
2 *2039:A2 0.000108486
3 *2036:A 0
4 *2021:Y 0.000337463
5 *485:19 0.000185675
6 *485:12 0.000356033
7 *485:12 *2016:A 0
8 *2035:A2 *485:19 3.99614e-06
9 *2039:A3 *2039:A2 7.22594e-05
10 *2040:A2 *2040:A3 9.77274e-05
11 *2040:A2 *485:19 5.7661e-06
12 *2056:A *2039:A2 9.25014e-06
13 *2067:B1 *2039:A2 0.000102081
14 *2067:B1 *485:12 0
15 *35:8 *2039:A2 9.90431e-05
16 *35:8 *2040:A3 0.000273269
17 *35:8 *485:19 0
18 *41:8 *2039:A2 8.00806e-05
19 *41:20 *2039:A2 1.46717e-05
20 *41:20 *2040:A3 5.52302e-05
21 *41:20 *485:12 1.02504e-05
22 *294:36 *2039:A2 3.67142e-05
23 *294:36 *2040:A3 1.02936e-05
24 *484:12 *485:12 0.000144773
*RES
1 *2021:Y *485:12 23.7286 
2 *485:12 *2036:A 9.3 
3 *485:12 *485:19 0.428571 
4 *485:19 *2039:A2 21.8 
5 *485:19 *2040:A3 12.3179 
*END

*D_NET *486 0.00254304
*CONN
*I *2277:A1 I *D sky130_fd_sc_hd__a21oi_4
*I *2023:B I *D sky130_fd_sc_hd__and2_1
*I *2024:B I *D sky130_fd_sc_hd__nand2_1
*I *2022:Y O *D sky130_fd_sc_hd__nand2_1
*CAP
1 *2277:A1 0.000734356
2 *2023:B 0
3 *2024:B 6.07571e-05
4 *2022:Y 6.00027e-05
5 *486:14 0.000138102
6 *486:8 0.000871704
7 *2024:B *1981:A 1.24368e-05
8 *2277:A1 *518:65 5.80706e-06
9 *2277:A1 *552:86 5.98293e-05
10 *2277:A1 *554:64 0
11 *486:8 *518:65 8.39e-05
12 *486:8 *552:86 5.26091e-05
13 *486:14 *1981:A 0.000183726
14 *2024:A *2024:B 0.0001399
15 *2024:A *486:14 8.46829e-05
16 *445:6 *486:14 5.52302e-05
*RES
1 *2022:Y *486:8 15.7464 
2 *486:8 *486:14 6.80357 
3 *486:14 *2024:B 10.6571 
4 *486:14 *2023:B 9.3 
5 *486:8 *2277:A1 26.0321 
*END

*D_NET *487 0.00150913
*CONN
*I *2025:C1 I *D sky130_fd_sc_hd__a211o_1
*I *2023:X O *D sky130_fd_sc_hd__and2_1
*CAP
1 *2025:C1 0.000511963
2 *2023:X 0.000511963
3 *2025:C1 *547:83 0.000128154
4 *2025:B1 *2025:C1 0.000357054
*RES
1 *2023:X *2025:C1 37.5821 
*END

*D_NET *488 0.00179249
*CONN
*I *2026:C1 I *D sky130_fd_sc_hd__a211o_1
*I *2024:Y O *D sky130_fd_sc_hd__nand2_1
*CAP
1 *2026:C1 0.000679136
2 *2024:Y 0.000679136
3 *1997:A *2026:C1 0.000149911
4 *2011:B1 *2026:C1 1.92789e-05
5 *2024:A *2026:C1 3.18676e-05
6 *439:27 *2026:C1 4.94362e-05
7 *475:8 *2026:C1 0.000183726
*RES
1 *2024:Y *2026:C1 37.0643 
*END

*D_NET *489 0.00561668
*CONN
*I *2200:A_N I *D sky130_fd_sc_hd__and4bb_2
*I *2183:A I *D sky130_fd_sc_hd__nand2_1
*I *2185:A I *D sky130_fd_sc_hd__or4b_4
*I *1963:A I *D sky130_fd_sc_hd__nor2_1
*I *2191:D I *D sky130_fd_sc_hd__and4b_2
*I *2182:A_N I *D sky130_fd_sc_hd__and4b_2
*I *2193:D I *D sky130_fd_sc_hd__and4bb_2
*I *2462:X O *D sky130_fd_sc_hd__dlymetal6s2s_1
*CAP
1 *2200:A_N 0.000188567
2 *2183:A 2.23854e-05
3 *2185:A 0
4 *1963:A 0.000194142
5 *2191:D 6.79125e-05
6 *2182:A_N 0
7 *2193:D 8.02747e-05
8 *2462:X 0
9 *489:46 0.000262054
10 *489:44 0.000108197
11 *489:35 0.000319945
12 *489:12 0.000466549
13 *489:6 0.00039022
14 *489:4 0.000381875
15 *1963:A *1963:B 0
16 *1963:A *2185:C 1.76135e-05
17 *1963:A *2485:A 9.90431e-05
18 *1963:A *2490:A 0
19 *2191:D *1955:A 8.15939e-05
20 *2191:D *2185:C 3.67356e-05
21 *2191:D *2485:A 0
22 *2191:D *530:35 3.57844e-05
23 *2191:D *530:45 1.99099e-05
24 *2193:D *2193:C 6.05161e-06
25 *2193:D *2439:A 1.19402e-05
26 *2193:D *491:18 1.59689e-05
27 *2193:D *522:8 1.18358e-05
28 *2200:A_N *2197:A 6.95556e-05
29 *2200:A_N *511:10 0.000173328
30 *489:6 *2183:B 5.52302e-05
31 *489:6 *511:10 9.90431e-05
32 *489:12 *2183:B 0
33 *489:12 *522:8 3.31397e-05
34 *489:35 *2182:B 0
35 *489:35 *2193:B_N 3.98559e-05
36 *489:35 *2193:C 5.52302e-05
37 *489:35 *500:6 0.000408744
38 *489:35 *500:8 7.03295e-05
39 *489:35 *500:46 0.000295925
40 *489:35 *522:8 9.87983e-06
41 *489:35 *530:27 0.000117956
42 *489:35 *530:33 0.000229456
43 *489:44 *1955:A 7.66879e-05
44 *489:44 *2182:B 3.99614e-06
45 *489:44 *500:8 4.38128e-05
46 *489:44 *500:12 5.52302e-05
47 *489:44 *511:97 7.41811e-05
48 *489:44 *530:33 7.96236e-05
49 *2473:A *2193:D 5.03829e-05
50 *2473:A *489:12 0.0001526
51 *2473:A *489:35 0.000139907
52 *2476:A *489:12 5.52302e-05
53 *188:10 *489:35 0.000274288
54 *189:12 *489:6 2.59355e-05
55 *211:12 *489:44 0.000108535
56 *315:8 *1963:A 0
*RES
1 *2462:X *489:4 9.3 
2 *489:4 *489:6 3.82143 
3 *489:6 *489:12 8.36607 
4 *489:12 *2193:D 15.5232 
5 *489:12 *489:35 14.6161 
6 *489:35 *2182:A_N 9.3 
7 *489:35 *489:44 3.42857 
8 *489:44 *489:46 4.5 
9 *489:46 *2191:D 16.05 
10 *489:46 *1963:A 17.3 
11 *489:44 *2185:A 9.3 
12 *489:6 *2183:A 9.72857 
13 *489:4 *2200:A_N 22.3179 
*END

*D_NET *490 0.016502
*CONN
*I *2378:B2 I *D sky130_fd_sc_hd__a32o_1
*I *2335:A1 I *D sky130_fd_sc_hd__a32o_1
*I *2334:A1 I *D sky130_fd_sc_hd__o22a_1
*I *2333:A1 I *D sky130_fd_sc_hd__a21oi_1
*I *2461:A I *D sky130_fd_sc_hd__clkbuf_4
*I *2463:X O *D sky130_fd_sc_hd__clkbuf_2
*CAP
1 *2378:B2 1.56658e-05
2 *2335:A1 0.000410091
3 *2334:A1 1.85618e-05
4 *2333:A1 0
5 *2461:A 0.000289625
6 *2463:X 0.00146174
7 *490:53 0.000912462
8 *490:32 0.000594163
9 *490:23 0.0018941
10 *490:12 0.00355657
11 *2334:A1 *2334:A2 5.71472e-05
12 *2335:A1 *2335:B2 0.00026353
13 *2335:A1 *537:10 9.60875e-05
14 *2461:A *493:14 0.000238804
15 *490:12 *2428:A 5.52302e-05
16 *490:12 *493:14 0.00085182
17 *490:23 *2350:A 0
18 *490:23 *2350:B 0.000151333
19 *490:23 *526:43 0
20 *490:23 *537:30 2.8266e-06
21 *490:23 *537:36 0.00148335
22 *490:23 *545:54 0
23 *490:23 *555:12 0.000175805
24 *490:23 *555:31 0.000201783
25 *490:23 *567:56 1.01912e-05
26 *490:32 *537:30 4.58101e-05
27 *490:53 *2233:A2 0.000872095
28 *490:53 *493:50 0
29 *490:53 *519:90 0.000702761
30 *490:53 *537:30 6.8646e-06
31 *2232:A_N *2334:A1 9.90367e-05
32 *2293:C1 *490:53 0.000199651
33 *2306:B *490:12 1.39841e-05
34 *2306:C *490:12 2.28499e-05
35 *2334:B2 *490:23 6.0038e-05
36 *2334:B2 *490:32 0.000167368
37 *2334:B2 *490:53 9.25014e-06
38 *2335:A3 *2335:A1 3.25425e-05
39 *2335:B1 *2335:A1 1.1671e-05
40 *2338:B *2334:A1 2.14658e-05
41 *2363:B *490:12 0.00018372
42 *2378:B1 *2335:A1 5.33005e-05
43 *2378:B1 *2378:B2 5.33005e-05
44 *2406:B *2461:A 5.71472e-05
45 *2407:B1 *490:23 1.91418e-05
46 *2416:B2 *2335:A1 7.43578e-06
47 *2416:B2 *2378:B2 2.14658e-05
48 *2417:A3 *490:53 1.94879e-05
49 *2418:A2 *490:53 2.09826e-05
50 *2466:A *490:12 7.68486e-05
51 *2480:A *490:12 6.30405e-05
52 *188:41 *490:53 8.61762e-05
53 *205:39 *2335:A1 0.000133595
54 *254:12 *490:23 2.49484e-05
55 *259:24 *490:23 0
56 *284:12 *490:23 0.000507764
57 *287:12 *490:23 7.12607e-05
58 *317:8 *490:12 9.60939e-05
*RES
1 *2463:X *490:12 47.6036 
2 *490:12 *2461:A 15.175 
3 *490:12 *490:23 48.0357 
4 *490:23 *2333:A1 13.8 
5 *490:23 *490:32 2.25 
6 *490:32 *2334:A1 14.7464 
7 *490:32 *490:53 15.9914 
8 *490:53 *2335:A1 17.2821 
9 *490:53 *2378:B2 9.83571 
*END

*D_NET *491 0.00674857
*CONN
*I *2460:A I *D sky130_fd_sc_hd__clkbuf_2
*I *2459:A I *D sky130_fd_sc_hd__buf_2
*I *2464:X O *D sky130_fd_sc_hd__buf_1
*CAP
1 *2460:A 0.000132882
2 *2459:A 9.5921e-05
3 *2464:X 0.00153359
4 *491:18 0.0017624
5 *2459:A *526:53 0.000531883
6 *2459:A *529:56 0.000289392
7 *2460:A *565:67 5.33005e-05
8 *491:18 *1964:C 9.95957e-05
9 *491:18 *2439:A 0
10 *491:18 *2485:A 0.000741584
11 *491:18 *2490:A 2.89114e-05
12 *491:18 *511:68 5.10822e-05
13 *491:18 *523:115 0
14 *491:18 *526:53 8.36572e-05
15 *491:18 *529:56 4.58194e-05
16 *491:18 *572:29 0.000381724
17 *491:18 *572:52 0
18 op_out[0] *491:18 8.07313e-05
19 *2193:D *491:18 1.59689e-05
20 *2377:B2 *2460:A 5.7616e-05
21 *2473:A *491:18 6.94775e-05
22 *2476:A *491:18 3.69047e-06
23 *188:10 *491:18 8.4392e-05
24 *188:20 *2460:A 0.000216304
25 *188:20 *491:18 0.000333429
26 *189:12 *491:18 0
27 *190:67 *2460:A 5.52238e-05
28 *197:68 *2460:A 0
*RES
1 *2464:X *491:18 47.675 
2 *491:18 *2459:A 14.3536 
3 *491:18 *2460:A 21.6929 
*END

*D_NET *492 0.0153025
*CONN
*I *2415:A1 I *D sky130_fd_sc_hd__a21oi_1
*I *2379:A1 I *D sky130_fd_sc_hd__a211o_1
*I *2417:A1 I *D sky130_fd_sc_hd__a32o_1
*I *2416:A1 I *D sky130_fd_sc_hd__o22a_1
*I *2383:A I *D sky130_fd_sc_hd__xnor2_1
*I *1968:B1 I *D sky130_fd_sc_hd__o41ai_4
*I *2402:B I *D sky130_fd_sc_hd__nand2_1
*I *1958:A I *D sky130_fd_sc_hd__inv_2
*I *2178:C I *D sky130_fd_sc_hd__or4_1
*I *2465:X O *D sky130_fd_sc_hd__clkbuf_4
*CAP
1 *2415:A1 0.000136144
2 *2379:A1 0.00029389
3 *2417:A1 7.38904e-05
4 *2416:A1 0
5 *2383:A 8.72675e-05
6 *1968:B1 0.000410723
7 *2402:B 0.00141139
8 *1958:A 0
9 *2178:C 0.000111051
10 *2465:X 0.00086869
11 *492:100 0.000390166
12 *492:93 4.19901e-05
13 *492:54 0.00199764
14 *492:43 0.000452459
15 *492:39 0.00063563
16 *492:33 0.000635819
17 *492:23 0.000628366
18 *492:10 0.00112718
19 *1968:B1 *1968:A1 0.000417115
20 *1968:B1 *1968:A2 9.41642e-05
21 *1968:B1 *545:27 0.00015357
22 *2178:C *2178:D 6.86693e-05
23 *2178:C *565:67 0.000309266
24 *2379:A1 *537:26 2.74981e-06
25 *2402:B *2348:A2 0.00012401
26 *2402:B *2393:B 1.26634e-05
27 *2402:B *2393:D 5.4695e-05
28 *2402:B *2457:A 0
29 *2402:B *493:48 0
30 *2402:B *523:40 0
31 *2402:B *532:29 0
32 *2402:B *545:38 0
33 *2402:B *545:50 0
34 *2402:B *548:37 0
35 *2402:B *551:29 0
36 *2417:A1 *2416:A2 2.07382e-05
37 *2417:A1 *2417:A2 2.28499e-05
38 *492:10 *1963:B 0
39 *492:10 *2191:A_N 0
40 *492:10 *530:25 0
41 *492:23 *565:67 0.000225193
42 *492:33 *535:72 0.000206091
43 *492:33 *553:14 2.30445e-05
44 *492:33 *553:24 0.000141498
45 *492:39 *532:25 5.67133e-05
46 *492:39 *532:29 9.11365e-06
47 *492:39 *535:72 0.000590872
48 *492:43 *532:29 0.000169077
49 *492:43 *535:72 0.000223592
50 *492:54 *532:29 0
51 *492:54 *534:96 0.00014285
52 *492:54 *545:36 0.000140933
53 *492:54 *545:38 0
54 *492:93 *2416:A2 1.58163e-05
55 *492:100 *2417:A2 0
56 *1967:A2 *492:43 7.83587e-05
57 *1968:A3 *1968:B1 5.33005e-05
58 *2181:A1 *492:10 1.18064e-05
59 *2182:C *492:10 0
60 *2187:B2 *492:10 8.42913e-05
61 *2195:A3 *492:10 0.000329493
62 *2195:B1 *492:10 9.10431e-06
63 *2338:B *2379:A1 1.58163e-05
64 *2378:B1 *2415:A1 3.8274e-05
65 *2379:C1 *2379:A1 8.6229e-06
66 *2380:C1 *492:33 0.000111017
67 *2380:C1 *492:39 0.000248486
68 *2385:A *2383:A 6.05161e-06
69 *2386:A *2383:A 8.64753e-05
70 *2396:D *2402:B 0.000197991
71 *2398:A_N *2402:B 9.24299e-05
72 *2399:B *2402:B 8.15843e-05
73 *2415:B1 *492:23 8.85559e-05
74 *2415:B1 *492:33 1.01075e-05
75 *2416:B1 *2379:A1 1.33343e-05
76 *2416:B1 *492:100 0
77 *2416:B2 *2379:A1 0.000118573
78 *2417:A3 *2415:A1 5.33005e-05
79 *2417:A3 *2417:A1 5.33005e-05
80 *2417:A3 *492:33 0.000100616
81 *2418:B1 *2379:A1 0
82 *2418:B1 *492:33 2.31845e-05
83 *2418:C1 *2417:A1 0.000180777
84 *183:10 *492:10 0.000274537
85 *192:10 *492:10 5.41797e-05
86 *197:68 *492:10 0
87 *197:68 *492:23 0.000143019
88 *197:68 *492:33 8.6229e-06
89 *199:43 *2379:A1 2.59355e-05
90 *205:24 *492:10 2.84494e-05
91 *205:24 *492:23 1.78353e-05
92 *205:39 *2415:A1 5.49489e-05
93 *230:32 *492:10 0
94 *410:8 *2402:B 0
95 *412:12 *2402:B 7.24945e-05
*RES
1 *2465:X *492:10 34.8179 
2 *492:10 *2178:C 12.3 
3 *492:10 *492:23 8.625 
4 *492:23 *492:33 6.91071 
5 *492:33 *492:39 8.375 
6 *492:39 *492:43 11.6071 
7 *492:43 *1958:A 9.3 
8 *492:43 *492:54 8.41071 
9 *492:54 *2402:B 39.4607 
10 *492:54 *1968:B1 23.0143 
11 *492:39 *2383:A 15.5679 
12 *492:33 *492:93 5.03571 
13 *492:93 *2416:A1 9.3 
14 *492:93 *492:100 0.428571 
15 *492:100 *2417:A1 11.4786 
16 *492:100 *2379:A1 22.675 
17 *492:23 *2415:A1 15.5679 
*END

*D_NET *493 0.0216684
*CONN
*I *2222:A1 I *D sky130_fd_sc_hd__a21o_1
*I *2224:A I *D sky130_fd_sc_hd__and3_1
*I *2423:A I *D sky130_fd_sc_hd__clkbuf_1
*I *2458:A I *D sky130_fd_sc_hd__buf_8
*I *2358:A1 I *D sky130_fd_sc_hd__a22oi_1
*I *2466:X O *D sky130_fd_sc_hd__buf_6
*CAP
1 *2222:A1 0.000248564
2 *2224:A 0
3 *2423:A 0.000154985
4 *2458:A 0.000124117
5 *2358:A1 0.000150941
6 *2466:X 0.00134243
7 *493:83 0.00176508
8 *493:50 0.00267226
9 *493:48 0.00157241
10 *493:31 0.000857546
11 *493:14 0.00165515
12 *2222:A1 *2197:B 1.40415e-05
13 *2358:A1 *2358:A2 9.25014e-06
14 *2358:A1 *548:37 0.000142953
15 *2358:A1 *548:47 1.02504e-05
16 *2358:A1 *554:10 0.00018077
17 *2423:A *2233:A1 0.000134773
18 *2423:A *2377:A1 2.1842e-05
19 *2458:A *518:57 0.000312215
20 *493:14 *2428:A 2.89114e-05
21 *493:14 *518:10 0.000271352
22 *493:14 *554:6 5.52302e-05
23 *493:14 *554:10 4.18895e-05
24 *493:31 *518:49 0
25 *493:31 *548:37 0.000242008
26 *493:48 *2248:A 0.000222163
27 *493:48 *520:56 9.30022e-05
28 *493:48 *523:40 0.000617541
29 *493:48 *524:31 0.000434806
30 *493:48 *540:52 0.0001942
31 *493:48 *545:50 6.32894e-05
32 *493:48 *548:14 1.50181e-05
33 *493:48 *548:37 0.000126485
34 *493:48 *555:31 5.52238e-05
35 *493:50 *2233:A1 0.00129484
36 *493:50 *523:115 0
37 *493:50 *537:30 8.55901e-05
38 *493:50 *537:36 0.000812998
39 *493:50 *549:18 7.80714e-06
40 *493:50 *555:31 0.000985057
41 *493:83 *2225:A2_N 5.07633e-05
42 *493:83 *523:115 0
43 *493:83 *528:23 0.00018344
44 *493:83 *545:134 0
45 *493:83 *555:41 0.000128055
46 *493:83 *565:67 0.000354098
47 *2224:C *2222:A1 8.35502e-05
48 *2233:B2 *2423:A 1.98839e-05
49 *2246:A *2222:A1 5.76121e-05
50 *2254:B *493:83 4.57198e-05
51 *2257:B *493:83 0.000243627
52 *2277:A2 *493:48 0.000173076
53 *2283:A1 *493:83 9.90367e-05
54 *2283:B1 *493:83 0.000610064
55 *2306:B *493:14 0.000219711
56 *2306:C *493:14 0
57 *2336:A2 *493:83 4.16984e-05
58 *2363:B *493:14 1.56e-05
59 *2402:B *493:48 0
60 *2405:A *2358:A1 0.000100831
61 *2406:A *493:31 2.8266e-06
62 *2406:A *493:48 0.000117997
63 *2406:B *2358:A1 1.40306e-05
64 *2406:B *493:14 1.00073e-05
65 *2406:B *493:31 0.00017379
66 *2461:A *493:14 0.000238804
67 *38:20 *493:48 0.000274259
68 *188:26 *2423:A 1.39841e-05
69 *190:28 *493:50 0
70 *190:28 *493:83 0
71 *190:67 *493:83 0.000272371
72 *257:12 *493:50 0.000150625
73 *261:12 *493:83 4.98872e-05
74 *286:10 *493:48 0
75 *292:10 *493:83 5.42755e-05
76 *490:12 *493:14 0.00085182
77 *490:53 *493:50 0
*RES
1 *2466:X *493:14 37.1214 
2 *493:14 *2358:A1 22.3179 
3 *493:14 *493:31 10.0893 
4 *493:31 *2458:A 16.8 
5 *493:31 *493:48 27.9286 
6 *493:48 *493:50 29.875 
7 *493:50 *2423:A 16.3 
8 *493:50 *493:83 44.7321 
9 *493:83 *2224:A 9.3 
10 *493:83 *2222:A1 13.5321 
*END

*D_NET *494 0.00417241
*CONN
*I *2456:A I *D sky130_fd_sc_hd__clkbuf_4
*I *2467:X O *D sky130_fd_sc_hd__clkbuf_1
*CAP
1 *2456:A 0
2 *2467:X 0.00142797
3 *494:12 0.00142797
4 *494:12 *529:22 0.000442326
5 *494:12 *533:16 0.000297559
6 *2368:A1 *494:12 0.000142856
7 *2369:A *494:12 0.00024425
8 *2412:A *494:12 0
9 *384:10 *494:12 1.32552e-05
10 *385:21 *494:12 0.000176234
*RES
1 *2467:X *494:12 44.7821 
2 *494:12 *2456:A 9.3 
*END

*D_NET *495 0.00726095
*CONN
*I *2453:A I *D sky130_fd_sc_hd__clkbuf_2
*I *2468:X O *D sky130_fd_sc_hd__clkbuf_1
*CAP
1 *2453:A 0
2 *2468:X 0.00213199
3 *495:10 0.00213199
4 *495:10 *2451:A 0.000248996
5 *495:10 *531:22 0.000472156
6 *495:10 *539:40 0.000349854
7 *495:10 *539:72 0.0014634
8 *495:10 *567:56 0.000118697
9 *2088:B *495:10 0.000132337
10 *2151:A *495:10 8.58088e-05
11 *2152:B *495:10 0.000125724
*RES
1 *2468:X *495:10 47.3 
2 *495:10 *2453:A 13.8 
*END

*D_NET *496 0.00602507
*CONN
*I *2450:A I *D sky130_fd_sc_hd__clkbuf_4
*I *2469:X O *D sky130_fd_sc_hd__clkbuf_1
*CAP
1 *2450:A 0
2 *2469:X 0.00203497
3 *496:18 0.00203497
4 *496:18 *2124:B1 2.16719e-05
5 *496:18 *531:22 0
6 *496:18 *543:10 7.83659e-05
7 *496:18 *543:90 0.000258074
8 *2089:A0 *496:18 0.000235232
9 *2089:A1 *496:18 0.000140933
10 *2089:S *496:18 7.48091e-05
11 *2151:B *496:18 3.69697e-05
12 *2482:A *496:18 0.000218246
13 *92:12 *496:18 0.000119125
14 *92:26 *496:18 0.000463568
15 *100:25 *496:18 0.000135064
16 *130:10 *496:18 0.000173083
17 *471:94 *496:18 0
*RES
1 *2469:X *496:18 46.0321 
2 *496:18 *2450:A 13.8 
*END

*D_NET *497 0.0257404
*CONN
*I *2420:A I *D sky130_fd_sc_hd__clkbuf_1
*I *2351:B1 I *D sky130_fd_sc_hd__a22oi_1
*I *2352:D I *D sky130_fd_sc_hd__and4_1
*I *2394:B1 I *D sky130_fd_sc_hd__a22o_1
*I *2446:A I *D sky130_fd_sc_hd__buf_8
*I *2447:A I *D sky130_fd_sc_hd__buf_2
*I *2470:X O *D sky130_fd_sc_hd__buf_8
*CAP
1 *2420:A 6.17109e-06
2 *2351:B1 8.09948e-05
3 *2352:D 2.23854e-05
4 *2394:B1 0
5 *2446:A 0
6 *2447:A 0
7 *2470:X 0.000557775
8 *497:89 0.00113033
9 *497:62 0.00242791
10 *497:54 0.00213906
11 *497:37 0.00178499
12 *497:33 0.00282086
13 *497:12 0.00232558
14 *2351:B1 *2351:A1 0.000163213
15 *2351:B1 *2351:A2 0.000164007
16 *2351:B1 *2352:C 9.60875e-05
17 *2351:B1 *520:35 0.000178847
18 *2351:B1 *523:122 1.5424e-05
19 *2352:D *2351:A2 0
20 *2420:A *546:44 5.58875e-06
21 *2420:A *565:10 2.11419e-05
22 *497:12 *2444:A 1.5942e-05
23 *497:12 *510:14 0
24 *497:12 *534:140 0
25 *497:12 *539:8 3.92854e-05
26 *497:12 *539:26 0.000446487
27 *497:33 *2130:C 0.000431818
28 *497:33 *2441:A 0.000179039
29 *497:33 *510:14 9.71197e-05
30 *497:33 *510:27 0.000777003
31 *497:33 *568:8 0
32 *497:33 *568:51 0
33 *497:37 *2165:A1 5.39629e-06
34 *497:37 *510:45 0.000326708
35 *497:37 *526:75 3.82357e-05
36 *497:37 *526:81 2.89967e-05
37 *497:37 *529:70 0.000297565
38 *497:37 *529:78 0.000354105
39 *497:54 *2441:A 0.00121229
40 *497:54 *2445:A 0.000325001
41 *497:54 *529:70 0.000268409
42 *497:54 *542:139 1.90936e-05
43 *497:62 *1968:A1 5.74562e-05
44 *497:62 *1985:A 0.000206884
45 *497:62 *2445:A 7.78952e-05
46 *497:62 *2452:A 0.000375687
47 *497:62 *520:56 2.95641e-05
48 *497:62 *520:62 9.7659e-05
49 *497:62 *520:106 0.000102982
50 *497:62 *546:44 0.000297493
51 *497:62 *550:62 1.50087e-05
52 *497:62 *552:86 9.9974e-05
53 *497:62 *565:10 4.38265e-05
54 *497:89 *2276:C 6.04072e-05
55 *497:89 *2394:A1 0.00069931
56 *497:89 *2432:A 0.000246057
57 *497:89 *520:35 0.000476702
58 *497:89 *520:56 1.60074e-05
59 *497:89 *523:122 0.000245952
60 *497:89 *545:50 7.83366e-05
61 *2118:A *497:12 7.83462e-05
62 *2118:C *497:12 0
63 *2136:B *497:12 0.000538516
64 *2137:A0 *497:33 1.21258e-05
65 *2137:A1 *497:33 5.49489e-05
66 *2167:A1 *497:33 0.000396892
67 *2276:A *497:89 0
68 *2382:B1 *497:62 0.000177234
69 *2396:A *497:89 5.52302e-05
70 *2396:B *497:89 5.52302e-05
71 *143:10 *497:33 0.000425516
72 *336:8 *497:54 2.04825e-05
73 *391:19 *497:62 0.000214977
74 *440:16 *497:62 0.00131707
75 *471:94 *497:33 0.000363768
*RES
1 *2470:X *497:12 32.9607 
2 *497:12 *2447:A 9.3 
3 *497:12 *497:33 46.9464 
4 *497:33 *497:37 14.3036 
5 *497:37 *2446:A 9.3 
6 *497:37 *497:54 16.1068 
7 *497:54 *497:62 39.7946 
8 *497:62 *2394:B1 9.3 
9 *497:62 *497:89 29.6786 
10 *497:89 *2352:D 9.72857 
11 *497:89 *2351:B1 12.7286 
12 *497:54 *2420:A 14.0768 
*END

*D_NET *498 0.0141822
*CONN
*I *2445:A I *D sky130_fd_sc_hd__buf_2
*I *2421:A I *D sky130_fd_sc_hd__clkbuf_1
*I *2444:A I *D sky130_fd_sc_hd__buf_6
*I *2471:X O *D sky130_fd_sc_hd__clkbuf_2
*CAP
1 *2445:A 0.00304553
2 *2421:A 0.000179131
3 *2444:A 0.000127366
4 *2471:X 0.000543534
5 *498:25 0.00431345
6 *498:10 0.00175969
7 *2421:A *567:8 3.07555e-05
8 *2421:A *567:72 0.000155304
9 *2445:A *2441:A 0.000459864
10 *2445:A *520:106 0.0004091
11 *2445:A *565:10 0.000254795
12 *498:10 *2113:A 1.00073e-05
13 *498:25 *2105:B 2.28598e-05
14 *498:25 *2117:A 9.52911e-05
15 *498:25 *2501:A 0.000184745
16 *2105:A *498:25 0.000139632
17 *2113:B *498:10 4.70078e-05
18 *2118:A *2444:A 0.000177234
19 *2118:C *2444:A 9.24395e-05
20 *2118:C *498:10 0.000274754
21 *2120:D_N *2444:A 0.000104974
22 *2128:A1 *498:25 0.000119279
23 *2128:A2 *2444:A 0
24 *2128:A2 *498:25 7.27266e-05
25 *2128:B1_N *498:25 9.41642e-05
26 *2136:B *2444:A 6.75007e-05
27 *2136:B *498:10 0.000207034
28 *2148:A2 *2445:A 0
29 *2153:A2 *2421:A 0.000177234
30 *2156:B1 *2421:A 3.41715e-05
31 *2165:B1 *2445:A 0.000226993
32 *119:8 *498:10 7.32272e-05
33 *130:29 *498:25 0.00026353
34 *497:12 *2444:A 1.5942e-05
35 *497:54 *2445:A 0.000325001
36 *497:62 *2445:A 7.78952e-05
*RES
1 *2471:X *498:10 25.4786 
2 *498:10 *2444:A 18.175 
3 *498:10 *498:25 26.7857 
4 *498:25 *2421:A 18.3268 
5 *498:25 *2445:A 33.167 
*END

*D_NET *499 0.0122213
*CONN
*I *2442:A I *D sky130_fd_sc_hd__buf_4
*I *2443:A I *D sky130_fd_sc_hd__clkbuf_2
*I *2472:X O *D sky130_fd_sc_hd__buf_1
*CAP
1 *2442:A 0
2 *2443:A 0.00471438
3 *2472:X 0.000713383
4 *499:10 0.00542777
5 *2443:A *534:24 0
6 *2443:A *536:8 0
7 *2443:A *538:14 9.60337e-06
8 *2443:A *539:26 0
9 *2443:A *542:41 0
10 *2443:A *549:51 0.00071627
11 *2443:A *567:56 0
12 *499:10 *534:140 0.000255896
13 *499:10 *539:26 0
14 *2108:B *2443:A 0.000236165
15 *2108:B *499:10 1.08359e-05
16 *2121:A2 *2443:A 0
17 *2122:B1 *2443:A 4.48113e-05
18 *2123:B1 *2443:A 0
19 *2147:B2 *2443:A 7.30841e-05
20 *2148:A2 *2443:A 0
21 *2474:A *499:10 0
22 *353:16 *2443:A 1.90936e-05
*RES
1 *2472:X *499:10 26.0321 
2 *499:10 *2443:A 37.1237 
3 *499:10 *2442:A 13.8 
*END

*D_NET *500 0.00453227
*CONN
*I *2200:D I *D sky130_fd_sc_hd__and4bb_2
*I *2193:A_N I *D sky130_fd_sc_hd__and4bb_2
*I *2183:B I *D sky130_fd_sc_hd__nand2_1
*I *2182:B I *D sky130_fd_sc_hd__and4b_2
*I *2185:D_N I *D sky130_fd_sc_hd__or4b_4
*I *1963:B I *D sky130_fd_sc_hd__nor2_1
*I *2191:A_N I *D sky130_fd_sc_hd__and4b_2
*I *2473:X O *D sky130_fd_sc_hd__buf_1
*CAP
1 *2200:D 5.83779e-05
2 *2193:A_N 0
3 *2183:B 0.000128315
4 *2182:B 2.06112e-05
5 *2185:D_N 0
6 *1963:B 0.000134786
7 *2191:A_N 8.0131e-05
8 *2473:X 0
9 *500:63 9.28518e-05
10 *500:46 0.000264502
11 *500:12 0.000226523
12 *500:8 4.11959e-05
13 *500:6 0.000112549
14 *500:4 0.000164062
15 *1963:B *2485:A 5.52238e-05
16 *2183:B *511:10 0
17 *2183:B *522:8 5.01213e-05
18 *2200:D *2193:C 9.71197e-05
19 *2200:D *2200:B_N 2.91829e-05
20 *500:46 *2193:C 9.31893e-05
21 *500:63 *2193:C 1.54142e-05
22 *1963:A *1963:B 0
23 *2182:C *2191:A_N 9.4724e-05
24 *2465:A *1963:B 5.52238e-05
25 *2473:A *2183:B 0
26 *189:12 *2183:B 9.91086e-05
27 *199:18 *2200:D 2.64263e-05
28 *211:12 *2200:D 8.99348e-05
29 *211:12 *500:6 0.000493359
30 *211:12 *500:8 0.000186662
31 *211:12 *500:12 5.52302e-05
32 *211:12 *500:46 0.000478626
33 *211:12 *500:63 5.33005e-05
34 *230:32 *2191:A_N 1.02504e-05
35 *315:8 *1963:B 9.22948e-05
36 *315:8 *2191:A_N 0.000199706
37 *489:6 *2183:B 5.52302e-05
38 *489:12 *2183:B 0
39 *489:35 *2182:B 0
40 *489:35 *500:6 0.000408744
41 *489:35 *500:8 7.03295e-05
42 *489:35 *500:46 0.000295925
43 *489:44 *2182:B 3.99614e-06
44 *489:44 *500:8 4.38128e-05
45 *489:44 *500:12 5.52302e-05
46 *492:10 *1963:B 0
47 *492:10 *2191:A_N 0
*RES
1 *2473:X *500:4 9.3 
2 *500:4 *500:6 4.64286 
3 *500:6 *500:8 1.76786 
4 *500:8 *500:12 5.03571 
5 *500:12 *2191:A_N 16.3536 
6 *500:12 *1963:B 16.5857 
7 *500:8 *2185:D_N 9.3 
8 *500:6 *2182:B 9.72857 
9 *500:4 *500:46 4.64286 
10 *500:46 *2183:B 21.0857 
11 *500:46 *500:63 0.964286 
12 *500:63 *2193:A_N 9.3 
13 *500:63 *2200:D 11.7464 
*END

*D_NET *501 0.0151204
*CONN
*I *2441:A I *D sky130_fd_sc_hd__clkbuf_2
*I *2422:A I *D sky130_fd_sc_hd__clkbuf_1
*I *2440:A I *D sky130_fd_sc_hd__buf_6
*I *2474:X O *D sky130_fd_sc_hd__clkbuf_1
*CAP
1 *2441:A 0.00266722
2 *2422:A 0
3 *2440:A 0.000298948
4 *2474:X 0.00187952
5 *501:18 0.000314599
6 *501:14 0.00456239
7 *2440:A *2124:B1 5.10822e-05
8 *2440:A *567:72 0.000405038
9 *2440:A *568:8 0.000161693
10 *2441:A *2130:C 0.000129601
11 *2441:A *537:26 0.000119041
12 *2441:A *552:26 4.15526e-05
13 *501:14 *542:41 0
14 *501:18 *567:72 4.50033e-05
15 *501:18 *568:8 1.60795e-05
16 *2116:A *501:14 2.36643e-05
17 *2116:B *501:14 5.65955e-05
18 *2165:B1 *2441:A 0.000847528
19 *2293:C1 *2441:A 0.00134601
20 *2425:A *2440:A 0.0001399
21 *2445:A *2441:A 0.000459864
22 *121:51 *501:14 7.69776e-06
23 *122:8 *501:14 1.28171e-05
24 *123:14 *501:14 5.80858e-06
25 *126:29 *2440:A 0.000137427
26 *497:33 *2441:A 0.000179039
27 *497:54 *2441:A 0.00121229
*RES
1 *2474:X *501:14 34.6352 
2 *501:14 *501:18 3.99036 
3 *501:18 *2440:A 22.1036 
4 *501:18 *2422:A 13.8 
5 *501:14 *2441:A 25.4764 
*END

*D_NET *502 0.00267862
*CONN
*I *2485:A I *D sky130_fd_sc_hd__buf_8
*I *2196:X O *D sky130_fd_sc_hd__or3_4
*CAP
1 *2485:A 0.000586905
2 *2196:X 0.000586905
3 *2485:A *1955:A 9.24491e-05
4 *2485:A *2240:A 1.19309e-05
5 *2485:A *2490:A 0.000323526
6 *2485:A *530:45 0
7 *2485:A *551:49 3.15517e-05
8 op_out[5] *2485:A 5.33433e-05
9 *1963:A *2485:A 9.90431e-05
10 *1963:B *2485:A 5.52238e-05
11 *2191:D *2485:A 0
12 *2465:A *2485:A 9.61554e-05
13 *491:18 *2485:A 0.000741584
*RES
1 *2196:X *2485:A 44.3857 
*END

*D_NET *503 0.000232521
*CONN
*I *2486:A I *D sky130_fd_sc_hd__buf_8
*I *2214:X O *D sky130_fd_sc_hd__or2_4
*CAP
1 *2486:A 0.000111415
2 *2214:X 0.000111415
3 *2486:A *2487:A 0
4 *2486:A *2489:A 0
5 op_out[1] *2486:A 9.69119e-06
*RES
1 *2214:X *2486:A 29.5464 
*END

*D_NET *504 0.000492304
*CONN
*I *2487:A I *D sky130_fd_sc_hd__buf_6
*I *2237:X O *D sky130_fd_sc_hd__a21o_1
*CAP
1 *2487:A 0.000212571
2 *2237:X 0.000212571
3 op_out[1] *2487:A 6.71612e-05
4 *2486:A *2487:A 0
*RES
1 *2237:X *2487:A 31.3143 
*END

*D_NET *505 0.0003574
*CONN
*I *2488:A I *D sky130_fd_sc_hd__buf_2
*I *2266:Y O *D sky130_fd_sc_hd__nand2b_1
*CAP
1 *2488:A 0.000128213
2 *2266:Y 0.000128213
3 *2488:A *2489:A 0.000100975
*RES
1 *2266:Y *2488:A 30.0821 
*END

*D_NET *506 0.00306418
*CONN
*I *2489:A I *D sky130_fd_sc_hd__buf_4
*I *2294:Y O *D sky130_fd_sc_hd__o31ai_1
*CAP
1 *2489:A 0.000986603
2 *2294:Y 0.000986603
3 *2489:A *2239:A 2.04825e-05
4 *2489:A *542:139 0
5 op_out[3] *2489:A 2.27416e-05
6 *2239:B *2489:A 2.26424e-05
7 *2241:B *2489:A 0.000127446
8 *2245:B *2489:A 7.06079e-05
9 *2266:A_N *2489:A 0
10 *2266:B *2489:A 0.000129868
11 *2270:B *2489:A 0.00010096
12 *2270:C *2489:A 9.90431e-05
13 *2486:A *2489:A 0
14 *2488:A *2489:A 0.000100975
15 *191:28 *2489:A 0.000238769
16 *192:37 *2489:A 0.000148189
17 *192:74 *2489:A 9.25014e-06
18 *247:12 *2489:A 0
19 *250:10 *2489:A 0
*RES
1 *2294:Y *2489:A 48.0107 
*END

*D_NET *507 0.00345055
*CONN
*I *2490:A I *D sky130_fd_sc_hd__buf_4
*I *2338:X O *D sky130_fd_sc_hd__or3_1
*CAP
1 *2490:A 0.000932423
2 *2338:X 0.000932423
3 *2490:A *2234:A1 0
4 *2490:A *2238:A3 0
5 *2490:A *2240:A 0
6 *2490:A *2263:B2 7.79781e-06
7 *2490:A *2291:B2 4.16021e-05
8 *2490:A *520:114 0.000194833
9 *2490:A *521:49 2.78822e-05
10 *2490:A *524:97 0
11 *2490:A *526:73 0.000190827
12 *2490:A *529:70 0.000511578
13 *2490:A *541:12 0.000172484
14 *2490:A *546:69 3.27095e-05
15 *1963:A *2490:A 0
16 *2464:A *2490:A 0
17 *2485:A *2490:A 0.000323526
18 *191:14 *2490:A 5.35516e-05
19 *491:18 *2490:A 2.89114e-05
*RES
1 *2338:X *2490:A 49.5107 
*END

*D_NET *508 0.000870032
*CONN
*I *2491:A I *D sky130_fd_sc_hd__buf_6
*I *2381:X O *D sky130_fd_sc_hd__a31o_1
*CAP
1 *2491:A 0.000178767
2 *2381:X 0.000178767
3 *2491:A *2492:A 7.6644e-05
4 *2491:A *545:134 9.55563e-05
5 op_out[6] *2491:A 0
6 *2373:B *2491:A 0.000170654
7 *2381:A3 *2491:A 4.39196e-05
8 *388:12 *2491:A 0.000125724
*RES
1 *2381:X *2491:A 32.2071 
*END

*D_NET *509 0.000815357
*CONN
*I *2492:A I *D sky130_fd_sc_hd__buf_6
*I *2419:X O *D sky130_fd_sc_hd__a311o_1
*CAP
1 *2492:A 0.000264156
2 *2419:X 0.000264156
3 *2373:A *2492:A 2.42516e-05
4 *2375:B *2492:A 0
5 *2381:A3 *2492:A 6.19181e-05
6 *2388:B1 *2492:A 6.05161e-06
7 *2491:A *2492:A 7.6644e-05
8 *388:12 *2492:A 0.000118179
*RES
1 *2419:X *2492:A 32.6179 
*END

*D_NET *510 0.0117011
*CONN
*I *2129:A1 I *D sky130_fd_sc_hd__a31o_1
*I *2125:B I *D sky130_fd_sc_hd__nor2_1
*I *2141:S I *D sky130_fd_sc_hd__mux2_1
*I *2161:S I *D sky130_fd_sc_hd__mux2_4
*I *2137:S I *D sky130_fd_sc_hd__mux2_1
*I *2425:X O *D sky130_fd_sc_hd__buf_6
*CAP
1 *2129:A1 2.37855e-05
2 *2125:B 0.000184153
3 *2141:S 0
4 *2161:S 0
5 *2137:S 0
6 *2425:X 0
7 *510:67 0.000704111
8 *510:45 0.00195029
9 *510:27 0.00248536
10 *510:14 0.00110134
11 *510:4 0.00106244
12 *510:45 *2143:A 2.65105e-05
13 *510:45 *516:42 4.80553e-05
14 *510:45 *524:74 2.87041e-05
15 *510:45 *526:81 6.9276e-05
16 *510:45 *539:140 4.05247e-05
17 *2107:A1 *2125:B 4.73656e-05
18 *2107:B1 *2125:B 2.12687e-05
19 *2118:C *510:14 0
20 *2118:D *510:14 0.000135028
21 *2118:D *510:67 0.000224341
22 *2120:C_N *510:67 9.83442e-05
23 *2120:D_N *2125:B 1.74352e-05
24 *2120:D_N *510:67 4.36516e-05
25 *2128:A1 *510:67 6.80532e-05
26 *2128:A2 *510:14 0.000218019
27 *2128:B1_N *510:67 0
28 *2129:A2 *2125:B 5.05707e-05
29 *2129:A3 *510:67 4.43256e-05
30 *2129:B1 *2125:B 0.00034359
31 *2140:A *510:27 1.17968e-05
32 *2140:A *510:45 3.07555e-05
33 *2141:A0 *510:45 8.6638e-05
34 *2143:B *510:45 5.23057e-05
35 *2158:A_N *510:45 8.25843e-06
36 *2165:A2 *510:45 7.77652e-05
37 *2167:B1 *510:45 0.000313241
38 *2168:B2 *510:45 3.06476e-05
39 *67:48 *2125:B 0.000126963
40 *117:51 *510:27 0
41 *135:14 *510:14 0.000300275
42 *136:14 *510:27 8.32497e-05
43 *136:14 *510:45 1.88048e-05
44 *147:8 *510:45 0.000252788
45 *167:17 *510:45 7.02611e-05
46 *497:12 *510:14 0
47 *497:33 *510:14 9.71197e-05
48 *497:33 *510:27 0.000777003
49 *497:37 *510:45 0.000326708
*RES
1 *2425:X *510:4 9.3 
2 *510:4 *510:14 21.4464 
3 *510:14 *2137:S 9.3 
4 *510:14 *510:27 15.6071 
5 *510:27 *510:45 41.7321 
6 *510:45 *2161:S 9.3 
7 *510:27 *2141:S 13.8 
8 *510:4 *510:67 17.8571 
9 *510:67 *2125:B 23.6214 
10 *510:67 *2129:A1 9.72857 
*END

*D_NET *511 0.00929149
*CONN
*I *2186:A I *D sky130_fd_sc_hd__or4b_4
*I *2185:B I *D sky130_fd_sc_hd__or4b_4
*I *1955:A I *D sky130_fd_sc_hd__inv_2
*I *1964:C I *D sky130_fd_sc_hd__and3b_2
*I *2184:B I *D sky130_fd_sc_hd__or3b_4
*I *2190:A I *D sky130_fd_sc_hd__nor3_1
*I *2200:C I *D sky130_fd_sc_hd__and4bb_2
*I *2193:C I *D sky130_fd_sc_hd__and4bb_2
*I *2475:X O *D sky130_fd_sc_hd__clkbuf_2
*CAP
1 *2186:A 0
2 *2185:B 0
3 *1955:A 0.000195547
4 *1964:C 0.000189319
5 *2184:B 1.99857e-05
6 *2190:A 4.38861e-05
7 *2200:C 0
8 *2193:C 0.0002438
9 *2475:X 0.000342917
10 *511:97 0.000405258
11 *511:87 0.000337137
12 *511:68 0.000681371
13 *511:53 0.00050736
14 *511:38 0.00031615
15 *511:27 0.000149515
16 *511:10 0.000586717
17 *1955:A *530:45 0
18 *1964:C *1964:A_N 0.000188743
19 *2190:A *523:115 8.673e-05
20 *2193:C *2200:B_N 0.000227539
21 *511:10 *2197:A 0
22 *511:53 *2184:C_N 1.02821e-05
23 *511:53 *523:115 5.33005e-05
24 *511:68 *2439:A 9.90367e-05
25 *511:87 *2186:B 0.000338871
26 *511:87 *530:8 8.27532e-05
27 *511:97 *2185:C 5.58941e-05
28 *511:97 *530:33 5.33005e-05
29 *511:97 *530:35 7.83659e-05
30 *511:97 *530:45 8.07951e-05
31 *2183:B *511:10 0
32 *2189:A *511:87 3.66478e-05
33 *2189:A *511:97 0.000122101
34 *2190:C *2184:B 1.04232e-05
35 *2190:C *511:53 0.000271352
36 *2191:D *1955:A 8.15939e-05
37 *2193:D *2193:C 6.05161e-06
38 *2195:A3 *511:87 0.000347444
39 *2195:A3 *511:97 9.60939e-05
40 *2195:B1 *1964:C 0.000399848
41 *2200:A_N *511:10 0.000173328
42 *2200:D *2193:C 9.71197e-05
43 *2475:A *511:10 2.27416e-05
44 *2485:A *1955:A 9.24491e-05
45 *188:10 *1964:C 0.000195853
46 *188:10 *511:68 9.40095e-05
47 *189:12 *2193:C 9.87983e-06
48 *189:18 *2184:B 0
49 *189:18 *511:53 2.28499e-05
50 *189:18 *511:68 0.000168661
51 *190:6 *511:53 0.000227532
52 *190:10 *2190:A 5.41794e-05
53 *190:10 *511:38 3.17148e-05
54 *196:8 *2190:A 2.89016e-05
55 *197:60 *511:97 4.43256e-05
56 *197:102 *1964:C 6.95486e-05
57 *199:18 *511:38 0.00014285
58 *205:14 *2193:C 2.65207e-05
59 *205:14 *511:38 6.2589e-06
60 *211:12 *1955:A 2.95726e-05
61 *211:12 *511:38 5.06983e-05
62 *230:6 *1955:A 5.33433e-05
63 *230:19 *511:97 0.000139907
64 *315:8 *511:97 0.000198698
65 *489:6 *511:10 9.90431e-05
66 *489:35 *2193:C 5.52302e-05
67 *489:44 *1955:A 7.66879e-05
68 *489:44 *511:97 7.41811e-05
69 *491:18 *1964:C 9.95957e-05
70 *491:18 *511:68 5.10822e-05
71 *500:46 *2193:C 9.31893e-05
72 *500:63 *2193:C 1.54142e-05
*RES
1 *2475:X *511:10 19.8714 
2 *511:10 *2193:C 19.1214 
3 *511:10 *511:27 4.5 
4 *511:27 *2200:C 9.3 
5 *511:27 *511:38 7.80357 
6 *511:38 *2190:A 15.0679 
7 *511:38 *511:53 8.32143 
8 *511:53 *2184:B 9.72857 
9 *511:53 *511:68 10.5 
10 *511:68 *1964:C 20.6259 
11 *511:68 *511:87 9.69643 
12 *511:87 *511:97 15.7054 
13 *511:97 *1955:A 23.0589 
14 *511:97 *2185:B 9.3 
15 *511:87 *2186:A 9.3 
*END

*D_NET *512 0.00917224
*CONN
*I *2091:S I *D sky130_fd_sc_hd__mux2_1
*I *2497:A I *D sky130_fd_sc_hd__dlygate4sd1_1
*I *2097:S I *D sky130_fd_sc_hd__mux2_4
*I *2130:B I *D sky130_fd_sc_hd__or3_1
*I *2115:S I *D sky130_fd_sc_hd__mux2_4
*I *2482:X O *D sky130_fd_sc_hd__buf_6
*CAP
1 *2091:S 7.53101e-05
2 *2497:A 0.000123558
3 *2097:S 0
4 *2130:B 0.00077173
5 *2115:S 0.000135097
6 *2482:X 0
7 *512:40 0.000340152
8 *512:36 0.00103652
9 *512:8 0.00104775
10 *512:4 0.000885531
11 *2091:S *1965:B 0.000258011
12 *2115:S *539:72 5.71472e-05
13 *2130:B *531:14 0.000127439
14 *2497:A *516:48 8.84186e-05
15 *512:36 *1965:B 0.000537171
16 *512:40 *516:48 0.000116512
17 *2091:A0 *2091:S 2.14658e-05
18 *2091:A1 *2091:S 0.000186669
19 *2091:A1 *512:40 3.34366e-05
20 *2105:A *2130:B 3.75052e-05
21 *2111:A0 *512:8 0.000269422
22 *2111:A1 *2115:S 7.49332e-05
23 *2111:A1 *2130:B 1.69115e-05
24 *2115:A0 *2115:S 0
25 *2115:A1 *2115:S 2.8266e-06
26 *2123:A2 *2130:B 0.000121446
27 *2124:A1 *2130:B 0.000148196
28 *2130:A *2130:B 0.000397016
29 *2140:A *2130:B 0.000100247
30 *2150:C1 *2497:A 0.000137983
31 *2151:B *2115:S 0
32 *2151:B *2130:B 0
33 *2152:B *512:36 9.41642e-05
34 *2482:A *512:8 0.000315165
35 *97:12 *2091:S 3.69047e-06
36 *97:12 *512:36 0.000609963
37 *97:36 *2091:S 5.74499e-06
38 *97:36 *2497:A 0.000175036
39 *97:36 *512:40 0.000342857
40 *100:25 *2130:B 0
41 *100:38 *2130:B 0.00038045
42 *110:33 *2130:B 1.01417e-05
43 *121:8 *2130:B 0
44 *121:38 *2130:B 1.50164e-05
45 *136:14 *2130:B 1.035e-05
46 *471:94 *2130:B 6.12603e-05
47 *475:98 *512:40 0
*RES
1 *2482:X *512:4 9.3 
2 *512:4 *512:8 8.73214 
3 *512:8 *2115:S 16.8893 
4 *512:8 *2130:B 33.3179 
5 *512:4 *512:36 16.9821 
6 *512:36 *512:40 10.0893 
7 *512:40 *2097:S 13.8 
8 *512:40 *2497:A 17.4071 
9 *512:36 *2091:S 12.3179 
*END

*D_NET *513 0.00300244
*CONN
*I *2046:A2 I *D sky130_fd_sc_hd__a21o_1
*I *2057:A2 I *D sky130_fd_sc_hd__a21oi_1
*I *2075:A2 I *D sky130_fd_sc_hd__a21o_1
*I *2067:A1 I *D sky130_fd_sc_hd__a21o_1
*I *2483:X O *D sky130_fd_sc_hd__buf_1
*CAP
1 *2046:A2 0.000102859
2 *2057:A2 2.88412e-05
3 *2075:A2 0
4 *2067:A1 0.000183705
5 *2483:X 0.000203129
6 *513:27 2.88412e-05
7 *513:12 0.000286254
8 *513:10 0.000408537
9 *2046:A2 *2046:A1 0.000134549
10 *2057:A2 *2057:A1 0.000142856
11 *513:10 *2061:A1 0.00010047
12 *513:10 *559:10 4.56437e-05
13 *513:12 *2057:A1 0.00010326
14 *513:12 *559:10 5.83304e-05
15 *2058:A2 *2067:A1 0
16 *2058:A2 *513:12 0
17 *2058:B1 *513:10 4.55995e-05
18 *2058:B1 *513:12 5.26184e-05
19 *2061:A2 *513:10 4.70078e-05
20 *2061:B1 *513:10 0.0001399
21 *2067:B1 *2067:A1 8.24165e-05
22 *2075:A1 *2067:A1 9.36269e-05
23 *2075:B1 *2057:A2 5.41609e-05
24 *2498:A *2046:A2 9.90431e-05
25 *45:42 *2046:A2 0.000356035
26 *45:42 *513:12 0
27 *49:20 *2067:A1 0.000139907
28 *67:16 *513:10 5.71472e-05
29 *283:24 *2067:A1 7.69776e-06
*RES
1 *2483:X *513:10 18.3357 
2 *513:10 *513:12 2.55357 
3 *513:12 *2067:A1 18.1393 
4 *513:12 *513:27 4.5 
5 *513:27 *2075:A2 9.3 
6 *513:27 *2057:A2 10.6571 
7 *513:10 *2046:A2 17.6393 
*END

*D_NET *514 0.00918252
*CONN
*I *2192:A I *D sky130_fd_sc_hd__or2_1
*I *2292:A1 I *D sky130_fd_sc_hd__a311o_1
*I *2419:A1 I *D sky130_fd_sc_hd__a311o_1
*I *2381:A1 I *D sky130_fd_sc_hd__a31o_1
*I *2323:B1 I *D sky130_fd_sc_hd__o21a_1
*I *2235:B2 I *D sky130_fd_sc_hd__a221o_1
*I *2484:X O *D sky130_fd_sc_hd__clkbuf_2
*CAP
1 *2192:A 2.2024e-05
2 *2292:A1 0
3 *2419:A1 0
4 *2381:A1 0.000133094
5 *2323:B1 3.0399e-05
6 *2235:B2 0.000143918
7 *2484:X 0.000209182
8 *514:58 0.000920393
9 *514:43 0.00093838
10 *514:35 0.000599813
11 *514:14 0.000930755
12 *514:10 0.000538912
13 *2192:A *2201:A1 1.81774e-05
14 *2235:B2 *526:43 0.000194677
15 *2381:A1 *545:134 6.21127e-05
16 *514:10 *2197:A 0.000459726
17 *514:10 *525:120 2.24656e-05
18 *514:14 *525:120 0.000120505
19 *514:14 *526:43 3.17148e-05
20 *514:14 *541:41 4.02462e-05
21 *514:35 *2264:A1 0.000104267
22 *514:35 *529:56 7.03071e-05
23 *514:35 *566:22 0.000221137
24 *514:43 *566:22 7.72826e-05
25 *514:58 *545:134 0.000113362
26 *2192:B *514:10 1.09163e-05
27 *2194:B1 *2192:A 5.33005e-05
28 *2199:B1 *514:10 3.10885e-05
29 *2199:B1 *514:14 0.000347919
30 *2206:B *514:10 0
31 *2235:B1 *2235:B2 2.50068e-05
32 *2235:B1 *514:35 7.84241e-05
33 *2235:C1 *2235:B2 5.41794e-05
34 *2235:C1 *514:14 0
35 *2289:B1 *514:58 0
36 *2292:A2 *514:35 0.000151476
37 *2292:A2 *514:43 1.02504e-05
38 *2292:B1 *2323:B1 6.05161e-06
39 *2292:B1 *514:43 4.86282e-05
40 *2292:C1 *514:35 4.62153e-05
41 *2320:A *514:58 9.68931e-05
42 *2321:A *514:58 9.7049e-06
43 *2323:A1 *514:58 5.52238e-05
44 *2323:A2 *514:58 2.75524e-05
45 *2336:B1 *2323:B1 6.05161e-06
46 *2336:B1 *514:43 9.8958e-05
47 *2336:B1 *514:58 9.22103e-06
48 *2381:A2 *2381:A1 2.8266e-06
49 *2413:A *2381:A1 0.000100261
50 *2414:B *2381:A1 4.46186e-06
51 *2419:A3 *2381:A1 2.39876e-05
52 *2419:B1 *2381:A1 3.34366e-05
53 *2419:B1 *514:58 0.000307344
54 *2484:A *514:10 0.00020634
55 *188:78 *514:14 0.000218019
56 *190:12 *514:14 0
57 *190:22 *2235:B2 5.7616e-05
58 *190:22 *514:14 0
59 *196:18 *514:10 0.000101545
60 *199:18 *514:10 3.77323e-05
61 *199:35 *514:35 0
62 *199:43 *514:35 0
63 *211:12 *514:10 5.33005e-05
64 *297:14 *514:58 2.44318e-05
65 *297:18 *514:58 0.000597628
66 *328:12 *2381:A1 0
67 *332:6 *514:58 2.95726e-05
68 *332:12 *514:58 1.74352e-05
69 *388:12 *2381:A1 0
70 *397:12 *2381:A1 0.000148189
71 *405:12 *2381:A1 4.8476e-05
*RES
1 *2484:X *514:10 20.2286 
2 *514:10 *514:14 11.9107 
3 *514:14 *2235:B2 21.3402 
4 *514:14 *514:35 15.8393 
5 *514:35 *514:43 7.41071 
6 *514:43 *2323:B1 9.83571 
7 *514:43 *514:58 20.9286 
8 *514:58 *2381:A1 17.9071 
9 *514:58 *2419:A1 13.8 
10 *514:35 *2292:A1 13.8 
11 *514:10 *2192:A 14.3357 
*END

*D_NET *515 0.00135147
*CONN
*I *2417:B1 I *D sky130_fd_sc_hd__a32o_1
*I *2503:X O *D sky130_fd_sc_hd__clkbuf_1
*CAP
1 *2417:B1 0.000173498
2 *2503:X 0.000173498
3 *2417:B1 *553:30 0.000103041
4 *2380:A1 *2417:B1 0.000356053
5 *2418:C1 *2417:B1 1.65787e-05
6 *183:10 *2417:B1 0.0005288
*RES
1 *2503:X *2417:B1 34.7339 
*END

*D_NET *516 0.0221828
*CONN
*I *2165:A1 I *D sky130_fd_sc_hd__a21o_1
*I *2099:A I *D sky130_fd_sc_hd__and2_1
*I *2049:A I *D sky130_fd_sc_hd__and2_1
*I *1980:B1 I *D sky130_fd_sc_hd__a21o_1
*I *1979:B I *D sky130_fd_sc_hd__nand3_1
*I *1978:B I *D sky130_fd_sc_hd__and3_1
*I *2028:C1 I *D sky130_fd_sc_hd__o211a_1
*I *2016:A I *D sky130_fd_sc_hd__xnor2_1
*I *2163:A I *D sky130_fd_sc_hd__nor2_1
*I *2164:A2 I *D sky130_fd_sc_hd__o211a_1
*I *2426:X O *D sky130_fd_sc_hd__buf_2
*CAP
1 *2165:A1 4.80594e-05
2 *2099:A 0
3 *2049:A 0
4 *1980:B1 0
5 *1979:B 0.000105561
6 *1978:B 1.38608e-05
7 *2028:C1 0.000676126
8 *2016:A 0.0013601
9 *2163:A 0
10 *2164:A2 0.000120029
11 *2426:X 0
12 *516:121 0.000539318
13 *516:106 0.000447617
14 *516:85 0.00172404
15 *516:73 0.00112316
16 *516:52 0.00178587
17 *516:48 0.00115589
18 *516:42 0.00121783
19 *516:25 0.000944984
20 *516:6 0.000700607
21 *1979:B *552:53 1.7721e-05
22 *2016:A *1965:B 0.000160869
23 *2016:A *2043:B 8.44271e-06
24 *2016:A *534:75 4.00349e-05
25 *2164:A2 *529:78 0
26 *516:25 *2236:A2 0
27 *516:25 *529:78 0
28 *516:42 *524:74 0
29 *516:42 *549:62 0.000138588
30 *516:48 *524:74 0
31 *516:48 *549:51 6.98414e-05
32 *516:48 *549:62 0.000459363
33 *516:52 *1965:B 0.00034251
34 *516:73 *531:66 9.41642e-05
35 *516:73 *542:88 0.000139009
36 *516:85 *1956:A 0
37 *516:85 *2043:B 0
38 *516:85 *520:70 0
39 *516:85 *539:72 0.000203045
40 *516:85 *539:76 4.21517e-05
41 *516:85 *543:59 0.0011422
42 *516:85 *543:72 0.000105465
43 *516:85 *567:56 0.000405124
44 *1978:C *516:85 0
45 *1980:A1 *1979:B 0
46 *1986:A *516:85 0.000115446
47 *1989:C1 *1978:B 1.3623e-05
48 *1989:C1 *2028:C1 7.83659e-05
49 *1989:C1 *516:85 2.21038e-05
50 *1989:C1 *516:121 3.67257e-05
51 *1990:A1 *516:121 1.95011e-05
52 *1990:C1 *516:121 1.39726e-05
53 *1991:A1 *1979:B 2.36085e-05
54 *1993:A1 *2028:C1 1.46717e-05
55 *1995:A *2028:C1 2.89114e-05
56 *1996:A2 *2028:C1 6.18314e-05
57 *1997:A *2028:C1 0.000158287
58 *2005:C1 *2028:C1 2.42547e-05
59 *2007:A2 *516:85 2.78474e-05
60 *2007:B1 *516:85 0.00015234
61 *2009:B1_N *2028:C1 0
62 *2011:A1 *2028:C1 0.000178847
63 *2015:A *2016:A 7.50601e-05
64 *2019:A1 *2016:A 0
65 *2025:A1 *2028:C1 4.29179e-05
66 *2028:A2 *2028:C1 0
67 *2033:B *2016:A 0.000387432
68 *2040:A1 *2016:A 0.000160162
69 *2040:B1 *2016:A 0
70 *2041:C *2016:A 0
71 *2057:B1 *2016:A 4.038e-06
72 *2058:A2 *2016:A 0
73 *2099:B *516:52 1.02504e-05
74 *2154:A *516:48 1.18451e-05
75 *2154:B *516:48 0.000150618
76 *2163:B *516:25 0.000135028
77 *2163:B *516:42 5.30479e-05
78 *2165:B1 *516:42 2.11419e-05
79 *2173:C1 *516:42 4.29654e-05
80 *2174:D *516:42 0.000154762
81 *2236:B1 *516:25 0.00014285
82 *2497:A *516:48 8.84186e-05
83 *2498:A *2016:A 0.000205043
84 *46:8 *2016:A 0.000149101
85 *49:10 *2016:A 6.07328e-05
86 *49:20 *2016:A 0.000113887
87 *50:37 *516:85 0.00194529
88 *61:16 *516:73 9.31893e-05
89 *97:36 *516:48 0.000116094
90 *191:54 *516:25 4.43698e-05
91 *219:23 *2164:A2 5.80706e-06
92 *219:38 *2164:A2 8.03271e-05
93 *219:38 *516:25 1.76039e-05
94 *326:47 *516:25 0.000171862
95 *326:66 *516:25 2.89016e-05
96 *423:14 *516:85 8.3e-05
97 *439:10 *516:85 1.41029e-05
98 *439:21 *2028:C1 4.21208e-05
99 *439:21 *516:85 5.91666e-05
100 *439:27 *2028:C1 0.000191036
101 *444:16 *516:121 0.000154458
102 *444:46 *1979:B 1.76039e-05
103 *449:27 *1979:B 6.52967e-05
104 *457:12 *2028:C1 3.2534e-05
105 *457:29 *2028:C1 1.59338e-05
106 *459:19 *2028:C1 0.000108311
107 *474:8 *516:85 0
108 *475:8 *2028:C1 0.000414644
109 *483:12 *2016:A 0
110 *485:12 *2016:A 0
111 *497:37 *2165:A1 5.39629e-06
112 *510:45 *516:42 4.80553e-05
113 *512:40 *516:48 0.000116512
*RES
1 *2426:X *516:6 13.8 
2 *516:6 *2164:A2 16.05 
3 *516:6 *516:25 14.3036 
4 *516:25 *2163:A 9.3 
5 *516:25 *516:42 13.25 
6 *516:42 *516:48 23.2321 
7 *516:48 *516:52 11.9107 
8 *516:52 *2016:A 41.9607 
9 *516:52 *516:73 7.08929 
10 *516:73 *516:85 24.9652 
11 *516:85 *2028:C1 30.5321 
12 *516:85 *516:106 4.5 
13 *516:106 *1978:B 9.46518 
14 *516:106 *516:121 6.75 
15 *516:121 *1979:B 20.2464 
16 *516:121 *1980:B1 9.3 
17 *516:73 *2049:A 9.3 
18 *516:48 *2099:A 9.3 
19 *516:42 *2165:A1 14.3357 
*END

*D_NET *517 0.0161434
*CONN
*I *2053:A I *D sky130_fd_sc_hd__nor2_1
*I *1968:A1 I *D sky130_fd_sc_hd__o41ai_4
*I *1977:C1 I *D sky130_fd_sc_hd__a211o_1
*I *1985:A I *D sky130_fd_sc_hd__or2_1
*I *2032:A I *D sky130_fd_sc_hd__nor2_4
*I *1982:A I *D sky130_fd_sc_hd__nor2_1
*I *2159:A I *D sky130_fd_sc_hd__nand2_1
*I *2101:A I *D sky130_fd_sc_hd__or2_2
*I *2095:A I *D sky130_fd_sc_hd__nand2_1
*I *2054:A I *D sky130_fd_sc_hd__or2_1
*I *2427:X O *D sky130_fd_sc_hd__clkbuf_4
*CAP
1 *2053:A 0.000123768
2 *1968:A1 0.000740042
3 *1977:C1 0
4 *1985:A 0.000234553
5 *2032:A 3.36226e-05
6 *1982:A 0.000738782
7 *2159:A 0.000232184
8 *2101:A 2.84912e-05
9 *2095:A 2.52056e-05
10 *2054:A 0.000189444
11 *2427:X 0.000187486
12 *517:88 0.000273133
13 *517:86 0.00237286
14 *517:62 0.00107703
15 *517:60 0.00194967
16 *517:34 0.000357138
17 *517:23 0.000279172
18 *517:12 0.000672823
19 *517:8 0.000376692
20 *517:6 0.000311254
21 *1968:A1 *1968:A2 4.58194e-05
22 *1968:A1 *2452:A 6.05161e-06
23 *1968:A1 *545:27 5.94433e-06
24 *1968:A1 *550:62 0.000258564
25 *1982:A *1982:B 8.81343e-05
26 *1982:A *2033:A 0
27 *1982:A *518:88 5.75896e-05
28 *1982:A *518:101 0.000129842
29 *1985:A *550:51 0.000794502
30 *1985:A *552:86 0.000391426
31 *2032:A *2031:B 7.77652e-05
32 *2053:A *2053:B 1.04232e-05
33 *2101:A *2101:B 5.52302e-05
34 *2159:A *1959:A 4.10638e-05
35 *2159:A *2101:B 3.22063e-05
36 *2159:A *2236:A2 7.8327e-05
37 *2159:A *546:31 3.15101e-05
38 *517:12 *524:33 5.22029e-05
39 *517:12 *524:50 0.000196138
40 *517:23 *1959:A 1.99394e-05
41 *517:23 *524:50 9.03716e-05
42 *517:34 *1959:A 4.87834e-05
43 *517:60 *524:33 7.40571e-05
44 *517:62 *2031:B 5.94923e-05
45 *517:62 *2033:A 0
46 *517:62 *524:33 0.000303336
47 *517:86 *1969:B 5.33005e-05
48 *517:86 *547:24 1.90303e-05
49 *517:86 *567:56 0.000132088
50 *517:88 *550:51 4.30452e-05
51 *517:88 *550:62 3.06511e-05
52 *1968:B1 *1968:A1 0.000417115
53 *1976:A1 *517:86 3.61629e-06
54 *1977:A1 *517:86 1.97756e-05
55 *1994:A *1982:A 0
56 *2006:A1 *517:86 8.27184e-06
57 *2006:A2 *517:86 0.00015684
58 *2006:B1 *517:86 3.80277e-05
59 *2020:A0 *1982:A 0
60 *2029:A1 *1982:A 0.000142327
61 *2029:B1 *1982:A 0
62 *2048:A *517:6 5.52302e-05
63 *2048:A *517:12 0
64 *2051:B *517:62 0
65 *2052:A *517:12 0.000120506
66 *2052:B *517:12 0.000142971
67 *2055:A2 *2053:A 5.52238e-05
68 *2055:A2 *517:6 0.000108594
69 *2090:B *517:12 0
70 *2091:A0 *517:12 7.44962e-05
71 *2096:A *517:12 0
72 *2096:A *517:23 0
73 *2096:B *2095:A 5.52302e-05
74 *2160:A *2159:A 0.000173083
75 *2160:B *2159:A 4.33308e-05
76 *2395:A *1982:A 0.000106533
77 *2395:B *1982:A 0.000196262
78 *2427:A *517:12 1.3142e-05
79 *241:25 *1982:A 8.53636e-05
80 *241:25 *2032:A 5.52238e-05
81 *273:12 *2159:A 1.33343e-05
82 *294:10 *1982:A 0
83 *294:10 *517:62 0
84 *369:6 *1968:A1 1.56e-05
85 *369:18 *517:86 5.41609e-05
86 *391:19 *1968:A1 0.000148903
87 *391:19 *1985:A 1.02504e-05
88 *391:19 *517:88 7.53238e-05
89 *464:19 *1982:A 0
90 *470:12 *517:86 1.57931e-05
91 *471:12 *2032:A 4.43256e-05
92 *475:14 *1982:A 0
93 *475:73 *1982:A 0
94 *475:98 *2159:A 0
95 *475:98 *517:34 0
96 *475:98 *517:60 0
97 *497:62 *1968:A1 5.74562e-05
98 *497:62 *1985:A 0.000206884
*RES
1 *2427:X *517:6 11.8893 
2 *517:6 *517:8 4.5 
3 *517:8 *517:12 8.25 
4 *517:12 *2054:A 16.3893 
5 *517:12 *517:23 3.16071 
6 *517:23 *2095:A 14.3357 
7 *517:23 *517:34 1.94643 
8 *517:34 *2101:A 14.3357 
9 *517:34 *2159:A 19.5857 
10 *517:8 *517:60 1.03571 
11 *517:60 *517:62 5.89286 
12 *517:62 *1982:A 30.6214 
13 *517:62 *2032:A 15.1571 
14 *517:60 *517:86 28.0179 
15 *517:86 *517:88 1.03571 
16 *517:88 *1985:A 23.9429 
17 *517:88 *1977:C1 13.8 
18 *517:86 *1968:A1 25.5143 
19 *517:6 *2053:A 11.4071 
*END

*D_NET *518 0.0139666
*CONN
*I *2276:C I *D sky130_fd_sc_hd__and3_1
*I *1981:B I *D sky130_fd_sc_hd__or2_1
*I *2022:B I *D sky130_fd_sc_hd__nand2_1
*I *1957:A I *D sky130_fd_sc_hd__inv_2
*I *2027:A1 I *D sky130_fd_sc_hd__o21ai_1
*I *2028:A1 I *D sky130_fd_sc_hd__o211a_1
*I *1982:B I *D sky130_fd_sc_hd__nor2_1
*I *2355:A I *D sky130_fd_sc_hd__nand2_1
*I *2303:A I *D sky130_fd_sc_hd__and3_1
*I *2304:A1 I *D sky130_fd_sc_hd__a21oi_1
*I *2428:X O *D sky130_fd_sc_hd__buf_2
*CAP
1 *2276:C 0.000372523
2 *1981:B 0
3 *2022:B 0
4 *1957:A 0
5 *2027:A1 9.97685e-05
6 *2028:A1 0
7 *1982:B 0.000158602
8 *2355:A 7.53115e-05
9 *2303:A 0
10 *2304:A1 0.000235422
11 *2428:X 0.000250539
12 *518:101 0.000294794
13 *518:88 0.000328004
14 *518:75 0.00133958
15 *518:65 0.00116001
16 *518:57 0.00085411
17 *518:49 0.00142575
18 *518:38 0.000820999
19 *518:12 0.000298539
20 *518:10 0.000748213
21 *2276:C *2394:A1 6.04072e-05
22 *2276:C *545:50 0
23 *2276:C *545:54 1.37116e-05
24 *2304:A1 *2303:B 2.72545e-05
25 *2304:A1 *548:58 0.00013478
26 *2355:A *2358:B2 0
27 *2355:A *545:54 1.19309e-05
28 *518:10 *2303:B 4.46186e-06
29 *518:12 *2303:B 5.01117e-05
30 *518:38 *2302:B 0.000233668
31 *518:38 *2401:B 4.59075e-05
32 *518:38 *545:58 5.52238e-05
33 *518:49 *545:54 0.00020518
34 *518:65 *550:8 5.52238e-05
35 *518:65 *552:86 0
36 *518:65 *554:64 0.000118339
37 *518:75 *550:8 4.7194e-05
38 *518:75 *550:12 0.000183726
39 *1982:A *1982:B 8.81343e-05
40 *1982:A *518:88 5.75896e-05
41 *1982:A *518:101 0.000129842
42 *1994:A *518:101 4.46186e-06
43 *1996:B1 *1982:B 0
44 *1996:B1 *518:88 0
45 *2005:A1 *518:75 3.30237e-05
46 *2005:A2 *518:75 5.03772e-05
47 *2005:B1 *1982:B 0
48 *2005:B1 *518:75 5.03772e-05
49 *2026:B1 *518:75 0.000397918
50 *2027:B1 *2027:A1 0.000314139
51 *2027:B1 *518:101 0.000144931
52 *2028:B1 *518:88 5.80706e-06
53 *2028:B1 *518:101 8.06331e-05
54 *2029:A1 *2027:A1 7.3237e-05
55 *2029:B1 *518:75 0.000610071
56 *2276:A *2276:C 9.25014e-06
57 *2277:A1 *518:65 5.80706e-06
58 *2277:B1 *2276:C 0.000380955
59 *2278:B *2276:C 0.000348582
60 *2304:B1 *2304:A1 0.000120688
61 *2359:B *2355:A 0
62 *2360:B *2304:A1 0
63 *2360:B *2355:A 0
64 *2360:B *518:12 0
65 *2406:A *2276:C 6.89067e-05
66 *2406:A *518:49 1.19309e-05
67 *2406:B *518:49 0
68 *2410:A *2276:C 5.56943e-05
69 *2458:A *518:57 0.000312215
70 *286:10 *2276:C 9.24395e-05
71 *294:10 *518:101 0
72 *294:12 *518:88 0
73 *317:12 *2304:A1 0
74 *375:14 *518:38 0.000230475
75 *469:16 *518:75 0.000164117
76 *486:8 *518:65 8.39e-05
77 *493:14 *518:10 0.000271352
78 *493:31 *518:49 0
79 *497:89 *2276:C 6.04072e-05
*RES
1 *2428:X *518:10 17.425 
2 *518:10 *518:12 1.33929 
3 *518:12 *2304:A1 18.4429 
4 *518:12 *2303:A 13.8 
5 *518:10 *518:38 15.2857 
6 *518:38 *2355:A 14.8357 
7 *518:38 *518:49 7.10714 
8 *518:49 *518:57 16.6786 
9 *518:57 *518:65 12.3929 
10 *518:65 *518:75 25.9286 
11 *518:75 *1982:B 17.1929 
12 *518:75 *518:88 2.25 
13 *518:88 *2028:A1 13.8 
14 *518:88 *518:101 10.0179 
15 *518:101 *2027:A1 12.3 
16 *518:101 *1957:A 9.3 
17 *518:65 *2022:B 9.3 
18 *518:57 *1981:B 9.3 
19 *518:49 *2276:C 24.9071 
*END

*D_NET *519 0.0235923
*CONN
*I *2264:A1 I *D sky130_fd_sc_hd__a221o_1
*I *2288:A1 I *D sky130_fd_sc_hd__a21oi_1
*I *2178:B I *D sky130_fd_sc_hd__or4_1
*I *2291:A1 I *D sky130_fd_sc_hd__a32o_1
*I *2324:A1 I *D sky130_fd_sc_hd__a21o_1
*I *2269:A I *D sky130_fd_sc_hd__xnor2_1
*I *2336:A1 I *D sky130_fd_sc_hd__a221o_1
*I *2289:A1 I *D sky130_fd_sc_hd__o22a_1
*I *2394:A1 I *D sky130_fd_sc_hd__a22o_1
*I *2428:A I *D sky130_fd_sc_hd__buf_2
*I *2429:X O *D sky130_fd_sc_hd__clkbuf_4
*CAP
1 *2264:A1 0.000284763
2 *2288:A1 0
3 *2178:B 0.000132445
4 *2291:A1 3.76494e-05
5 *2324:A1 0
6 *2269:A 0.000110955
7 *2336:A1 3.26257e-05
8 *2289:A1 2.72074e-05
9 *2394:A1 0.000667936
10 *2428:A 1.40355e-05
11 *2429:X 8.1989e-05
12 *519:112 0.000539761
13 *519:100 0.00096357
14 *519:90 0.0012492
15 *519:82 0.000888285
16 *519:80 0.000665041
17 *519:63 0.000334799
18 *519:48 0.00107455
19 *519:23 0.0022093
20 *519:8 0.000780585
21 *2178:B *2178:A 6.74867e-05
22 *2178:B *2234:A1 0
23 *2178:B *552:14 6.69697e-05
24 *2178:B *552:16 8.55772e-05
25 *2178:B *554:97 5.13009e-05
26 *2178:B *565:67 5.52238e-05
27 *2264:A1 *541:41 3.92757e-05
28 *2264:A1 *566:22 0
29 *2289:A1 *2289:A2 5.52302e-05
30 *2394:A1 *2433:A 0.000137983
31 *2394:A1 *520:56 0.000165382
32 *2394:A1 *526:12 1.33343e-05
33 *2394:A1 *526:18 5.52302e-05
34 *2394:A1 *545:50 0.000270498
35 *519:8 *2302:A 1.08359e-05
36 *519:8 *520:31 7.50601e-05
37 *519:23 *520:31 0.000437896
38 *519:23 *526:12 0.000255062
39 *519:23 *540:56 1.87097e-05
40 *519:23 *566:22 0
41 *519:48 *525:14 5.80706e-06
42 *519:48 *525:34 5.06514e-05
43 *519:48 *525:51 0.000223652
44 *519:48 *525:62 4.8936e-05
45 *519:48 *525:79 0.000126864
46 *519:48 *525:90 0.000300126
47 *519:48 *525:103 3.90513e-05
48 *519:48 *525:120 0.000377163
49 *519:48 *526:18 0.000264521
50 *519:48 *526:43 0.00131405
51 *519:63 *525:120 0.000190554
52 *519:80 *2290:A 5.83233e-05
53 *519:80 *525:120 0.000190777
54 *519:90 *2233:A2 9.86803e-05
55 *519:90 *2290:A 0.00179287
56 *519:90 *526:43 1.90936e-05
57 *519:90 *565:67 2.06112e-05
58 *519:100 *2233:A2 7.15062e-05
59 *519:100 *2290:A 7.46146e-05
60 *519:100 *565:18 0.000563243
61 *2180:A *2178:B 9.25014e-06
62 *2236:B1 *2269:A 0.000227526
63 *2236:C1 *2269:A 4.43157e-05
64 *2263:B1 *2291:A1 5.52302e-05
65 *2263:B1 *519:100 3.27483e-05
66 *2264:B2 *2264:A1 9.11365e-06
67 *2269:B *2269:A 0.000313503
68 *2276:C *2394:A1 6.04072e-05
69 *2289:B1 *2289:A1 9.71197e-05
70 *2289:B1 *519:63 5.00917e-05
71 *2289:B2 *519:48 9.25014e-06
72 *2289:B2 *519:82 3.80953e-06
73 *2292:B1 *519:63 0
74 *2292:C1 *2264:A1 9.33978e-07
75 *2293:B1 *519:112 0.000189469
76 *2293:C1 *519:90 4.29267e-05
77 *2293:C1 *519:100 1.29403e-05
78 *2294:B1 *519:112 5.71472e-05
79 *2306:A *519:8 7.73758e-05
80 *2308:A *519:23 0.000202128
81 *2308:C *519:23 0.000106299
82 *2324:B1 *519:112 5.71472e-05
83 *2335:A3 *2291:A1 2.95726e-05
84 *2335:A3 *519:112 0
85 *2336:B1 *2336:A1 5.33005e-05
86 *2336:B2 *519:63 0.000120504
87 *2336:B2 *519:80 9.25014e-06
88 *2336:C1 *2336:A1 9.41642e-05
89 *2353:A *2394:A1 2.44318e-05
90 *2353:A *519:23 0.000128154
91 *2354:A *519:23 0.000148189
92 *2396:C *2394:A1 0.00018372
93 *2397:B1 *2394:A1 9.60939e-05
94 *2398:A_N *2394:A1 5.52238e-05
95 *188:78 *519:82 0.000136951
96 *192:74 *2269:A 0.000170654
97 *197:18 *519:100 8.49861e-06
98 *197:18 *519:112 0.000142856
99 *199:35 *2264:A1 0.000479727
100 *199:35 *519:80 4.80729e-05
101 *199:43 *2336:A1 1.98839e-05
102 *199:43 *519:80 0.000131478
103 *276:10 *2269:A 1.02504e-05
104 *311:10 *519:23 0.000165254
105 *317:12 *519:8 7.79781e-06
106 *317:12 *519:23 1.88048e-05
107 *317:30 *519:23 3.9718e-05
108 *326:66 *519:112 0.000160358
109 *326:79 *519:112 4.08637e-05
110 *367:12 *2394:A1 2.32625e-05
111 *375:14 *519:8 9.25014e-06
112 *490:12 *2428:A 5.52302e-05
113 *490:53 *519:90 0.000702761
114 *493:14 *2428:A 2.89114e-05
115 *497:89 *2394:A1 0.00069931
116 *514:35 *2264:A1 0.000104267
*RES
1 *2429:X *519:8 16.05 
2 *519:8 *2428:A 14.3357 
3 *519:8 *519:23 22.0893 
4 *519:23 *2394:A1 26.1571 
5 *519:23 *519:48 38.0893 
6 *519:48 *2289:A1 10.2464 
7 *519:48 *519:63 8.83929 
8 *519:63 *2336:A1 14.7464 
9 *519:63 *519:80 8.625 
10 *519:80 *519:82 3 
11 *519:82 *519:90 11.0444 
12 *519:90 *519:100 9.95956 
13 *519:100 *519:112 9.46429 
14 *519:112 *2269:A 22.7286 
15 *519:112 *2324:A1 9.3 
16 *519:100 *2291:A1 10.2464 
17 *519:90 *2178:B 20.1475 
18 *519:82 *2288:A1 9.3 
19 *519:80 *2264:A1 25.4429 
*END

*D_NET *520 0.0268065
*CONN
*I *2351:A1 I *D sky130_fd_sc_hd__a22oi_1
*I *2352:A I *D sky130_fd_sc_hd__and4_1
*I *2394:B2 I *D sky130_fd_sc_hd__a22o_1
*I *2234:B2 I *D sky130_fd_sc_hd__a32o_1
*I *2179:C I *D sky130_fd_sc_hd__or4_1
*I *2240:A I *D sky130_fd_sc_hd__or2_1
*I *2031:B I *D sky130_fd_sc_hd__nor2_1
*I *1956:A I *D sky130_fd_sc_hd__inv_2
*I *2248:A I *D sky130_fd_sc_hd__nand2_1
*I *2302:A I *D sky130_fd_sc_hd__nand2_1
*I *2430:X O *D sky130_fd_sc_hd__clkbuf_4
*CAP
1 *2351:A1 0.000118733
2 *2352:A 0
3 *2394:B2 0
4 *2234:B2 0
5 *2179:C 0
6 *2240:A 0.000585369
7 *2031:B 0.00056347
8 *1956:A 0.0005426
9 *2248:A 7.73976e-05
10 *2302:A 0.000122199
11 *2430:X 0.000417929
12 *520:114 0.000711731
13 *520:106 0.00131445
14 *520:70 0.00233956
15 *520:62 0.00272388
16 *520:56 0.000970595
17 *520:35 0.00130053
18 *520:31 0.00129579
19 *520:16 0.00116236
20 *2031:B *2033:A 4.89167e-05
21 *2240:A *2234:A1 5.59013e-05
22 *2240:A *2449:A 0.000660801
23 *2240:A *524:97 0.000290109
24 *2240:A *526:53 2.8266e-06
25 *2240:A *551:49 1.21289e-05
26 *2248:A *2248:B 2.84398e-05
27 *2248:A *548:16 6.80677e-05
28 *2302:A *2303:B 2.56694e-05
29 *2351:A1 *2351:A2 1.90213e-05
30 *520:16 *566:20 0.00018077
31 *520:31 *2350:A 0
32 *520:31 *2407:A2 0
33 *520:31 *525:14 6.82922e-05
34 *520:31 *540:56 5.41794e-05
35 *520:35 *523:40 1.39841e-05
36 *520:35 *523:122 1.02936e-05
37 *520:62 *552:86 0
38 *520:62 *554:75 0.000434655
39 *520:70 *524:31 0.000349835
40 *520:70 *543:72 0
41 *520:106 *2178:A 2.96842e-05
42 *520:106 *2178:D 5.52238e-05
43 *520:106 *2234:A1 7.3237e-05
44 *520:106 *2454:A 6.7611e-05
45 *520:106 *549:51 1.90936e-05
46 *520:106 *554:75 0.00105103
47 *520:106 *554:97 0.000570382
48 *520:106 *565:10 4.99283e-06
49 *520:106 *565:67 0.000127368
50 *520:114 *2234:A1 3.4323e-05
51 *520:114 *529:70 0.000181796
52 *520:114 *546:69 4.02462e-05
53 *1970:B1 *520:106 0.00021559
54 *1975:A *520:70 2.89016e-05
55 *1978:C *1956:A 0.000146495
56 *1986:B *1956:A 9.25014e-06
57 *1986:C *1956:A 4.50033e-05
58 *1987:B *520:70 0.000274294
59 *1988:B *520:70 0.000180764
60 *2007:A2 *1956:A 2.0587e-05
61 *2008:B *1956:A 0
62 *2008:B *520:70 0
63 *2009:A2 *1956:A 0
64 *2032:A *2031:B 7.77652e-05
65 *2051:B *2031:B 7.83659e-05
66 *2180:A *2240:A 0
67 *2180:B *2240:A 0
68 *2196:A *2240:A 0.000264832
69 *2196:B *2240:A 4.72818e-05
70 *2234:B1 *520:106 0.0001399
71 *2303:C *2302:A 3.04742e-05
72 *2305:B1 *520:16 0.000176797
73 *2351:B1 *2351:A1 0.000163213
74 *2351:B1 *520:35 0.000178847
75 *2354:A *520:31 0.000146474
76 *2394:A1 *520:56 0.000165382
77 *2396:C *520:56 0.000172309
78 *2397:B1 *520:56 9.60939e-05
79 *2398:A_N *520:56 2.89016e-05
80 *2445:A *520:106 0.0004091
81 *2485:A *2240:A 1.19309e-05
82 *2490:A *2240:A 0
83 *2490:A *520:114 0.000194833
84 *2496:A *520:35 0.000139913
85 *181:16 *2240:A 0.000706537
86 *183:10 *2240:A 0
87 *186:10 *2240:A 0
88 *242:12 *520:114 0.000183726
89 *285:12 *2248:A 3.34295e-05
90 *285:12 *520:35 0.000219711
91 *285:12 *520:56 0.000101545
92 *312:6 *2302:A 0.000268403
93 *312:6 *520:16 9.50797e-05
94 *313:8 *2302:A 3.18676e-05
95 *326:22 *2240:A 0.00010047
96 *337:36 *520:106 0.000197977
97 *337:62 *520:106 0.000171375
98 *366:8 *520:35 9.90431e-05
99 *375:14 *2302:A 5.41794e-05
100 *375:14 *520:16 5.33005e-05
101 *380:12 *520:106 4.43142e-05
102 *440:16 *520:106 0.000285488
103 *448:42 *2302:A 4.87854e-05
104 *470:12 *520:70 0
105 *471:6 *2031:B 7.70589e-05
106 *471:12 *2031:B 0.000144094
107 *493:48 *2248:A 0.000222163
108 *493:48 *520:56 9.30022e-05
109 *497:62 *520:56 2.95641e-05
110 *497:62 *520:62 9.7659e-05
111 *497:62 *520:106 0.000102982
112 *497:89 *520:35 0.000476702
113 *497:89 *520:56 1.60074e-05
114 *516:85 *1956:A 0
115 *516:85 *520:70 0
116 *517:62 *2031:B 5.94923e-05
117 *519:8 *2302:A 1.08359e-05
118 *519:8 *520:31 7.50601e-05
119 *519:23 *520:31 0.000437896
*RES
1 *2430:X *520:16 20.3714 
2 *520:16 *2302:A 17.425 
3 *520:16 *520:31 18.8929 
4 *520:31 *520:35 14.8929 
5 *520:35 *2248:A 16.6571 
6 *520:35 *520:56 15.0536 
7 *520:56 *520:62 11.8571 
8 *520:62 *520:70 25.9464 
9 *520:70 *1956:A 23.3536 
10 *520:70 *2031:B 33.8 
11 *520:62 *520:106 38.9464 
12 *520:106 *520:114 13.3214 
13 *520:114 *2240:A 35.3893 
14 *520:114 *2179:C 9.3 
15 *520:106 *2234:B2 9.3 
16 *520:56 *2394:B2 9.3 
17 *520:31 *2352:A 9.3 
18 *520:31 *2351:A1 11.8 
*END

*D_NET *521 0.00910197
*CONN
*I *2262:A1 I *D sky130_fd_sc_hd__o22a_1
*I *2261:A1 I *D sky130_fd_sc_hd__a21oi_1
*I *2263:A1 I *D sky130_fd_sc_hd__a32o_1
*I *2241:A I *D sky130_fd_sc_hd__nand2_1
*I *2291:B2 I *D sky130_fd_sc_hd__a32o_1
*I *2431:X O *D sky130_fd_sc_hd__dlymetal6s2s_1
*CAP
1 *2262:A1 1.83756e-05
2 *2261:A1 0
3 *2263:A1 1.2683e-05
4 *2241:A 0.000325706
5 *2291:B2 0.000318771
6 *2431:X 0.000318983
7 *521:49 0.000557945
8 *521:26 0.00208302
9 *521:22 0.00163073
10 *521:18 0.000423392
11 *2241:A *2263:A2 3.18676e-05
12 *2241:A *524:78 0.000178604
13 *2262:A1 *2261:A2 0
14 *2263:A1 *2263:A2 0
15 *2291:B2 *526:73 0.000266745
16 *2291:B2 *529:70 5.86138e-05
17 *2291:B2 *565:18 5.7836e-06
18 *2291:B2 *565:28 2.83284e-06
19 *521:18 *527:61 3.67257e-05
20 *521:18 *541:21 2.89016e-05
21 *521:18 *541:41 0.000309628
22 *521:18 *566:22 5.72433e-05
23 *521:22 *541:21 7.77751e-05
24 *521:26 *541:12 0.000717635
25 *521:26 *541:21 1.02821e-05
26 *521:49 *2263:A2 4.82159e-05
27 *521:49 *2263:B2 2.92655e-05
28 *521:49 *524:78 6.12335e-05
29 *521:49 *541:12 4.03916e-05
30 *2180:B *521:26 5.52302e-05
31 *2235:B1 *521:18 5.33433e-05
32 *2262:B2 *2262:A1 3.99614e-06
33 *2262:B2 *521:18 2.95726e-05
34 *2263:B1 *2291:B2 0.000111317
35 *2263:B1 *521:49 0.000171005
36 *2264:A2 *521:18 1.46576e-05
37 *2264:B1 *521:18 3.18676e-05
38 *2264:C1 *521:18 0.000238567
39 *2265:A2 *2241:A 5.52302e-05
40 *2265:B1 *2241:A 8.7498e-05
41 *2265:B1 *2263:A1 0
42 *2490:A *2291:B2 4.16021e-05
43 *2490:A *521:49 2.78822e-05
44 *197:18 *2291:B2 0
45 *199:33 *521:18 5.9483e-05
46 *242:12 *2291:B2 0.000126446
47 *247:8 *2241:A 1.33343e-05
48 *326:22 *2241:A 0.000109061
49 *326:26 *2241:A 0.000220533
*RES
1 *2431:X *521:18 27.4071 
2 *521:18 *521:22 1.78571 
3 *521:22 *521:26 24.75 
4 *521:26 *2291:B2 20.8357 
5 *521:26 *521:49 10.2143 
6 *521:49 *2241:A 17.6929 
7 *521:49 *2263:A1 9.72857 
8 *521:22 *2261:A1 9.3 
9 *521:18 *2262:A1 9.72857 
*END

*D_NET *522 0.0013231
*CONN
*I *2200:B_N I *D sky130_fd_sc_hd__and4bb_2
*I *2439:A I *D sky130_fd_sc_hd__clkbuf_2
*I *2476:X O *D sky130_fd_sc_hd__clkbuf_1
*CAP
1 *2200:B_N 5.75243e-05
2 *2439:A 9.87135e-05
3 *2476:X 9.10918e-05
4 *522:8 0.00024733
5 *2183:B *522:8 5.01213e-05
6 *2193:C *2200:B_N 0.000227539
7 *2193:D *2439:A 1.19402e-05
8 *2193:D *522:8 1.18358e-05
9 *2200:D *2200:B_N 2.91829e-05
10 *189:12 *2439:A 4.03318e-05
11 *189:12 *522:8 2.37761e-05
12 *189:18 *2439:A 6.2198e-05
13 *199:18 *2200:B_N 0.000229456
14 *489:12 *522:8 3.31397e-05
15 *489:35 *522:8 9.87983e-06
16 *491:18 *2439:A 0
17 *511:68 *2439:A 9.90367e-05
*RES
1 *2476:X *522:8 16.05 
2 *522:8 *2439:A 16.3893 
3 *522:8 *2200:B_N 16.3893 
*END

*D_NET *523 0.0166795
*CONN
*I *2351:B2 I *D sky130_fd_sc_hd__a22oi_1
*I *2352:B I *D sky130_fd_sc_hd__and4_1
*I *2204:A1 I *D sky130_fd_sc_hd__a22o_1
*I *2231:A I *D sky130_fd_sc_hd__nand2_1
*I *2297:A1 I *D sky130_fd_sc_hd__a22oi_1
*I *2296:B I *D sky130_fd_sc_hd__and4_1
*I *2250:A1 I *D sky130_fd_sc_hd__a21oi_1
*I *2249:A I *D sky130_fd_sc_hd__and3_1
*I *2301:A1 I *D sky130_fd_sc_hd__a31oi_2
*I *2391:A I *D sky130_fd_sc_hd__nand2_1
*I *2432:X O *D sky130_fd_sc_hd__buf_2
*CAP
1 *2351:B2 6.63686e-05
2 *2352:B 0
3 *2204:A1 0
4 *2231:A 0
5 *2297:A1 0.000168643
6 *2296:B 0
7 *2250:A1 4.57249e-05
8 *2249:A 0
9 *2301:A1 2.23854e-05
10 *2391:A 0.000239908
11 *2432:X 0.000213598
12 *523:122 0.000408692
13 *523:115 0.00150503
14 *523:88 0.00190074
15 *523:66 0.000414863
16 *523:57 0.000461974
17 *523:51 0.000644173
18 *523:40 0.000855166
19 *523:30 0.00116291
20 *523:8 0.000284679
21 *523:6 0.000279842
22 *2250:A1 *2250:A2 5.71472e-05
23 *2297:A1 *2295:A 0.000136958
24 *2297:A1 *2297:A2 9.99644e-06
25 *2297:A1 *2297:B1 2.60232e-05
26 *2301:A1 *2432:A 0
27 *2351:B2 *2351:A2 8.46829e-05
28 *2351:B2 *2352:C 5.52302e-05
29 *2391:A *2301:A2 5.03772e-05
30 *2391:A *2391:B 4.7056e-05
31 *2391:A *548:37 0.000137983
32 *523:6 *2391:B 8.81471e-06
33 *523:6 *2432:A 9.41642e-05
34 *523:8 *2432:A 0
35 *523:30 *2432:A 5.10822e-05
36 *523:30 *545:50 0.00010326
37 *523:40 *545:50 7.79781e-06
38 *523:40 *548:104 3.72932e-05
39 *523:51 *2250:A2 8.46829e-05
40 *523:51 *548:96 5.33005e-05
41 *523:51 *548:104 8.25843e-06
42 *523:51 *549:18 5.31113e-05
43 *523:57 *2250:A2 0.000309266
44 *523:57 *2295:B 0
45 *523:66 *2295:A 0.000137983
46 *523:66 *2295:B 5.62995e-05
47 *523:88 *1967:A1 7.08001e-05
48 *523:88 *2233:A1 4.44568e-05
49 *523:88 *549:18 0.000811556
50 *523:88 *555:31 3.4323e-06
51 *523:115 *1967:A1 0.000247932
52 *523:115 *2184:C_N 6.05161e-06
53 *523:115 *2233:A1 1.50132e-05
54 *523:115 *2233:A2 2.06178e-05
55 *523:115 *572:29 0
56 *523:115 *572:52 0.000497917
57 *523:122 *2352:C 5.52238e-05
58 *2190:A *523:115 8.673e-05
59 *2192:B *523:115 2.42516e-05
60 *2198:A *523:115 0.000215958
61 *2204:B1 *523:115 3.63587e-05
62 *2204:B2 *523:115 1.04232e-05
63 *2232:B *523:115 0.000732027
64 *2233:B2 *523:115 5.58508e-05
65 *2250:B1 *523:51 9.19364e-05
66 *2250:B1 *523:57 0
67 *2277:A2 *2391:A 5.33433e-05
68 *2278:A *523:88 0.000175526
69 *2278:A *523:115 8.49318e-05
70 *2278:B *523:51 2.63844e-05
71 *2278:B *523:88 0.000488468
72 *2351:B1 *523:122 1.5424e-05
73 *2387:B *523:115 0.000174805
74 *2398:A_N *523:40 6.26466e-05
75 *2399:A *2391:A 0
76 *2402:B *523:40 0
77 *2406:A *2391:A 1.39726e-05
78 *2496:A *523:40 6.42095e-05
79 *2496:A *523:122 6.05161e-06
80 *38:20 *523:40 0.000114024
81 *38:20 *523:51 8.88341e-05
82 *190:6 *523:115 1.98839e-05
83 *190:10 *523:115 6.59861e-05
84 *190:22 *523:115 0
85 *196:8 *523:115 2.3083e-05
86 *197:102 *523:115 0.000400867
87 *205:14 *523:115 5.7234e-05
88 *205:18 *523:115 0
89 *256:10 *523:57 4.87953e-05
90 *257:12 *523:57 2.89114e-05
91 *285:12 *523:40 0.000112995
92 *305:8 *2297:A1 0.000109578
93 *305:8 *523:66 2.28499e-05
94 *306:30 *2297:A1 0.00014783
95 *311:10 *523:6 1.97865e-05
96 *491:18 *523:115 0
97 *493:48 *523:40 0.000617541
98 *493:50 *523:115 0
99 *493:83 *523:115 0
100 *497:89 *523:122 0.000245952
101 *511:53 *523:115 5.33005e-05
102 *520:35 *523:40 1.39841e-05
103 *520:35 *523:122 1.02936e-05
*RES
1 *2432:X *523:6 11.8893 
2 *523:6 *523:8 0.428571 
3 *523:8 *2391:A 13.9607 
4 *523:8 *2301:A1 9.72857 
5 *523:6 *523:30 10.3393 
6 *523:30 *523:40 24.8393 
7 *523:40 *2249:A 9.3 
8 *523:40 *523:51 7 
9 *523:51 *523:57 8.64286 
10 *523:57 *2250:A1 10.2464 
11 *523:57 *523:66 4.23214 
12 *523:66 *2296:B 9.3 
13 *523:66 *2297:A1 13.8179 
14 *523:51 *523:88 14.3929 
15 *523:88 *2231:A 13.8 
16 *523:88 *523:115 48.5714 
17 *523:115 *2204:A1 9.3 
18 *523:30 *523:122 5.875 
19 *523:122 *2352:B 9.3 
20 *523:122 *2351:B2 10.6571 
*END

*D_NET *524 0.0243049
*CONN
*I *2095:B I *D sky130_fd_sc_hd__nand2_1
*I *2217:A I *D sky130_fd_sc_hd__or2_1
*I *2218:A I *D sky130_fd_sc_hd__nand2_1
*I *2179:D I *D sky130_fd_sc_hd__or4_1
*I *2234:A1 I *D sky130_fd_sc_hd__a32o_1
*I *2263:B2 I *D sky130_fd_sc_hd__a32o_1
*I *2097:A0 I *D sky130_fd_sc_hd__mux2_4
*I *2054:B I *D sky130_fd_sc_hd__or2_1
*I *2053:B I *D sky130_fd_sc_hd__nor2_1
*I *2432:A I *D sky130_fd_sc_hd__buf_2
*I *2433:X O *D sky130_fd_sc_hd__buf_2
*CAP
1 *2095:B 6.95515e-05
2 *2217:A 0
3 *2218:A 4.67954e-05
4 *2179:D 0
5 *2234:A1 0.000262718
6 *2263:B2 5.29692e-05
7 *2097:A0 0
8 *2054:B 7.25704e-05
9 *2053:B 4.23243e-05
10 *2432:A 0.000202324
11 *2433:X 0
12 *524:127 0.000360557
13 *524:97 0.000672515
14 *524:78 0.00199419
15 *524:74 0.00272547
16 *524:65 0.000904482
17 *524:54 0.000334906
18 *524:50 0.000551321
19 *524:33 0.000589178
20 *524:31 0.00203089
21 *524:6 0.00192999
22 *2234:A1 *2234:A2 3.57366e-05
23 *2234:A1 *546:69 0.000287162
24 *2234:A1 *565:67 4.46186e-06
25 *2263:B2 *2263:A2 9.60875e-05
26 *2263:B2 *2449:A 3.34295e-05
27 *2263:B2 *541:12 3.0034e-05
28 *2432:A *2301:B1 0.000148196
29 *2432:A *525:14 0
30 *2432:A *537:36 0.000138826
31 *2432:A *545:50 2.1892e-05
32 *524:31 *1987:A 0.000273269
33 *524:31 *2348:A2 0.000818358
34 *524:31 *2392:B2 0.000250588
35 *524:31 *537:36 0.000158147
36 *524:31 *540:52 0.00022289
37 *524:31 *549:18 0
38 *524:31 *550:80 0.000117621
39 *524:31 *555:31 4.58976e-05
40 *524:33 *1959:A 4.66511e-05
41 *524:33 *547:24 0.000211798
42 *524:50 *1959:A 0.000673892
43 *524:74 *526:87 0.00053875
44 *524:74 *526:111 0.000917599
45 *524:74 *549:62 0
46 *524:97 *2263:A2 2.15245e-05
47 *524:127 *2209:A 3.57844e-05
48 *524:127 *2215:A1 0
49 *524:127 *2215:A2 0
50 *524:127 *526:111 0.000209584
51 *524:127 *549:62 0
52 *1975:A *524:31 5.52238e-05
53 *1987:B *524:31 4.88637e-05
54 *1988:B *524:31 4.88637e-05
55 *2009:A2 *524:31 2.89016e-05
56 *2037:A *524:31 0.000134278
57 *2052:A *2053:B 7.43578e-06
58 *2052:A *524:50 0.000122814
59 *2053:A *2053:B 1.04232e-05
60 *2055:A2 *2053:B 5.52238e-05
61 *2096:B *2095:B 1.33343e-05
62 *2096:B *524:54 0.000185643
63 *2097:A1 *524:54 7.84241e-05
64 *2154:A *524:74 3.17163e-05
65 *2154:B *524:74 0
66 *2173:C1 *524:74 0.000127446
67 *2174:D *524:74 0
68 *2175:B1 *524:78 1.98839e-05
69 *2178:B *2234:A1 0
70 *2180:A *2234:A1 0
71 *2208:A *524:78 0.00022266
72 *2209:B *2218:A 4.39965e-05
73 *2209:B *524:127 4.58976e-05
74 *2217:B *2218:A 5.84801e-05
75 *2219:A *524:127 0.000148189
76 *2234:B1 *2234:A1 2.26831e-05
77 *2240:A *2234:A1 5.59013e-05
78 *2240:A *524:97 0.000290109
79 *2241:A *524:78 0.000178604
80 *2263:B1 *2263:B2 4.97121e-06
81 *2301:A1 *2432:A 0
82 *2326:B *2095:B 0
83 *2490:A *2234:A1 0
84 *2490:A *2263:B2 7.79781e-06
85 *2490:A *524:97 0
86 *43:6 *524:31 9.90431e-05
87 *97:36 *2054:B 9.2668e-05
88 *97:36 *524:65 2.61408e-05
89 *97:36 *524:74 0.000257437
90 *215:12 *524:127 4.25809e-05
91 *223:8 *2218:A 0.000125392
92 *223:8 *524:127 5.33334e-05
93 *294:10 *524:33 0
94 *311:10 *2432:A 3.67142e-05
95 *326:22 *524:97 2.17375e-05
96 *326:26 *524:78 0.000681415
97 *439:10 *524:31 0.000313235
98 *475:98 *2054:B 6.03953e-05
99 *475:98 *524:65 1.97488e-05
100 *475:98 *524:74 0.000127577
101 *493:48 *524:31 0.000434806
102 *497:89 *2432:A 0.000246057
103 *510:45 *524:74 2.87041e-05
104 *516:42 *524:74 0
105 *516:48 *524:74 0
106 *517:12 *524:33 5.22029e-05
107 *517:12 *524:50 0.000196138
108 *517:23 *524:50 9.03716e-05
109 *517:60 *524:33 7.40571e-05
110 *517:62 *524:33 0.000303336
111 *520:70 *524:31 0.000349835
112 *520:106 *2234:A1 7.3237e-05
113 *520:114 *2234:A1 3.4323e-05
114 *521:49 *2263:B2 2.92655e-05
115 *521:49 *524:78 6.12335e-05
116 *523:6 *2432:A 9.41642e-05
117 *523:8 *2432:A 0
118 *523:30 *2432:A 5.10822e-05
*RES
1 *2433:X *524:6 13.8 
2 *524:6 *2432:A 20.4607 
3 *524:6 *524:31 48.9643 
4 *524:31 *524:33 6.19643 
5 *524:33 *2053:B 14.7643 
6 *524:33 *524:50 13.5536 
7 *524:50 *524:54 8.73214 
8 *524:54 *2054:B 16.05 
9 *524:54 *524:65 0.732143 
10 *524:65 *2097:A0 13.8 
11 *524:65 *524:74 23.5 
12 *524:74 *524:78 24.75 
13 *524:78 *2263:B2 20.2821 
14 *524:78 *524:97 11.2679 
15 *524:97 *2234:A1 19.675 
16 *524:97 *2179:D 13.8 
17 *524:74 *524:127 12 
18 *524:127 *2218:A 11.6393 
19 *524:127 *2217:A 9.3 
20 *524:50 *2095:B 10.5679 
*END

*D_NET *525 0.0188279
*CONN
*I *2197:A I *D sky130_fd_sc_hd__and2_1
*I *2194:B2 I *D sky130_fd_sc_hd__a32o_1
*I *2272:B I *D sky130_fd_sc_hd__and4_1
*I *2273:A1 I *D sky130_fd_sc_hd__a22oi_1
*I *2247:A I *D sky130_fd_sc_hd__nand2_1
*I *2297:B2 I *D sky130_fd_sc_hd__a22oi_1
*I *2296:A I *D sky130_fd_sc_hd__and4_1
*I *2393:B I *D sky130_fd_sc_hd__nand4_1
*I *2407:A1 I *D sky130_fd_sc_hd__a31o_1
*I *2350:A I *D sky130_fd_sc_hd__nand2_1
*I *2434:X O *D sky130_fd_sc_hd__buf_2
*CAP
1 *2197:A 0.00117593
2 *2194:B2 6.02899e-05
3 *2272:B 0
4 *2273:A1 0.000162062
5 *2247:A 0.000338568
6 *2297:B2 0.000280174
7 *2296:A 5.1491e-05
8 *2393:B 0.00105295
9 *2407:A1 0
10 *2350:A 0.000172761
11 *2434:X 0
12 *525:120 0.00225265
13 *525:103 0.00103939
14 *525:90 0.000378039
15 *525:79 0.000606253
16 *525:62 0.000392584
17 *525:51 0.000251251
18 *525:34 0.00126194
19 *525:14 0.00042324
20 *525:6 0.000297451
21 *2194:B2 *2201:A1 5.33433e-05
22 *2197:A *2197:B 9.90431e-05
23 *2273:A1 *2272:A 3.97677e-05
24 *2273:A1 *2273:A2 1.78919e-05
25 *2273:A1 *2273:B1 0.000249497
26 *2297:B2 *2295:A 8.25843e-06
27 *2350:A *2407:A2 5.59013e-05
28 *2393:B *2394:A2 0
29 *2393:B *567:56 0
30 *525:14 *526:18 1.46717e-05
31 *525:14 *540:56 0.000265385
32 *525:14 *555:12 0.00018372
33 *525:34 *540:56 0.000113056
34 *525:51 *540:56 0.000282543
35 *525:51 *540:80 6.91157e-05
36 *525:51 *540:89 9.0573e-05
37 *525:62 *540:89 3.34366e-05
38 *525:62 *540:104 6.81083e-05
39 *525:79 *540:104 0.000247629
40 *525:90 *540:104 0.000574566
41 *525:103 *2273:A2 4.73656e-05
42 *525:103 *540:104 3.34366e-05
43 *525:120 *2273:A2 1.02504e-05
44 *525:120 *2290:A 0.000113056
45 *525:120 *527:61 0.000178847
46 *525:120 *549:117 3.38136e-05
47 *525:120 *566:22 0
48 *2194:B1 *2194:B2 9.90431e-05
49 *2199:B1 *525:120 0.000132671
50 *2200:A_N *2197:A 6.95556e-05
51 *2205:B1 *2197:A 0.000170573
52 *2206:B *2197:A 0
53 *2235:B1 *525:120 0.000110626
54 *2265:C1 *525:120 6.56976e-05
55 *2276:A *2393:B 0.000199392
56 *2281:B *2273:A1 5.33005e-05
57 *2282:B *525:120 0
58 *2289:B2 *525:120 0.000306172
59 *2292:B1 *525:120 0
60 *2298:B1 *2297:B2 5.58941e-05
61 *2299:A *2297:B2 0.000112323
62 *2299:B *2297:B2 0.000219803
63 *2336:A2 *525:120 3.09963e-05
64 *2353:B *525:14 0
65 *2354:A *2350:A 1.92789e-05
66 *2354:B *525:14 9.90431e-05
67 *2402:B *2393:B 1.26634e-05
68 *2407:B1 *2350:A 4.46186e-06
69 *2410:A *2350:A 5.71472e-05
70 *2432:A *525:14 0
71 *38:12 *2393:B 0.000477173
72 *188:78 *525:120 0.000266007
73 *190:10 *2197:A 5.18646e-05
74 *190:10 *525:120 4.01643e-05
75 *190:12 *525:120 2.8266e-06
76 *197:102 *2197:A 9.91086e-05
77 *199:18 *2197:A 5.52238e-05
78 *199:33 *525:120 3.69909e-05
79 *199:35 *525:120 0.000105241
80 *202:14 *2197:A 0.000108535
81 *211:12 *2197:A 5.33433e-05
82 *254:12 *2247:A 2.59355e-05
83 *280:12 *2273:A1 9.90367e-05
84 *305:8 *2296:A 9.71197e-05
85 *311:10 *525:14 2.61099e-05
86 *367:12 *2350:A 5.80706e-06
87 *367:12 *525:14 0.000144323
88 *410:8 *2393:B 9.54798e-06
89 *490:23 *2350:A 0
90 *511:10 *2197:A 0
91 *514:10 *2197:A 0.000459726
92 *514:10 *525:120 2.24656e-05
93 *514:14 *525:120 0.000120505
94 *519:48 *525:14 5.80706e-06
95 *519:48 *525:34 5.06514e-05
96 *519:48 *525:51 0.000223652
97 *519:48 *525:62 4.8936e-05
98 *519:48 *525:79 0.000126864
99 *519:48 *525:90 0.000300126
100 *519:48 *525:103 3.90513e-05
101 *519:48 *525:120 0.000377163
102 *519:63 *525:120 0.000190554
103 *519:80 *525:120 0.000190777
104 *520:31 *2350:A 0
105 *520:31 *525:14 6.82922e-05
*RES
1 *2434:X *525:6 13.8 
2 *525:6 *525:14 11.9821 
3 *525:14 *2350:A 21.6929 
4 *525:14 *2407:A1 9.3 
5 *525:6 *525:34 1.49107 
6 *525:34 *2393:B 23.6256 
7 *525:34 *525:51 5.74107 
8 *525:51 *2296:A 14.7464 
9 *525:51 *525:62 1.33929 
10 *525:62 *2297:B2 27.2286 
11 *525:62 *525:79 3.16071 
12 *525:79 *2247:A 18.8536 
13 *525:79 *525:90 7.41071 
14 *525:90 *2273:A1 17.6393 
15 *525:90 *525:103 1.03571 
16 *525:103 *2272:B 13.8 
17 *525:103 *525:120 36.8214 
18 *525:120 *2194:B2 15.2821 
19 *525:120 *2197:A 37.4071 
*END

*D_NET *526 0.0298636
*CONN
*I *2434:A I *D sky130_fd_sc_hd__buf_2
*I *2235:A1 I *D sky130_fd_sc_hd__a221o_1
*I *2179:B I *D sky130_fd_sc_hd__or4_1
*I *2164:A1 I *D sky130_fd_sc_hd__o211a_1
*I *2161:A0 I *D sky130_fd_sc_hd__mux2_4
*I *2209:A I *D sky130_fd_sc_hd__nand2_1
*I *2210:A I *D sky130_fd_sc_hd__xnor2_1
*I *2101:B I *D sky130_fd_sc_hd__or2_2
*I *2159:B I *D sky130_fd_sc_hd__nand2_1
*I *2392:B2 I *D sky130_fd_sc_hd__a22o_1
*I *2435:X O *D sky130_fd_sc_hd__buf_4
*CAP
1 *2434:A 0
2 *2235:A1 2.23854e-05
3 *2179:B 0
4 *2164:A1 0
5 *2161:A0 0
6 *2209:A 0.000113867
7 *2210:A 0.00010761
8 *2101:B 0.000373765
9 *2159:B 0
10 *2392:B2 0.00124259
11 *2435:X 0.000321859
12 *526:111 0.000731897
13 *526:87 0.000557776
14 *526:81 0.00080701
15 *526:75 0.00025094
16 *526:73 0.0019714
17 *526:53 0.00223269
18 *526:43 0.00197872
19 *526:18 0.00300956
20 *526:12 0.000532151
21 *2101:B *2236:A2 0
22 *2101:B *546:31 2.87555e-06
23 *2209:A *549:82 4.46186e-06
24 *2210:A *551:71 0.000351156
25 *2392:B2 *2348:A2 0.0012009
26 *2392:B2 *2394:A2 0
27 *2392:B2 *535:27 3.56976e-05
28 *2392:B2 *552:32 0.000154762
29 *526:12 *544:29 7.58571e-05
30 *526:12 *566:22 0.0001098
31 *526:18 *555:31 0
32 *526:43 *2289:A2 0.000403339
33 *526:43 *529:56 1.74352e-05
34 *526:43 *555:31 0
35 *526:43 *565:67 7.71771e-05
36 *526:53 *529:56 0.000546354
37 *526:73 *2164:C1 0
38 *526:73 *2335:A2 0.000138804
39 *526:73 *529:70 0.00153298
40 *526:73 *529:78 3.07347e-05
41 *526:73 *537:107 0.000122608
42 *526:73 *546:69 1.76569e-05
43 *526:73 *565:28 0
44 *526:75 *529:78 0.000100625
45 *526:87 *546:31 2.27416e-05
46 *526:111 *549:82 7.2754e-05
47 *2101:A *2101:B 5.52302e-05
48 *2150:C1 *2101:B 0.000313241
49 *2159:A *2101:B 3.22063e-05
50 *2160:A *2101:B 5.94923e-05
51 *2160:B *2101:B 1.21258e-05
52 *2161:A1 *2101:B 2.8266e-06
53 *2161:A1 *526:87 0
54 *2163:B *526:111 1.91414e-05
55 *2164:B1 *526:73 2.89016e-05
56 *2173:A1 *526:111 0.000155036
57 *2208:A *526:111 0
58 *2213:B1 *526:111 9.04513e-05
59 *2219:A *2209:A 0.000114759
60 *2219:A *526:111 3.34295e-05
61 *2221:A3 *2209:A 3.90513e-05
62 *2235:A2 *526:53 1.46576e-05
63 *2235:B1 *526:43 0.000131159
64 *2235:B2 *526:43 0.000194677
65 *2235:C1 *526:43 5.44167e-05
66 *2240:A *526:53 2.8266e-06
67 *2289:B2 *526:43 4.7099e-05
68 *2291:B2 *526:73 0.000266745
69 *2334:B2 *526:43 0
70 *2336:A2 *526:43 0.00045069
71 *2338:B *526:73 2.32517e-05
72 *2353:A *526:12 0.000211249
73 *2353:A *526:18 5.71472e-05
74 *2353:B *526:18 4.1331e-06
75 *2394:A1 *526:12 1.33343e-05
76 *2394:A1 *526:18 5.52302e-05
77 *2459:A *526:53 0.000531883
78 *2490:A *526:73 0.000190827
79 *167:17 *526:81 9.90431e-05
80 *167:17 *526:111 0.000107062
81 *181:16 *2210:A 0.000187892
82 *188:78 *526:43 4.21584e-05
83 *205:39 *526:73 0.000136951
84 *216:19 *2209:A 1.09026e-05
85 *224:10 *2209:A 3.92854e-05
86 *242:12 *526:53 0.00148849
87 *242:12 *526:73 0.000393943
88 *259:24 *526:43 2.06112e-05
89 *475:98 *2101:B 0.000267814
90 *475:98 *526:75 1.98839e-05
91 *475:98 *526:81 0.000225609
92 *475:98 *526:87 0.000274256
93 *490:23 *526:43 0
94 *491:18 *526:53 8.36572e-05
95 *497:37 *526:75 3.82357e-05
96 *497:37 *526:81 2.89967e-05
97 *510:45 *526:81 6.9276e-05
98 *514:14 *526:43 3.17148e-05
99 *519:23 *526:12 0.000255062
100 *519:48 *526:18 0.000264521
101 *519:48 *526:43 0.00131405
102 *519:90 *526:43 1.90936e-05
103 *524:31 *2392:B2 0.000250588
104 *524:74 *526:87 0.00053875
105 *524:74 *526:111 0.000917599
106 *524:127 *2209:A 3.57844e-05
107 *524:127 *526:111 0.000209584
108 *525:14 *526:18 1.46717e-05
*RES
1 *2435:X *526:12 26.3179 
2 *526:12 *526:18 9.10714 
3 *526:18 *2392:B2 40.8893 
4 *526:18 *526:43 42.8929 
5 *526:43 *526:53 25.1786 
6 *526:53 *526:73 47.1786 
7 *526:73 *526:75 3 
8 *526:75 *526:81 7.92857 
9 *526:81 *526:87 11.8393 
10 *526:87 *2159:B 9.3 
11 *526:87 *2101:B 26.4429 
12 *526:81 *526:111 15.3036 
13 *526:111 *2210:A 17.6393 
14 *526:111 *2209:A 16.8893 
15 *526:75 *2161:A0 9.3 
16 *526:73 *2164:A1 9.3 
17 *526:53 *2179:B 9.3 
18 *526:43 *2235:A1 9.72857 
19 *526:12 *2434:A 9.3 
*END

*D_NET *527 0.017868
*CONN
*I *2347:B1 I *D sky130_fd_sc_hd__o211a_1
*I *2348:A1 I *D sky130_fd_sc_hd__a211oi_1
*I *2202:B I *D sky130_fd_sc_hd__and3_1
*I *2201:B2 I *D sky130_fd_sc_hd__a22o_1
*I *2194:A2 I *D sky130_fd_sc_hd__a32o_1
*I *2187:A2 I *D sky130_fd_sc_hd__a22oi_1
*I *2188:A2 I *D sky130_fd_sc_hd__o22a_1
*I *2273:B2 I *D sky130_fd_sc_hd__a22oi_1
*I *2272:A I *D sky130_fd_sc_hd__and4_1
*I *2295:A I *D sky130_fd_sc_hd__nand2_1
*I *2436:X O *D sky130_fd_sc_hd__buf_2
*CAP
1 *2347:B1 0
2 *2348:A1 0.000191967
3 *2202:B 9.02786e-05
4 *2201:B2 3.68833e-05
5 *2194:A2 6.40106e-05
6 *2187:A2 0
7 *2188:A2 0.000173075
8 *2273:B2 0
9 *2272:A 0.000133347
10 *2295:A 0.000467361
11 *2436:X 0.000186731
12 *527:128 0.000253328
13 *527:106 0.000434798
14 *527:67 0.000334385
15 *527:61 0.00108057
16 *527:55 0.00167084
17 *527:41 0.000472812
18 *527:31 0.0012319
19 *527:12 0.000976748
20 *527:6 0.000372995
21 *2188:A2 *572:44 5.31453e-05
22 *2201:B2 *2201:A1 2.56694e-05
23 *2201:B2 *2202:A 7.83659e-05
24 *2272:A *2273:A2 0.000181803
25 *2272:A *2273:B1 0.000139907
26 *2295:A *2296:D 5.41794e-05
27 *2295:A *538:22 0.000197977
28 *2295:A *566:22 0
29 *2348:A1 *529:22 0.000204328
30 *2348:A1 *544:29 3.19294e-05
31 *527:6 *529:8 9.66073e-06
32 *527:6 *529:12 1.58163e-05
33 *527:12 *534:96 3.69865e-05
34 *527:12 *544:31 0.000106403
35 *527:31 *534:96 9.7296e-05
36 *527:31 *544:31 0.000852766
37 *527:31 *566:22 0
38 *527:41 *545:134 3.80953e-06
39 *527:41 *549:117 0.0004032
40 *527:55 *544:31 0.00183788
41 *527:55 *549:119 0.00181541
42 *527:61 *2431:A 3.32631e-05
43 *527:106 *2199:A1 5.33005e-05
44 *527:106 *2201:A1 0.000143893
45 *527:106 *2201:A2 0.000145411
46 *527:106 *2202:A 0
47 *527:106 *544:31 0.000130034
48 *527:106 *549:119 9.28054e-05
49 *527:128 *529:22 7.8327e-05
50 *527:128 *544:29 1.17921e-05
51 *527:128 *544:31 0.000115206
52 *2187:B1 *2188:A2 4.24791e-05
53 *2187:B1 *527:61 0.000184745
54 *2187:B1 *527:67 0.000338878
55 *2188:B2 *2188:A2 0.000139907
56 *2205:A3 *2202:B 0.000139907
57 *2205:A3 *527:106 0.000181796
58 *2235:B1 *527:61 3.07552e-05
59 *2273:A1 *2272:A 3.97677e-05
60 *2281:A_N *527:31 0.000146324
61 *2282:B *527:41 4.78056e-05
62 *2297:A1 *2295:A 0.000136958
63 *2297:B2 *2295:A 8.25843e-06
64 *2299:A *2295:A 3.89391e-05
65 *2299:B *2295:A 0.000197809
66 *2299:C *2295:A 0
67 *2315:A *527:31 0.000114111
68 *2348:B1 *2348:A1 9.75232e-05
69 *2348:C1 *2348:A1 5.33005e-05
70 *190:10 *2194:A2 0
71 *205:14 *2194:A2 9.10907e-05
72 *205:14 *527:67 5.59013e-05
73 *305:8 *2295:A 0.000260574
74 *309:10 *2295:A 4.05548e-05
75 *309:10 *527:12 4.46186e-06
76 *521:18 *527:61 3.67257e-05
77 *523:66 *2295:A 0.000137983
78 *525:120 *527:61 0.000178847
*RES
1 *2436:X *527:6 11.4786 
2 *527:6 *527:12 6.78571 
3 *527:12 *2295:A 33.1929 
4 *527:12 *527:31 11.0536 
5 *527:31 *527:41 18.6607 
6 *527:41 *2272:A 12.3 
7 *527:41 *2273:B2 9.3 
8 *527:31 *527:55 23.5 
9 *527:55 *527:61 19.3929 
10 *527:61 *527:67 8.48214 
11 *527:67 *2188:A2 12.9071 
12 *527:67 *2187:A2 9.3 
13 *527:61 *2194:A2 15.1393 
14 *527:55 *527:106 19.8036 
15 *527:106 *2201:B2 19.3357 
16 *527:106 *2202:B 10.6571 
17 *527:6 *527:128 6.44643 
18 *527:128 *2348:A1 19.425 
19 *527:128 *2347:B1 13.8 
*END

*D_NET *528 0.00511643
*CONN
*I *2256:A1 I *D sky130_fd_sc_hd__a21oi_1
*I *2226:C I *D sky130_fd_sc_hd__and4b_1
*I *2225:A1_N I *D sky130_fd_sc_hd__o2bb2a_1
*I *2205:B2 I *D sky130_fd_sc_hd__a32o_1
*I *2255:A I *D sky130_fd_sc_hd__and3_1
*I *2437:X O *D sky130_fd_sc_hd__buf_1
*CAP
1 *2256:A1 0
2 *2226:C 0.000147666
3 *2225:A1_N 5.36338e-06
4 *2205:B2 0.000229214
5 *2255:A 0.000195341
6 *2437:X 0.000175709
7 *528:40 0.000184568
8 *528:23 0.0006203
9 *528:6 0.000730596
10 *2205:B2 *2201:A2 5.52302e-05
11 *2205:B2 *2201:B1 0.00011497
12 *2205:B2 *2225:A2_N 1.04232e-05
13 *2226:C *2225:A2_N 0.000108585
14 *2255:A *2256:A2 3.29299e-05
15 *2255:A *541:41 6.76043e-05
16 *528:6 *2437:A 1.56e-05
17 *528:23 *2202:A 0
18 *528:23 *2225:A2_N 0
19 *528:40 *2225:A2_N 1.32966e-05
20 *2203:A *2205:B2 8.23036e-05
21 *2203:A *2226:C 0
22 *2203:A *528:23 5.35423e-06
23 *2205:A2 *2205:B2 9.80173e-05
24 *2205:A3 *2205:B2 0.000543751
25 *2225:B1 *2226:C 0.00018372
26 *2225:B2 *2226:C 5.33005e-05
27 *2226:A_N *2226:C 0.000181796
28 *2227:A *2205:B2 5.71472e-05
29 *2227:B *2226:C 1.02936e-05
30 *2230:B *528:23 4.57538e-05
31 *2255:C *2255:A 0.000170404
32 *2256:B1 *2255:A 1.33343e-05
33 *2256:B1 *528:6 8.27532e-05
34 *2257:A *528:23 6.5185e-05
35 *2257:B *528:23 0.000151333
36 *202:14 *2205:B2 0.000162362
37 *202:24 *2205:B2 9.51896e-05
38 *207:12 *528:23 0
39 *233:12 *528:23 0.000223592
40 *261:12 *2255:A 0
41 *493:83 *528:23 0.00018344
*RES
1 *2437:X *528:6 11.4786 
2 *528:6 *2255:A 12.3179 
3 *528:6 *528:23 18.3839 
4 *528:23 *2205:B2 18.4875 
5 *528:23 *528:40 0.6875 
6 *528:40 *2225:A1_N 9.43839 
7 *528:40 *2226:C 13.675 
8 *528:6 *2256:A1 9.3 
*END

*D_NET *529 0.0234725
*CONN
*I *2436:A I *D sky130_fd_sc_hd__buf_2
*I *2437:A I *D sky130_fd_sc_hd__buf_1
*I *2179:A I *D sky130_fd_sc_hd__or4_1
*I *2164:C1 I *D sky130_fd_sc_hd__o211a_1
*I *2162:B I *D sky130_fd_sc_hd__and2_1
*I *2172:B I *D sky130_fd_sc_hd__nor2_1
*I *2393:A I *D sky130_fd_sc_hd__nand4_1
*I *2392:A1 I *D sky130_fd_sc_hd__a22o_1
*I *2438:X O *D sky130_fd_sc_hd__buf_2
*CAP
1 *2436:A 0
2 *2437:A 0.000414621
3 *2179:A 0
4 *2164:C1 3.27484e-05
5 *2162:B 0
6 *2172:B 6.9183e-05
7 *2393:A 0
8 *2392:A1 6.27012e-05
9 *2438:X 0.000221878
10 *529:78 0.000293174
11 *529:70 0.00108072
12 *529:56 0.0026501
13 *529:42 0.00346353
14 *529:22 0.00154534
15 *529:12 0.00273768
16 *529:8 0.000254122
17 *2392:A1 *2392:A2 9.71197e-05
18 *2392:A1 *2392:B1 4.89422e-05
19 *2392:A1 *2393:C 5.52302e-05
20 *2392:A1 *535:40 0.00016922
21 *2437:A *2256:A2 9.60939e-05
22 *2437:A *541:41 0.000137094
23 *2437:A *544:31 0
24 *529:22 *2393:C 0.000131439
25 *529:22 *2455:A 1.5546e-05
26 *529:22 *535:40 0.000186662
27 *529:22 *544:29 0
28 *529:22 *544:31 2.91887e-05
29 *529:22 *548:12 7.25116e-05
30 *529:22 *549:12 7.91506e-05
31 *529:42 *544:31 0.000674732
32 *529:56 *541:41 0.000482432
33 *529:70 *538:14 0.000225609
34 *529:70 *565:28 0
35 *529:78 *2236:A2 0.000169454
36 *2164:A2 *529:78 0
37 *2164:B1 *529:78 2.89016e-05
38 *2235:A2 *529:56 7.13226e-06
39 *2235:B1 *529:56 0.000525388
40 *2255:C *2437:A 2.14658e-05
41 *2256:B1 *2437:A 3.97677e-05
42 *2257:A *2437:A 2.09826e-05
43 *2257:B *2437:A 5.33005e-05
44 *2258:A *2437:A 5.71472e-05
45 *2258:A *529:56 1.33343e-05
46 *2284:B *529:42 0
47 *2291:B2 *529:70 5.86138e-05
48 *2293:A2 *2172:B 4.58194e-05
49 *2320:B *529:42 0
50 *2338:A *529:70 5.71563e-05
51 *2338:B *529:70 1.52077e-05
52 *2338:C *529:70 0.000229178
53 *2346:A1 *529:42 0.000125724
54 *2346:A2 *529:42 0
55 *2348:A1 *529:22 0.000204328
56 *2375:A *529:42 0
57 *2426:A *2172:B 0.000135028
58 *2459:A *529:56 0.000289392
59 *2490:A *529:70 0.000511578
60 *178:25 *2172:B 5.62995e-05
61 *242:12 *529:56 1.54142e-05
62 *242:12 *529:70 8.86314e-05
63 *261:12 *2437:A 3.99614e-06
64 *263:12 *2437:A 0
65 *266:10 *529:42 0
66 *273:18 *2172:B 9.90367e-05
67 *290:18 *529:42 0.000343191
68 *297:8 *529:42 0
69 *297:14 *529:42 0
70 *323:16 *529:22 0.000557559
71 *323:16 *529:42 0.000364818
72 *334:8 *529:42 0
73 *334:10 *529:42 0
74 *491:18 *529:56 4.58194e-05
75 *494:12 *529:22 0.000442326
76 *497:37 *529:70 0.000297565
77 *497:37 *529:78 0.000354105
78 *497:54 *529:70 0.000268409
79 *514:35 *529:56 7.03071e-05
80 *516:25 *529:78 0
81 *520:114 *529:70 0.000181796
82 *526:43 *529:56 1.74352e-05
83 *526:53 *529:56 0.000546354
84 *526:73 *2164:C1 0
85 *526:73 *529:70 0.00153298
86 *526:73 *529:78 3.07347e-05
87 *526:75 *529:78 0.000100625
88 *527:6 *529:8 9.66073e-06
89 *527:6 *529:12 1.58163e-05
90 *527:128 *529:22 7.8327e-05
91 *528:6 *2437:A 1.56e-05
*RES
1 *2438:X *529:8 12.2107 
2 *529:8 *529:12 5.03571 
3 *529:12 *529:22 34.0536 
4 *529:22 *2392:A1 11.4964 
5 *529:22 *2393:A 9.3 
6 *529:12 *529:42 33.5893 
7 *529:42 *529:56 29.5 
8 *529:56 *529:70 34.8571 
9 *529:70 *529:78 14.6607 
10 *529:78 *2172:B 11.4786 
11 *529:78 *2162:B 9.3 
12 *529:70 *2164:C1 10.0321 
13 *529:56 *2179:A 9.3 
14 *529:42 *2437:A 26.2286 
15 *529:8 *2436:A 9.3 
*END

*D_NET *530 0.00769437
*CONN
*I *2190:B I *D sky130_fd_sc_hd__nor3_1
*I *2184:C_N I *D sky130_fd_sc_hd__or3b_4
*I *2189:B I *D sky130_fd_sc_hd__nor3_1
*I *2193:B_N I *D sky130_fd_sc_hd__and4bb_2
*I *2182:D I *D sky130_fd_sc_hd__and4b_2
*I *2185:C I *D sky130_fd_sc_hd__or4b_4
*I *2191:C I *D sky130_fd_sc_hd__and4b_2
*I *1964:A_N I *D sky130_fd_sc_hd__and3b_2
*I *2181:C1 I *D sky130_fd_sc_hd__o2111a_1
*I *2186:B I *D sky130_fd_sc_hd__or4b_4
*I *2439:X O *D sky130_fd_sc_hd__clkbuf_2
*CAP
1 *2190:B 0
2 *2184:C_N 3.49903e-05
3 *2189:B 0
4 *2193:B_N 0.000112429
5 *2182:D 0
6 *2185:C 5.38066e-05
7 *2191:C 4.16687e-05
8 *1964:A_N 0.000306612
9 *2181:C1 0
10 *2186:B 6.2517e-05
11 *2439:X 3.14744e-06
12 *530:102 0.000529638
13 *530:45 0.000582576
14 *530:35 0.000353139
15 *530:33 0.000274931
16 *530:27 0.000336766
17 *530:25 0.000363043
18 *530:8 0.000241361
19 *530:6 0.000577174
20 *530:45 *551:49 0
21 *1955:A *530:45 0
22 *1963:A *2185:C 1.76135e-05
23 *1964:C *1964:A_N 0.000188743
24 *2181:A2 *530:45 0
25 *2181:D1 *530:45 6.3545e-05
26 *2182:C *530:33 0.000227539
27 *2186:D_N *2186:B 0.00014285
28 *2186:D_N *530:8 5.33005e-05
29 *2189:A *2186:B 0.000183675
30 *2190:C *2184:C_N 3.18676e-05
31 *2190:C *530:102 7.65719e-05
32 *2191:B *2191:C 2.89016e-05
33 *2191:D *2185:C 3.67356e-05
34 *2191:D *530:35 3.57844e-05
35 *2191:D *530:45 1.99099e-05
36 *2196:A *530:45 5.32956e-05
37 *2204:B2 *2184:C_N 0
38 *2204:B2 *530:102 0
39 *2473:A *2193:B_N 9.80173e-05
40 *2485:A *530:45 0
41 *188:10 *2193:B_N 5.33005e-05
42 *188:10 *530:25 0.000173804
43 *188:10 *530:27 0.000230475
44 *189:18 *530:6 5.71472e-05
45 *189:18 *530:8 0.00016834
46 *189:18 *530:102 0.000163155
47 *192:37 *1964:A_N 7.68473e-05
48 *197:60 *1964:A_N 9.31893e-05
49 *315:8 *2185:C 2.39876e-05
50 *315:8 *530:45 5.16492e-05
51 *326:22 *1964:A_N 0.000241886
52 *326:22 *530:45 5.52302e-05
53 *489:35 *2193:B_N 3.98559e-05
54 *489:35 *530:27 0.000117956
55 *489:35 *530:33 0.000229456
56 *489:44 *530:33 7.96236e-05
57 *492:10 *530:25 0
58 *511:53 *2184:C_N 1.02821e-05
59 *511:87 *2186:B 0.000338871
60 *511:87 *530:8 8.27532e-05
61 *511:97 *2185:C 5.58941e-05
62 *511:97 *530:33 5.33005e-05
63 *511:97 *530:35 7.83659e-05
64 *511:97 *530:45 8.07951e-05
65 *523:115 *2184:C_N 6.05161e-06
*RES
1 *2439:X *530:6 9.83571 
2 *530:6 *530:8 2.17857 
3 *530:8 *2186:B 13.0589 
4 *530:8 *530:25 11.25 
5 *530:25 *530:27 3.41071 
6 *530:27 *530:33 9.16071 
7 *530:33 *530:35 1.03571 
8 *530:35 *530:45 9.76786 
9 *530:45 *2181:C1 9.3 
10 *530:45 *1964:A_N 15.2107 
11 *530:35 *2191:C 14.3357 
12 *530:33 *2185:C 15.1393 
13 *530:27 *2182:D 9.3 
14 *530:25 *2193:B_N 11.4786 
15 *530:8 *2189:B 9.3 
16 *530:6 *530:102 7.44643 
17 *530:102 *2184:C_N 10.675 
18 *530:102 *2190:B 9.3 
*END

*D_NET *531 0.0154491
*CONN
*I *2147:C1 I *D sky130_fd_sc_hd__a221o_1
*I *1965:C I *D sky130_fd_sc_hd__or4_4
*I *2043:B I *D sky130_fd_sc_hd__or4_4
*I *2042:B I *D sky130_fd_sc_hd__nor4_1
*I *2086:C1 I *D sky130_fd_sc_hd__a311oi_4
*I *2440:X O *D sky130_fd_sc_hd__buf_6
*CAP
1 *2147:C1 0
2 *1965:C 0.00194267
3 *2043:B 0.000148889
4 *2042:B 1.7778e-05
5 *2086:C1 0.00106009
6 *2440:X 0.000375979
7 *531:66 0.00227892
8 *531:24 0.00116972
9 *531:22 0.00104891
10 *531:14 0.00114568
11 *1965:C *1965:B 0.000488626
12 *1965:C *2448:A 4.04863e-05
13 *1965:C *534:75 0
14 *1965:C *539:72 0
15 *1965:C *542:139 3.92854e-05
16 *1965:C *549:51 0
17 *1965:C *550:68 0.000101825
18 *1965:C *567:56 0
19 *2042:B *536:57 5.52238e-05
20 *2043:B *1965:B 0.000140521
21 *2043:B *2041:A 0.000122424
22 *2043:B *536:57 7.61109e-05
23 *2086:C1 *2086:B1 0
24 *531:14 *561:10 0.000227532
25 *531:22 *2451:A 9.21418e-06
26 *531:22 *536:50 2.78729e-05
27 *531:22 *542:18 4.35048e-05
28 *531:22 *542:77 0.000146111
29 *531:22 *567:22 0
30 *531:24 *534:45 7.6644e-05
31 *531:24 *536:50 1.99329e-05
32 *531:66 *1960:A 3.67257e-05
33 *531:66 *542:88 0.000266513
34 *2016:A *2043:B 8.44271e-06
35 *2059:B *2086:C1 0
36 *2073:A *2086:C1 0.00040919
37 *2077:A *2086:C1 0.000358971
38 *2081:A *2086:C1 5.33005e-05
39 *2081:B *2086:C1 5.33005e-05
40 *2081:C *2086:C1 4.26986e-05
41 *2083:A2 *2086:C1 2.59355e-05
42 *2083:B1 *2086:C1 3.52966e-05
43 *2130:A *531:14 0.000125731
44 *2130:B *531:14 0.000127439
45 *2147:A1 *531:14 1.58163e-05
46 *2147:B1 *531:22 4.62516e-05
47 *2147:B2 *531:14 1.97695e-05
48 *2152:A *531:22 0.000127446
49 *2153:A2 *531:22 5.54856e-05
50 *2500:A *531:14 4.70048e-05
51 *45:42 *2086:C1 4.46186e-06
52 *48:12 *2042:B 2.59355e-05
53 *48:12 *2086:C1 0.000125724
54 *50:37 *1965:C 0.000158705
55 *61:16 *531:24 9.97669e-05
56 *61:16 *531:66 0.000833097
57 *67:16 *2086:C1 0
58 *67:48 *2086:C1 0
59 *76:16 *2086:C1 9.83388e-05
60 *79:10 *2086:C1 0.000143652
61 *84:29 *2086:C1 0.000183245
62 *129:23 *531:14 0.000145224
63 *158:12 *531:22 0
64 *283:10 *2086:C1 0
65 *283:10 *531:24 0
66 *471:29 *2043:B 2.14658e-05
67 *471:43 *2086:C1 0.000339987
68 *471:43 *531:24 9.20464e-06
69 *471:94 *531:22 2.6949e-05
70 *471:94 *531:24 7.79781e-06
71 *495:10 *531:22 0.000472156
72 *496:18 *531:22 0
73 *516:73 *531:66 9.41642e-05
74 *516:85 *2043:B 0
*RES
1 *2440:X *531:14 26.6571 
2 *531:14 *531:22 21.2857 
3 *531:22 *531:24 2.25 
4 *531:24 *2086:C1 46.8 
5 *531:24 *2042:B 14.3357 
6 *531:22 *531:66 17.3393 
7 *531:66 *2043:B 17.2018 
8 *531:66 *1965:C 31.7244 
9 *531:14 *2147:C1 9.3 
*END

*D_NET *532 0.00654017
*CONN
*I *2416:A2 I *D sky130_fd_sc_hd__o22a_1
*I *2417:A2 I *D sky130_fd_sc_hd__a32o_1
*I *2383:B I *D sky130_fd_sc_hd__xnor2_1
*I *2393:C I *D sky130_fd_sc_hd__nand4_1
*I *2392:A2 I *D sky130_fd_sc_hd__a22o_1
*I *2415:A2 I *D sky130_fd_sc_hd__a21oi_1
*I *2441:X O *D sky130_fd_sc_hd__clkbuf_2
*CAP
1 *2416:A2 0.00014326
2 *2417:A2 7.80818e-05
3 *2383:B 0
4 *2393:C 7.0026e-05
5 *2392:A2 4.57542e-05
6 *2415:A2 0.000168196
7 *2441:X 0.000121665
8 *532:52 0.000221342
9 *532:29 0.00100061
10 *532:25 0.00111445
11 *532:23 0.000437794
12 *532:6 0.000498029
13 *2415:A2 *553:24 6.81294e-05
14 *2415:A2 *553:30 5.31122e-05
15 *532:23 *553:30 9.74492e-05
16 *532:25 *553:30 0.000199315
17 *532:29 *2348:A2 0
18 *532:29 *2394:A2 0.000136754
19 *532:29 *535:27 0.000108315
20 *532:29 *540:37 0.000286947
21 *532:29 *545:27 0.000171375
22 *532:29 *551:29 0.000102847
23 *532:29 *553:30 3.17163e-05
24 *1967:A2 *532:29 3.92757e-05
25 *2380:A1 *2417:A2 0
26 *2380:C1 *532:23 2.37761e-05
27 *2380:C1 *532:25 6.35798e-05
28 *2387:A *532:25 0.000126439
29 *2392:A1 *2392:A2 9.71197e-05
30 *2392:A1 *2393:C 5.52302e-05
31 *2402:B *532:29 0
32 *2417:A1 *2416:A2 2.07382e-05
33 *2417:A1 *2417:A2 2.28499e-05
34 *2417:A3 *2416:A2 1.56e-05
35 *2417:A3 *2417:A2 1.24368e-05
36 *2417:A3 *532:23 0.000121573
37 *2418:A2 *2415:A2 6.29378e-05
38 *2418:B1 *532:6 1.24368e-05
39 *2418:B1 *532:23 0.000137983
40 *2418:C1 *2415:A2 5.54204e-05
41 *183:10 *2415:A2 9.90723e-05
42 *183:10 *532:29 0
43 *199:51 *532:6 3.63775e-05
44 *412:12 *532:29 0
45 *492:39 *532:25 5.67133e-05
46 *492:39 *532:29 9.11365e-06
47 *492:43 *532:29 0.000169077
48 *492:54 *532:29 0
49 *492:93 *2416:A2 1.58163e-05
50 *492:100 *2417:A2 0
51 *529:22 *2393:C 0.000131439
*RES
1 *2441:X *532:6 10.6571 
2 *532:6 *2415:A2 21.7643 
3 *532:6 *532:23 8.41071 
4 *532:23 *532:25 6.5 
5 *532:25 *532:29 24.3571 
6 *532:29 *2392:A2 10.2464 
7 *532:29 *2393:C 11.0679 
8 *532:25 *2383:B 13.8 
9 *532:23 *532:52 4.5 
10 *532:52 *2417:A2 10.9964 
11 *532:52 *2416:A2 11.0679 
*END

*D_NET *533 0.00364291
*CONN
*I *2438:A I *D sky130_fd_sc_hd__buf_2
*I *2477:X O *D sky130_fd_sc_hd__clkbuf_1
*CAP
1 *2438:A 0
2 *2477:X 0.00144163
3 *533:16 0.00144163
4 *2372:B *533:16 0
5 *2412:A *533:16 0
6 *2467:A *533:16 0.000117421
7 *2479:A *533:16 0.000149436
8 *385:21 *533:16 0.000195228
9 *494:12 *533:16 0.000297559
*RES
1 *2477:X *533:16 46.2464 
2 *533:16 *2438:A 9.3 
*END

*D_NET *534 0.031326
*CONN
*I *2133:A I *D sky130_fd_sc_hd__xor2_1
*I *2170:A1 I *D sky130_fd_sc_hd__a21oi_1
*I *2108:A I *D sky130_fd_sc_hd__xnor2_1
*I *1962:A I *D sky130_fd_sc_hd__inv_2
*I *2340:A I *D sky130_fd_sc_hd__xor2_1
*I *2347:C1 I *D sky130_fd_sc_hd__o211a_1
*I *1965:D I *D sky130_fd_sc_hd__or4_4
*I *2043:C I *D sky130_fd_sc_hd__or4_4
*I *2042:C I *D sky130_fd_sc_hd__nor4_1
*I *2086:B1 I *D sky130_fd_sc_hd__a311oi_4
*I *2442:X O *D sky130_fd_sc_hd__buf_4
*CAP
1 *2133:A 0
2 *2170:A1 0.000596756
3 *2108:A 0
4 *1962:A 0
5 *2340:A 0.000372421
6 *2347:C1 4.76723e-05
7 *1965:D 0
8 *2043:C 0
9 *2042:C 0
10 *2086:B1 0.000176556
11 *2442:X 0
12 *534:140 0.00174183
13 *534:96 0.0013813
14 *534:79 0.00152204
15 *534:75 0.00197891
16 *534:56 0.00159965
17 *534:45 0.00164124
18 *534:24 0.00257237
19 *534:14 0.0011332
20 *534:10 0.000397056
21 *534:4 0.00134506
22 *2340:A *2325:A1 0
23 *2340:A *542:139 0.000198927
24 *534:24 *539:34 0
25 *534:45 *1960:A 1.40306e-05
26 *534:45 *536:50 0.000368419
27 *534:56 *536:57 0.000662674
28 *534:56 *567:56 0.000106924
29 *534:75 *2448:A 4.04863e-05
30 *534:75 *536:57 2.19064e-05
31 *534:75 *542:139 7.15687e-05
32 *534:75 *543:72 0.000135846
33 *534:75 *567:56 0.00217727
34 *534:79 *1965:B 0.000183422
35 *534:79 *538:14 5.33005e-05
36 *534:96 *538:14 0.000169366
37 *534:96 *538:20 0.00192382
38 *534:96 *540:33 0.00118233
39 *534:96 *545:27 2.59355e-05
40 *534:96 *545:36 0.000255204
41 *534:96 *566:22 0.000304975
42 *534:140 *539:8 3.48235e-05
43 *534:140 *539:26 0.000338525
44 *1965:C *534:75 0
45 *2016:A *534:75 4.00349e-05
46 *2086:C1 *2086:B1 0
47 *2108:B *534:10 9.90367e-05
48 *2108:B *534:14 0.000106855
49 *2108:B *534:24 2.10446e-05
50 *2110:B *534:45 4.43256e-05
51 *2114:B *534:45 0.000136682
52 *2121:A1 *534:24 0.000577707
53 *2121:A2 *534:24 4.43256e-05
54 *2122:B1 *534:24 1.74352e-05
55 *2123:B1 *534:14 0.000117421
56 *2125:A *534:24 5.33005e-05
57 *2128:A2 *534:24 3.17067e-05
58 *2134:C *2170:A1 1.21289e-05
59 *2169:A *2170:A1 0.000155445
60 *2169:A *534:140 4.3537e-05
61 *2170:A2 *2170:A1 0.000445577
62 *2170:B1 *2170:A1 1.66568e-05
63 *2313:A *534:96 2.95726e-05
64 *2313:B *534:96 5.52238e-05
65 *2314:A1 *534:96 1.72168e-05
66 *2315:A *534:96 5.58941e-05
67 *2326:B *2340:A 6.05161e-06
68 *2347:A2 *2347:C1 9.71197e-05
69 *2384:A2 *2340:A 0.00018077
70 *2384:B1 *2340:A 0.000139907
71 *2443:A *534:24 0
72 *2470:A *534:14 0
73 *50:37 *534:75 0
74 *61:16 *534:45 5.52238e-05
75 *61:16 *534:56 4.08637e-05
76 *67:48 *2086:B1 0.000314458
77 *67:48 *534:24 0.000810709
78 *92:10 *2086:B1 0
79 *92:10 *534:24 0
80 *114:12 *534:10 7.18788e-05
81 *135:14 *534:140 0.000403196
82 *283:10 *534:45 2.88018e-06
83 *288:18 *534:96 1.16848e-05
84 *306:30 *2347:C1 7.32272e-05
85 *309:10 *534:96 0.000117896
86 *309:14 *534:96 3.34366e-05
87 *337:14 *534:96 0.000142856
88 *337:34 *534:96 0.000566239
89 *348:8 *534:96 9.60939e-05
90 *423:10 *534:75 1.91512e-05
91 *471:29 *534:56 0.000503399
92 *471:29 *534:75 3.33174e-05
93 *471:33 *534:56 9.90431e-05
94 *492:54 *534:96 0.00014285
95 *497:12 *534:140 0
96 *499:10 *534:140 0.000255896
97 *527:12 *534:96 3.69865e-05
98 *527:31 *534:96 9.7296e-05
99 *531:24 *534:45 7.6644e-05
*RES
1 *2442:X *534:4 9.3 
2 *534:4 *534:10 3.96429 
3 *534:10 *534:14 9.48214 
4 *534:14 *534:24 30.3393 
5 *534:24 *2086:B1 17.8714 
6 *534:24 *534:45 32.4464 
7 *534:45 *2042:C 9.3 
8 *534:45 *534:56 7.45536 
9 *534:56 *2043:C 9.3 
10 *534:56 *534:75 22.3166 
11 *534:75 *534:79 8.32143 
12 *534:79 *1965:D 9.3 
13 *534:79 *534:96 49.5357 
14 *534:96 *2347:C1 10.6571 
15 *534:75 *2340:A 21.4964 
16 *534:14 *1962:A 13.8 
17 *534:10 *2108:A 9.3 
18 *534:4 *534:140 34.0357 
19 *534:140 *2170:A1 17.9607 
20 *534:140 *2133:A 9.3 
*END

*D_NET *535 0.0151726
*CONN
*I *2376:A2 I *D sky130_fd_sc_hd__a21oi_1
*I *2378:A2 I *D sky130_fd_sc_hd__a32o_1
*I *2377:A2 I *D sky130_fd_sc_hd__o22a_1
*I *2348:A2 I *D sky130_fd_sc_hd__a211oi_1
*I *2393:D I *D sky130_fd_sc_hd__nand4_1
*I *2392:B1 I *D sky130_fd_sc_hd__a22o_1
*I *2384:A1 I *D sky130_fd_sc_hd__a21o_1
*I *2443:X O *D sky130_fd_sc_hd__clkbuf_2
*CAP
1 *2376:A2 0.000112984
2 *2378:A2 0
3 *2377:A2 0.000243171
4 *2348:A2 0.000808952
5 *2393:D 3.67058e-05
6 *2392:B1 6.4479e-05
7 *2384:A1 0.000236353
8 *2443:X 0
9 *535:87 0.000143442
10 *535:72 0.00106764
11 *535:40 0.00101823
12 *535:27 0.000758086
13 *535:21 0.00205231
14 *535:4 0.00097362
15 *2348:A2 *540:52 8.60763e-05
16 *2348:A2 *555:31 7.1271e-05
17 *2376:A2 *553:12 7.14469e-05
18 *2376:A2 *553:14 4.45756e-05
19 *2377:A2 *2377:A1 2.24763e-05
20 *2377:A2 *572:29 0.00010096
21 *535:27 *1967:B1 0.00038501
22 *535:27 *2394:A2 0.000222885
23 *535:27 *540:37 0.000699739
24 *535:27 *545:27 1.17968e-05
25 *535:27 *548:104 0.000311028
26 *535:27 *551:29 0.000125466
27 *535:27 *552:26 0
28 *535:27 *552:32 0
29 *535:72 *1967:A1 0
30 *535:72 *545:115 0
31 *535:72 *553:24 9.39125e-05
32 *535:87 *553:14 1.02504e-05
33 *535:87 *553:24 4.7585e-05
34 *535:87 *572:29 0
35 *2298:A2 *2348:A2 0.000144773
36 *2300:A *2348:A2 2.89114e-05
37 *2348:C1 *2348:A2 4.24803e-05
38 *2377:B2 *2376:A2 3.72394e-05
39 *2377:B2 *2377:A2 3.48705e-05
40 *2378:A3 *2377:A2 1.92905e-05
41 *2384:A2 *2384:A1 0
42 *2384:B1 *2384:A1 5.3461e-05
43 *2385:B *2384:A1 0.000110589
44 *2385:B *535:21 0.000345292
45 *2385:B *535:72 0.000231516
46 *2392:A1 *2392:B1 4.89422e-05
47 *2392:A1 *535:40 0.00016922
48 *2392:B2 *2348:A2 0.0012009
49 *2392:B2 *535:27 3.56976e-05
50 *2402:B *2348:A2 0.00012401
51 *2402:B *2393:D 5.4695e-05
52 *2416:B2 *2377:A2 5.33005e-05
53 *2416:B2 *535:72 0.000294963
54 *2503:A *535:27 1.40849e-05
55 *183:10 *535:27 6.19181e-05
56 *188:20 *2376:A2 0
57 *188:20 *2377:A2 1.95646e-05
58 *188:20 *535:87 0
59 *188:26 *2377:A2 2.44318e-05
60 *197:68 *2376:A2 2.40966e-05
61 *353:16 *2384:A1 4.40596e-05
62 *492:33 *535:72 0.000206091
63 *492:39 *535:72 0.000590872
64 *492:43 *535:72 0.000223592
65 *524:31 *2348:A2 0.000818358
66 *529:22 *535:40 0.000186662
67 *532:29 *2348:A2 0
68 *532:29 *535:27 0.000108315
*RES
1 *2443:X *535:4 9.3 
2 *535:4 *2384:A1 14.1214 
3 *535:4 *535:21 12.4464 
4 *535:21 *535:27 25.2143 
5 *535:27 *2392:B1 10.5679 
6 *535:27 *535:40 7.91071 
7 *535:40 *2393:D 14.5321 
8 *535:40 *2348:A2 34.7821 
9 *535:21 *535:72 22.8571 
10 *535:72 *2377:A2 18.175 
11 *535:72 *535:87 0.732143 
12 *535:87 *2378:A2 13.8 
13 *535:87 *2376:A2 16.05 
*END

*D_NET *536 0.016439
*CONN
*I *2043:A I *D sky130_fd_sc_hd__or4_4
*I *1965:B I *D sky130_fd_sc_hd__or4_4
*I *2042:A I *D sky130_fd_sc_hd__nor4_1
*I *2063:B1 I *D sky130_fd_sc_hd__a21o_1
*I *2062:A I *D sky130_fd_sc_hd__and3_1
*I *2444:X O *D sky130_fd_sc_hd__buf_6
*CAP
1 *2043:A 0
2 *1965:B 0.00181693
3 *2042:A 0
4 *2063:B1 0
5 *2062:A 0.000458168
6 *2444:X 0.000728457
7 *536:57 0.00197414
8 *536:50 0.00146489
9 *536:16 0.000796033
10 *536:8 0.002374
11 *1965:B *538:14 0.0001827
12 *536:8 *539:26 0.000108799
13 *536:8 *539:40 0
14 *536:50 *2060:A 3.47797e-05
15 *536:57 *2041:A 4.97879e-05
16 *536:57 *543:59 0.000133656
17 *1965:C *1965:B 0.000488626
18 *2016:A *1965:B 0.000160869
19 *2042:B *536:57 5.52238e-05
20 *2042:D *536:57 5.52238e-05
21 *2043:B *1965:B 0.000140521
22 *2043:B *536:57 7.61109e-05
23 *2043:D *536:57 0.000537171
24 *2062:B *536:16 7.92879e-05
25 *2085:A1 *536:16 5.76372e-05
26 *2085:A1 *536:50 0.000140933
27 *2086:A3 *536:16 0.000290846
28 *2088:A *536:8 4.06782e-05
29 *2088:A *536:16 4.38604e-05
30 *2089:A0 *536:8 0
31 *2089:A1 *536:8 0.000174812
32 *2091:A0 *1965:B 2.42516e-05
33 *2091:S *1965:B 0.000258011
34 *2106:B *536:8 0
35 *2107:B1 *536:8 0
36 *2110:B *536:50 7.91848e-05
37 *2111:A1 *536:50 0.000274245
38 *2114:B *536:50 1.46231e-05
39 *2115:A1 *536:50 0.000276211
40 *2118:A *536:8 1.37644e-05
41 *2121:A2 *536:8 4.61329e-05
42 *2122:B1 *536:8 1.59782e-05
43 *2129:B1 *536:8 0
44 *2443:A *536:8 0
45 *48:12 *536:57 1.56e-05
46 *61:16 *536:50 5.52302e-05
47 *61:16 *536:57 0.00014183
48 *64:18 *2062:A 0
49 *67:29 *536:16 1.02415e-05
50 *69:10 *2062:A 7.50473e-05
51 *69:10 *536:16 0
52 *70:22 *536:16 0.000126551
53 *95:10 *536:8 0
54 *95:19 *536:8 0
55 *283:10 *536:50 0.000315339
56 *471:29 *536:57 6.87146e-05
57 *512:36 *1965:B 0.000537171
58 *516:52 *1965:B 0.00034251
59 *531:22 *536:50 2.78729e-05
60 *531:24 *536:50 1.99329e-05
61 *534:45 *536:50 0.000368419
62 *534:56 *536:57 0.000662674
63 *534:75 *536:57 2.19064e-05
64 *534:79 *1965:B 0.000183422
*RES
1 *2444:X *536:8 27.5857 
2 *536:8 *536:16 13.4821 
3 *536:16 *2062:A 26.5143 
4 *536:16 *2063:B1 9.3 
5 *536:8 *536:50 37.6964 
6 *536:50 *2042:A 9.3 
7 *536:50 *536:57 8.75 
8 *536:57 *1965:B 48.8893 
9 *536:57 *2043:A 9.3 
*END

*D_NET *537 0.020242
*CONN
*I *2335:A2 I *D sky130_fd_sc_hd__a32o_1
*I *2339:A1 I *D sky130_fd_sc_hd__a21o_1
*I *2326:A I *D sky130_fd_sc_hd__xnor2_1
*I *2334:A2 I *D sky130_fd_sc_hd__o22a_1
*I *2333:A2 I *D sky130_fd_sc_hd__a21oi_1
*I *2407:A2 I *D sky130_fd_sc_hd__a31o_1
*I *2391:B I *D sky130_fd_sc_hd__nand2_1
*I *2350:B I *D sky130_fd_sc_hd__nand2_1
*I *2445:X O *D sky130_fd_sc_hd__buf_2
*CAP
1 *2335:A2 4.85536e-05
2 *2339:A1 0
3 *2326:A 0.000270501
4 *2334:A2 1.67373e-05
5 *2333:A2 3.75792e-05
6 *2407:A2 0.000240482
7 *2391:B 0.000652523
8 *2350:B 0.000135794
9 *2445:X 0.000117298
10 *537:107 0.00125284
11 *537:95 0.0013285
12 *537:49 0.000893005
13 *537:36 0.00129707
14 *537:30 0.00133198
15 *537:26 0.00081058
16 *537:10 0.00107563
17 *2335:A2 *546:44 6.33321e-05
18 *2335:A2 *546:69 8.59242e-05
19 *2350:B *545:54 0
20 *2391:B *2301:A2 5.03772e-05
21 *537:10 *552:26 6.51976e-05
22 *537:10 *554:97 6.2824e-05
23 *537:26 *552:26 1.82528e-05
24 *537:26 *554:97 8.66838e-05
25 *537:36 *2301:B1 0.000172375
26 *537:36 *545:50 0
27 *537:36 *545:54 0
28 *537:107 *2328:A 0.00014183
29 *537:107 *2342:A 2.95641e-05
30 *537:107 *2452:A 0.000101545
31 *537:107 *546:44 0.000679307
32 *537:107 *553:30 5.30637e-06
33 *537:107 *554:81 2.24079e-05
34 *537:107 *565:28 0
35 *2150:C1 *2326:A 0.000126963
36 *2232:A_N *2334:A2 1.5424e-05
37 *2232:A_N *537:26 0.000392026
38 *2293:C1 *537:26 0.000188945
39 *2327:B *2326:A 0
40 *2327:B *537:107 4.59075e-05
41 *2334:A1 *2334:A2 5.71472e-05
42 *2335:A1 *537:10 9.60875e-05
43 *2338:B *2334:A2 9.90431e-05
44 *2338:B *537:26 0.000576374
45 *2338:B *537:95 0.000386121
46 *2339:A2 *2326:A 5.33433e-05
47 *2341:A *537:107 0.000357952
48 *2345:B *537:107 3.92757e-05
49 *2350:A *2407:A2 5.59013e-05
50 *2379:A1 *537:26 2.74981e-06
51 *2379:C1 *537:26 4.6025e-06
52 *2382:A2 *537:107 0.000105163
53 *2391:A *2391:B 4.7056e-05
54 *2399:A *2391:B 0.000103033
55 *2406:A *2391:B 0.000294349
56 *2410:A *2350:B 0.00014183
57 *2416:B1 *2333:A2 9.90431e-05
58 *2418:B1 *537:26 0.000410388
59 *2419:B1 *537:26 0.000211839
60 *2432:A *537:36 0.000138826
61 *2441:A *537:26 0.000119041
62 *199:43 *537:26 0.000116039
63 *219:23 *2326:A 0.000125241
64 *254:12 *537:36 0.000125717
65 *257:12 *537:36 8.17617e-05
66 *284:12 *537:36 0.00023007
67 *287:12 *537:36 0.000147583
68 *311:10 *2391:B 9.90367e-05
69 *311:10 *2407:A2 0.000310286
70 *341:12 *537:107 0.000314139
71 *343:23 *537:107 0
72 *352:12 *537:107 1.58163e-05
73 *353:16 *537:107 0.000164361
74 *355:12 *537:107 0.000232399
75 *490:23 *2350:B 0.000151333
76 *490:23 *537:30 2.8266e-06
77 *490:23 *537:36 0.00148335
78 *490:32 *537:30 4.58101e-05
79 *490:53 *537:30 6.8646e-06
80 *493:50 *537:30 8.55901e-05
81 *493:50 *537:36 0.000812998
82 *520:31 *2407:A2 0
83 *523:6 *2391:B 8.81471e-06
84 *524:31 *537:36 0.000158147
85 *526:73 *2335:A2 0.000138804
86 *526:73 *537:107 0.000122608
*RES
1 *2445:X *537:10 15.7821 
2 *537:10 *537:26 20.4321 
3 *537:26 *537:30 7.05357 
4 *537:30 *537:36 36.1071 
5 *537:36 *2350:B 17.1036 
6 *537:36 *537:49 4.5 
7 *537:49 *2391:B 18.8 
8 *537:49 *2407:A2 22.0321 
9 *537:30 *2333:A2 14.7464 
10 *537:26 *2334:A2 10.2464 
11 *537:10 *537:95 12.8214 
12 *537:95 *537:107 28.8929 
13 *537:107 *2326:A 22.8536 
14 *537:107 *2339:A1 9.3 
15 *537:95 *2335:A2 15.7464 
*END

*D_NET *538 0.0125596
*CONN
*I *1965:A I *D sky130_fd_sc_hd__or4_4
*I *2273:B1 I *D sky130_fd_sc_hd__a22oi_1
*I *2272:D I *D sky130_fd_sc_hd__and4_1
*I *2297:B1 I *D sky130_fd_sc_hd__a22oi_1
*I *2296:D I *D sky130_fd_sc_hd__and4_1
*I *2446:X O *D sky130_fd_sc_hd__buf_8
*CAP
1 *1965:A 0
2 *2273:B1 5.4531e-05
3 *2272:D 0
4 *2297:B1 9.08688e-05
5 *2296:D 3.99885e-05
6 *2446:X 0.000994465
7 *538:46 0.00025187
8 *538:22 0.000346912
9 *538:20 0.00187963
10 *538:14 0.0024607
11 *2273:B1 *2273:A2 4.25163e-05
12 *2296:D *540:80 1.02504e-05
13 *2296:D *540:89 0.000102545
14 *2297:B1 *2297:A2 0.000250399
15 *538:14 *540:33 5.05058e-05
16 *538:22 *540:89 2.31791e-05
17 *538:22 *540:104 0.000484429
18 *538:22 *566:22 0
19 *538:46 *2273:A2 1.02504e-05
20 *538:46 *540:104 0.000422519
21 *538:46 *549:117 0.000146316
22 *538:46 *566:22 0
23 *1965:B *538:14 0.0001827
24 *2265:A2 *538:14 0
25 *2272:A *2273:B1 0.000139907
26 *2273:A1 *2273:B1 0.000249497
27 *2274:B *538:46 2.53504e-05
28 *2295:A *2296:D 5.41794e-05
29 *2295:A *538:22 0.000197977
30 *2297:A1 *2297:B1 2.60232e-05
31 *2298:A1 *2296:D 5.80706e-06
32 *2299:B *2296:D 1.81709e-05
33 *2331:B *538:14 0.000130448
34 *2337:A2 *538:14 0
35 *2337:A3 *538:14 0.000310397
36 *2338:C *538:14 0
37 *2443:A *538:14 9.60337e-06
38 *50:37 *538:14 1.84886e-05
39 *280:12 *538:46 0
40 *305:8 *2297:B1 0.000175892
41 *337:14 *538:20 0.000142856
42 *337:34 *538:20 0.000552904
43 *341:12 *538:14 9.01334e-05
44 *342:10 *538:14 3.69697e-05
45 *348:8 *538:20 9.60939e-05
46 *353:16 *538:14 6.22677e-05
47 *529:70 *538:14 0.000225609
48 *534:79 *538:14 5.33005e-05
49 *534:96 *538:14 0.000169366
50 *534:96 *538:20 0.00192382
*RES
1 *2446:X *538:14 39.7821 
2 *538:14 *538:20 32.1607 
3 *538:20 *538:22 6.5 
4 *538:22 *2296:D 15.1393 
5 *538:22 *2297:B1 16.7107 
6 *538:20 *538:46 10.0893 
7 *538:46 *2272:D 9.3 
8 *538:46 *2273:B1 11.9429 
9 *538:14 *1965:A 9.3 
*END

*D_NET *539 0.0254526
*CONN
*I *2143:A I *D sky130_fd_sc_hd__nand2_1
*I *2142:A I *D sky130_fd_sc_hd__or2_1
*I *2113:A I *D sky130_fd_sc_hd__xor2_1
*I *2119:A1 I *D sky130_fd_sc_hd__o22a_1
*I *2112:A I *D sky130_fd_sc_hd__and2_1
*I *2041:A I *D sky130_fd_sc_hd__and3_1
*I *2038:B1 I *D sky130_fd_sc_hd__a21oi_1
*I *2395:D_N I *D sky130_fd_sc_hd__or4b_1
*I *2060:A I *D sky130_fd_sc_hd__xnor2_1
*I *2059:A I *D sky130_fd_sc_hd__or2_1
*I *2447:X O *D sky130_fd_sc_hd__buf_2
*CAP
1 *2143:A 7.12796e-05
2 *2142:A 5.06102e-05
3 *2113:A 0.000191512
4 *2119:A1 4.0372e-05
5 *2112:A 0.000107144
6 *2041:A 0.000312266
7 *2038:B1 0
8 *2395:D_N 0.000348604
9 *2060:A 0.000514099
10 *2059:A 0.000249684
11 *2447:X 3.62408e-05
12 *539:140 0.00147884
13 *539:125 0.00154846
14 *539:76 0.000467549
15 *539:72 0.0018927
16 *539:40 0.000962873
17 *539:34 0.00205549
18 *539:30 0.000680572
19 *539:26 0.00096534
20 *539:8 0.000782691
21 *2119:A1 *2107:A2 0.000141734
22 *2119:A1 *567:22 0.000104704
23 *2395:D_N *2033:A 0.000528343
24 *2395:D_N *542:92 0.000119285
25 *539:26 *2107:A2 0.000307343
26 *539:26 *567:22 0.000194799
27 *539:30 *2107:A2 0
28 *539:72 *542:92 9.37013e-05
29 *539:72 *542:128 0
30 *1965:C *539:72 0
31 *2041:C *2041:A 5.52238e-05
32 *2043:B *2041:A 0.000122424
33 *2043:D *2041:A 0.000363837
34 *2045:C *2395:D_N 1.02504e-05
35 *2045:C *539:76 2.0953e-05
36 *2063:A2 *2059:A 0
37 *2085:A1 *2059:A 0.000107506
38 *2085:A1 *2060:A 0.000142856
39 *2085:A1 *539:40 2.6949e-05
40 *2086:A1 *2059:A 0.000129868
41 *2086:A2 *2059:A 1.17968e-05
42 *2088:B *539:40 0.000178776
43 *2088:B *539:72 0.000193132
44 *2089:A0 *2060:A 0.000142797
45 *2106:B *539:26 9.90367e-05
46 *2107:B1 *2059:A 0.000546001
47 *2107:B1 *539:40 0.000196262
48 *2113:B *2113:A 0.000219456
49 *2113:B *539:140 0.000729676
50 *2115:S *539:72 5.71472e-05
51 *2117:B *539:140 2.94709e-06
52 *2118:A *539:26 0.000135506
53 *2126:B1 *2112:A 7.20217e-06
54 *2127:A *2112:A 1.13883e-05
55 *2127:C_N *2112:A 0.000141734
56 *2127:C_N *539:30 0.000217756
57 *2128:A2 *539:30 5.90443e-06
58 *2128:A2 *539:34 1.19402e-05
59 *2129:B1 *539:26 0
60 *2140:A *539:140 0.000125942
61 *2140:B *539:140 3.05605e-05
62 *2141:A0 *539:140 0.000138903
63 *2141:A1 *539:140 0.000185643
64 *2142:B *2142:A 6.75007e-05
65 *2143:B *2143:A 4.38128e-05
66 *2143:B *539:140 9.90431e-05
67 *2151:B *539:72 0.000226513
68 *2395:C *2395:D_N 0.00053026
69 *2443:A *539:26 0
70 *44:10 *2395:D_N 0.000157578
71 *45:42 *2395:D_N 7.68221e-05
72 *49:10 *2041:A 0.000142856
73 *50:37 *539:76 2.95076e-06
74 *64:18 *2060:A 3.51442e-05
75 *67:29 *2059:A 0
76 *92:10 *539:34 0.000246071
77 *112:21 *539:26 9.95346e-05
78 *117:14 *2112:A 1.98839e-05
79 *117:22 *2112:A 2.84026e-05
80 *117:22 *539:30 0
81 *117:51 *539:140 0.00022729
82 *118:19 *2112:A 7.92229e-06
83 *132:6 *2112:A 0.000352143
84 *147:8 *539:140 0.000660801
85 *149:10 *2142:A 0.000104974
86 *149:10 *2143:A 5.71472e-05
87 *471:12 *2395:D_N 0.000135549
88 *471:12 *539:76 1.02504e-05
89 *471:29 *2041:A 7.84041e-05
90 *471:29 *539:72 7.58103e-05
91 *471:29 *539:76 0.000130458
92 *471:45 *2059:A 3.18676e-05
93 *495:10 *539:40 0.000349854
94 *495:10 *539:72 0.0014634
95 *497:12 *539:8 3.92854e-05
96 *497:12 *539:26 0.000446487
97 *498:10 *2113:A 1.00073e-05
98 *499:10 *539:26 0
99 *510:45 *2143:A 2.65105e-05
100 *510:45 *539:140 4.05247e-05
101 *516:85 *539:72 0.000203045
102 *516:85 *539:76 4.21517e-05
103 *534:24 *539:34 0
104 *534:140 *539:8 3.48235e-05
105 *534:140 *539:26 0.000338525
106 *536:8 *539:26 0.000108799
107 *536:8 *539:40 0
108 *536:50 *2060:A 3.47797e-05
109 *536:57 *2041:A 4.97879e-05
*RES
1 *2447:X *539:8 14.8357 
2 *539:8 *539:26 33.1607 
3 *539:26 *539:30 7.66071 
4 *539:30 *539:34 11.9107 
5 *539:34 *539:40 10.4643 
6 *539:40 *2059:A 21.4429 
7 *539:40 *2060:A 31.7464 
8 *539:34 *539:72 35.4821 
9 *539:72 *539:76 2.48214 
10 *539:76 *2395:D_N 26.5679 
11 *539:76 *2038:B1 13.8 
12 *539:72 *2041:A 21.3179 
13 *539:30 *2112:A 17.6393 
14 *539:26 *2119:A1 11.0857 
15 *539:8 *539:125 4.5 
16 *539:125 *2113:A 12.2107 
17 *539:125 *539:140 23.2679 
18 *539:140 *2142:A 19.9429 
19 *539:140 *2143:A 11.0857 
*END

*D_NET *540 0.0174881
*CONN
*I *1974:C1 I *D sky130_fd_sc_hd__a211oi_2
*I *1966:A I *D sky130_fd_sc_hd__or2_4
*I *2273:A2 I *D sky130_fd_sc_hd__a22oi_1
*I *2272:C I *D sky130_fd_sc_hd__and4_1
*I *2297:A2 I *D sky130_fd_sc_hd__a22oi_1
*I *2296:C I *D sky130_fd_sc_hd__and4_1
*I *2351:A2 I *D sky130_fd_sc_hd__a22oi_1
*I *2352:C I *D sky130_fd_sc_hd__and4_1
*I *2394:A2 I *D sky130_fd_sc_hd__a22o_1
*I *2010:A1 I *D sky130_fd_sc_hd__a21o_1
*I *2448:X O *D sky130_fd_sc_hd__buf_2
*CAP
1 *1974:C1 0
2 *1966:A 0
3 *2273:A2 0.000362094
4 *2272:C 0
5 *2297:A2 0.000329223
6 *2296:C 0
7 *2351:A2 0.000239399
8 *2352:C 2.39258e-05
9 *2394:A2 0.000255617
10 *2010:A1 0.000150908
11 *2448:X 0.000146521
12 *540:104 0.000631853
13 *540:89 0.00064355
14 *540:80 7.89545e-05
15 *540:56 0.000563716
16 *540:52 0.00158605
17 *540:37 0.00177174
18 *540:33 0.00111413
19 *540:10 0.0010002
20 *540:8 0.000146521
21 *2010:A1 *547:18 0.000120519
22 *2273:A2 *549:117 2.26327e-05
23 *2394:A2 *552:32 0
24 *2394:A2 *554:75 0
25 *540:8 *550:68 0.000119125
26 *540:37 *545:27 0.000148196
27 *540:52 *555:31 0.000351156
28 *540:56 *566:22 0
29 *2272:A *2273:A2 0.000181803
30 *2273:A1 *2273:A2 1.78919e-05
31 *2273:B1 *2273:A2 4.25163e-05
32 *2281:B *2273:A2 3.21292e-05
33 *2296:D *540:80 1.02504e-05
34 *2296:D *540:89 0.000102545
35 *2297:A1 *2297:A2 9.99644e-06
36 *2297:B1 *2297:A2 0.000250399
37 *2298:A1 *540:56 2.19684e-05
38 *2298:A1 *540:80 2.15363e-05
39 *2298:A2 *540:56 0
40 *2337:A3 *2010:A1 7.6021e-05
41 *2337:A3 *540:33 0.000129977
42 *2348:A2 *540:52 8.60763e-05
43 *2351:A1 *2351:A2 1.90213e-05
44 *2351:B1 *2351:A2 0.000164007
45 *2351:B1 *2352:C 9.60875e-05
46 *2351:B2 *2351:A2 8.46829e-05
47 *2351:B2 *2352:C 5.52302e-05
48 *2352:D *2351:A2 0
49 *2353:A *540:56 6.74911e-05
50 *2392:B2 *2394:A2 0
51 *2393:B *2394:A2 0
52 *2397:A1 *2394:A2 1.76039e-05
53 *50:37 *2010:A1 0
54 *50:37 *540:33 0
55 *305:8 *2297:A2 1.98839e-05
56 *306:30 *2297:A2 8.66355e-06
57 *409:8 *2394:A2 4.44529e-05
58 *423:10 *2010:A1 0.000221641
59 *493:48 *540:52 0.0001942
60 *519:23 *540:56 1.87097e-05
61 *520:31 *540:56 5.41794e-05
62 *523:122 *2352:C 5.52238e-05
63 *524:31 *540:52 0.00022289
64 *525:14 *540:56 0.000265385
65 *525:34 *540:56 0.000113056
66 *525:51 *540:56 0.000282543
67 *525:51 *540:80 6.91157e-05
68 *525:51 *540:89 9.0573e-05
69 *525:62 *540:89 3.34366e-05
70 *525:62 *540:104 6.81083e-05
71 *525:79 *540:104 0.000247629
72 *525:90 *540:104 0.000574566
73 *525:103 *2273:A2 4.73656e-05
74 *525:103 *540:104 3.34366e-05
75 *525:120 *2273:A2 1.02504e-05
76 *532:29 *2394:A2 0.000136754
77 *532:29 *540:37 0.000286947
78 *534:96 *540:33 0.00118233
79 *535:27 *2394:A2 0.000222885
80 *535:27 *540:37 0.000699739
81 *538:14 *540:33 5.05058e-05
82 *538:22 *540:89 2.31791e-05
83 *538:22 *540:104 0.000484429
84 *538:46 *2273:A2 1.02504e-05
85 *538:46 *540:104 0.000422519
*RES
1 *2448:X *540:8 12.2107 
2 *540:8 *540:10 4.5 
3 *540:10 *2010:A1 17.925 
4 *540:10 *540:33 20.7857 
5 *540:33 *540:37 13.7321 
6 *540:37 *2394:A2 19.3893 
7 *540:37 *540:52 25.1429 
8 *540:52 *540:56 12.8214 
9 *540:56 *2352:C 10.2464 
10 *540:56 *2351:A2 14.3357 
11 *540:52 *540:80 1.03571 
12 *540:80 *2296:C 13.8 
13 *540:80 *540:89 1.64286 
14 *540:89 *2297:A2 18.3491 
15 *540:89 *540:104 11.6607 
16 *540:104 *2272:C 13.8 
17 *540:104 *2273:A2 19.5321 
18 *540:33 *1966:A 9.3 
19 *540:8 *1974:C1 9.3 
*END

*D_NET *541 0.00808366
*CONN
*I *2263:A2 I *D sky130_fd_sc_hd__a32o_1
*I *2262:A2 I *D sky130_fd_sc_hd__o22a_1
*I *2256:A2 I *D sky130_fd_sc_hd__a21oi_1
*I *2255:B I *D sky130_fd_sc_hd__and3_1
*I *2261:A2 I *D sky130_fd_sc_hd__a21oi_1
*I *2449:X O *D sky130_fd_sc_hd__dlymetal6s2s_1
*CAP
1 *2263:A2 0.00011956
2 *2262:A2 0
3 *2256:A2 3.61837e-05
4 *2255:B 9.3986e-05
5 *2261:A2 2.23854e-05
6 *2449:X 0
7 *541:41 0.00118045
8 *541:21 0.00112997
9 *541:12 0.00108994
10 *541:4 0.00110743
11 *541:41 *566:22 2.05938e-05
12 *2180:B *541:12 2.89114e-05
13 *2241:A *2263:A2 3.18676e-05
14 *2255:A *2256:A2 3.29299e-05
15 *2255:A *541:41 6.76043e-05
16 *2255:C *2256:A2 0.000126591
17 *2258:A *541:41 2.89114e-05
18 *2262:A1 *2261:A2 0
19 *2262:B2 *2261:A2 0
20 *2262:B2 *541:21 9.71197e-05
21 *2263:A1 *2263:A2 0
22 *2263:B1 *2263:A2 3.28686e-05
23 *2263:B2 *2263:A2 9.60875e-05
24 *2263:B2 *541:12 3.0034e-05
25 *2264:A1 *541:41 3.92757e-05
26 *2264:A2 *541:41 7.13226e-06
27 *2264:B1 *541:41 5.52238e-05
28 *2264:B2 *541:41 9.25014e-06
29 *2437:A *2256:A2 9.60939e-05
30 *2437:A *541:41 0.000137094
31 *2490:A *541:12 0.000172484
32 *186:10 *541:12 2.89016e-05
33 *190:12 *541:41 1.76039e-05
34 *190:22 *541:41 1.21955e-05
35 *261:12 *2255:B 0
36 *261:12 *541:41 0
37 *326:22 *2263:A2 0.000357952
38 *514:14 *541:41 4.02462e-05
39 *521:18 *541:21 2.89016e-05
40 *521:18 *541:41 0.000309628
41 *521:22 *541:21 7.77751e-05
42 *521:26 *541:12 0.000717635
43 *521:26 *541:21 1.02821e-05
44 *521:49 *2263:A2 4.82159e-05
45 *521:49 *541:12 4.03916e-05
46 *524:97 *2263:A2 2.15245e-05
47 *529:56 *541:41 0.000482432
*RES
1 *2449:X *541:4 9.3 
2 *541:4 *541:12 30.2679 
3 *541:12 *2261:A2 9.72857 
4 *541:12 *541:21 2.17857 
5 *541:21 *541:41 33.9107 
6 *541:41 *2255:B 10.8714 
7 *541:41 *2256:A2 11.0679 
8 *541:21 *2262:A2 9.3 
9 *541:4 *2263:A2 13.4429 
*END

*D_NET *542 0.0285852
*CONN
*I *2239:A I *D sky130_fd_sc_hd__xnor2_1
*I *2449:A I *D sky130_fd_sc_hd__dlymetal6s2s_1
*I *2448:A I *D sky130_fd_sc_hd__buf_2
*I *2009:A1 I *D sky130_fd_sc_hd__o21ba_4
*I *2014:A I *D sky130_fd_sc_hd__nor2_1
*I *1960:A I *D sky130_fd_sc_hd__inv_2
*I *2117:A I *D sky130_fd_sc_hd__xnor2_1
*I *2135:B2 I *D sky130_fd_sc_hd__o32a_1
*I *2119:B1 I *D sky130_fd_sc_hd__o22a_1
*I *2450:X O *D sky130_fd_sc_hd__clkbuf_4
*CAP
1 *2239:A 0.000211263
2 *2449:A 0.000570689
3 *2448:A 3.49101e-05
4 *2009:A1 0.000816494
5 *2014:A 0.000111826
6 *1960:A 7.52648e-05
7 *2117:A 0.000639958
8 *2135:B2 0
9 *2119:B1 5.02937e-05
10 *2450:X 9.93976e-05
11 *542:139 0.00208724
12 *542:128 0.00260997
13 *542:92 0.00150428
14 *542:88 0.00235136
15 *542:77 0.0012625
16 *542:41 0.00121682
17 *542:18 0.000987168
18 *542:6 0.00114102
19 *2014:A *2029:C1 0
20 *2119:B1 *567:22 0.000168607
21 *2449:A *2238:A3 3.52562e-05
22 *542:18 *2124:B1 0.000269428
23 *542:18 *567:22 0.000335393
24 *542:77 *546:27 5.37597e-05
25 *542:77 *567:56 0.000107879
26 *542:92 *2029:C1 0
27 *542:128 *550:68 0.000599499
28 *542:128 *550:80 2.98258e-05
29 *542:139 *2325:A1 0
30 *1965:C *2448:A 4.04863e-05
31 *1965:C *542:139 3.92854e-05
32 *2009:A2 *2009:A1 3.93893e-05
33 *2045:B *542:92 0
34 *2047:B *542:92 4.63759e-05
35 *2048:A *542:128 7.84156e-05
36 *2049:B *542:88 1.92789e-05
37 *2049:B *542:128 1.21258e-05
38 *2052:A *542:128 0.000274288
39 *2055:A2 *542:128 3.18676e-05
40 *2055:B1 *542:92 2.72545e-05
41 *2090:A *542:128 5.62934e-05
42 *2090:B *542:128 9.60875e-05
43 *2091:A1 *542:128 5.80706e-06
44 *2113:B *2117:A 9.58181e-05
45 *2119:B2 *2119:B1 0.000225995
46 *2119:B2 *542:18 0.000126426
47 *2120:A *542:41 7.95696e-06
48 *2123:B1 *542:41 8.22793e-06
49 *2124:A1 *542:18 0.000177815
50 *2124:A2 *542:41 0.000123489
51 *2126:A3 *2117:A 3.19909e-05
52 *2126:A3 *542:41 0.000247659
53 *2126:B1 *542:41 5.79582e-06
54 *2128:A1 *2117:A 0.000225982
55 *2128:A2 *2117:A 1.32056e-05
56 *2130:A *542:18 2.42662e-05
57 *2137:A1 *2117:A 8.45364e-05
58 *2147:A1 *542:77 0.000211249
59 *2147:A2 *542:77 3.69047e-06
60 *2147:B2 *542:77 0.000119015
61 *2150:B1 *542:77 7.05143e-06
62 *2152:A *542:77 0
63 *2239:B *2239:A 9.41642e-05
64 *2240:A *2449:A 0.000660801
65 *2241:B *542:139 4.25716e-05
66 *2242:A *2239:A 2.28499e-05
67 *2263:B1 *2449:A 1.52978e-05
68 *2263:B2 *2449:A 3.34295e-05
69 *2265:A2 *542:139 0.00039487
70 *2266:A_N *2239:A 4.53834e-05
71 *2266:A_N *542:139 7.83587e-05
72 *2324:B1 *542:139 0.000104786
73 *2330:A *542:139 0.00010923
74 *2332:C *542:139 0.000173083
75 *2337:A1 *542:139 1.20729e-05
76 *2340:A *542:139 0.000198927
77 *2395:B *2009:A1 9.6561e-06
78 *2395:C *2009:A1 0.000528343
79 *2395:D_N *542:92 0.000119285
80 *2427:A *542:128 3.52083e-05
81 *2443:A *542:41 0
82 *2489:A *2239:A 2.04825e-05
83 *2489:A *542:139 0
84 *38:12 *542:92 0
85 *44:10 *2014:A 0
86 *44:10 *542:92 0
87 *50:37 *542:139 0.000468478
88 *52:10 *542:92 0.000259549
89 *53:14 *542:92 0.000121227
90 *61:16 *542:88 1.57523e-05
91 *117:51 *2117:A 0.000208736
92 *117:51 *542:41 7.14981e-06
93 *121:38 *2117:A 0.000110071
94 *129:23 *542:6 0.0001399
95 *129:23 *542:77 9.8621e-05
96 *130:10 *542:18 0.000268403
97 *135:14 *2117:A 0.000183684
98 *158:12 *542:77 0.000641681
99 *181:16 *2239:A 0.000138881
100 *181:16 *2449:A 1.98839e-05
101 *192:74 *542:139 6.8646e-06
102 *283:10 *1960:A 5.71472e-05
103 *283:87 *1960:A 0.000126572
104 *283:87 *542:77 0
105 *283:87 *542:88 0.00018372
106 *294:10 *2009:A1 0.000123288
107 *326:22 *542:139 0
108 *326:79 *542:139 0.000413587
109 *336:8 *542:139 0.000134174
110 *339:12 *542:139 0
111 *413:16 *2009:A1 9.35757e-05
112 *471:12 *542:92 0.00027025
113 *471:29 *542:92 0.000210272
114 *471:94 *542:77 0.000667446
115 *475:98 *542:92 0
116 *475:98 *542:128 7.41757e-05
117 *497:54 *542:139 1.90936e-05
118 *498:25 *2117:A 9.52911e-05
119 *501:14 *542:41 0
120 *516:73 *542:88 0.000139009
121 *531:22 *542:18 4.35048e-05
122 *531:22 *542:77 0.000146111
123 *531:66 *1960:A 3.67257e-05
124 *531:66 *542:88 0.000266513
125 *534:45 *1960:A 1.40306e-05
126 *534:75 *2448:A 4.04863e-05
127 *534:75 *542:139 7.15687e-05
128 *539:72 *542:92 9.37013e-05
129 *539:72 *542:128 0
*RES
1 *2450:X *542:6 10.6571 
2 *542:6 *542:18 19.5357 
3 *542:18 *2119:B1 11.4786 
4 *542:18 *542:41 15.4266 
5 *542:41 *2135:B2 13.8 
6 *542:41 *2117:A 37.175 
7 *542:6 *542:77 25.8929 
8 *542:77 *1960:A 11.4964 
9 *542:77 *542:88 10.3929 
10 *542:88 *542:92 17.9821 
11 *542:92 *2014:A 15.4429 
12 *542:92 *2009:A1 34.425 
13 *542:88 *542:128 32.625 
14 *542:128 *2448:A 14.8357 
15 *542:128 *542:139 32.6071 
16 *542:139 *2449:A 31.4429 
17 *542:139 *2239:A 17.3714 
*END

*D_NET *543 0.0246725
*CONN
*I *2094:A I *D sky130_fd_sc_hd__and2_1
*I *2216:A I *D sky130_fd_sc_hd__xnor2_1
*I *2149:C1 I *D sky130_fd_sc_hd__o211a_1
*I *2093:A I *D sky130_fd_sc_hd__nor2_2
*I *1987:A I *D sky130_fd_sc_hd__nor2_1
*I *1988:A I *D sky130_fd_sc_hd__or2_1
*I *1961:A I *D sky130_fd_sc_hd__inv_2
*I *2078:B1 I *D sky130_fd_sc_hd__a21oi_1
*I *2079:A I *D sky130_fd_sc_hd__and3_1
*I *2021:A I *D sky130_fd_sc_hd__nand2_1
*I *2451:X O *D sky130_fd_sc_hd__clkbuf_4
*CAP
1 *2094:A 0.000185246
2 *2216:A 0.00119561
3 *2149:C1 2.46036e-05
4 *2093:A 0
5 *1987:A 4.12433e-05
6 *1988:A 0
7 *1961:A 0
8 *2078:B1 9.90833e-06
9 *2079:A 7.90654e-06
10 *2021:A 0.00163508
11 *2451:X 0
12 *543:103 0.00230204
13 *543:90 0.00122348
14 *543:72 0.000512957
15 *543:59 0.00159589
16 *543:35 1.78149e-05
17 *543:16 0.00204075
18 *543:10 0.00187975
19 *543:6 0.000491565
20 *543:4 0.000185246
21 *2216:A *2130:C 0
22 *2216:A *2213:A1 0
23 *543:59 *1959:A 0
24 *543:59 *547:18 9.41642e-05
25 *543:59 *547:24 0
26 *543:59 *567:56 0.00252521
27 *543:72 *547:18 0.000607488
28 *543:103 *2150:A2 0
29 *543:103 *2451:A 0.000139913
30 *543:103 *546:27 0.000312209
31 *1987:B *1987:A 0.000175251
32 *1988:B *1987:A 9.60939e-05
33 *2030:B *2021:A 0
34 *2043:D *543:59 0.000109812
35 *2065:B *2021:A 0.000184225
36 *2066:B *2021:A 5.70551e-05
37 *2068:C *2021:A 0
38 *2070:C *2021:A 9.87983e-06
39 *2074:A *2021:A 0.000128154
40 *2079:C *2078:B1 5.52302e-05
41 *2079:C *2079:A 2.39852e-05
42 *2083:A1 *2021:A 8.00806e-05
43 *2083:A2 *2021:A 7.57946e-05
44 *2092:A *2149:C1 9.60939e-05
45 *2093:B *543:90 7.29042e-05
46 *2094:B *2094:A 0.000268396
47 *2104:C1 *2094:A 0
48 *2109:B1 *2021:A 0.000158115
49 *2109:B1 *543:16 0.000126706
50 *2111:A0 *543:10 0.000292244
51 *2115:A0 *543:16 0
52 *2148:A2 *543:103 8.22793e-06
53 *2148:B1 *543:103 0
54 *2151:A *543:10 0
55 *2151:B *543:10 2.7814e-05
56 *2155:A2 *2149:C1 9.60939e-05
57 *2157:B *2216:A 0.000169457
58 *2157:B *543:103 0.000315165
59 *2167:A1 *2216:A 0
60 *2168:B1 *2216:A 0
61 *2168:B2 *2216:A 0
62 *2171:A1 *2216:A 0
63 *2171:A2 *2216:A 0.000512615
64 *2171:B1 *2216:A 0
65 *2175:A1 *2216:A 0.000321738
66 *2208:A *2216:A 0
67 *2208:B *2216:A 4.25716e-05
68 *2210:B *2216:A 0
69 *2216:B *2216:A 0.000186662
70 *50:37 *543:59 4.57975e-05
71 *64:12 *543:16 0.000126465
72 *64:12 *543:59 0.000274172
73 *74:10 *2021:A 6.74815e-05
74 *76:14 *2021:A 0
75 *82:10 *2021:A 6.87516e-05
76 *82:21 *2021:A 5.58829e-05
77 *84:12 *2078:B1 3.88615e-05
78 *84:12 *2079:A 2.14978e-05
79 *97:12 *543:10 3.79467e-05
80 *97:12 *543:90 1.87955e-05
81 *100:8 *2094:A 5.52238e-05
82 *106:8 *543:103 2.72859e-05
83 *107:10 *543:103 5.58941e-05
84 *107:12 *543:103 0.000125724
85 *108:12 *543:103 0
86 *110:16 *543:90 5.52302e-05
87 *110:16 *543:103 6.09804e-05
88 *163:10 *2216:A 0
89 *181:16 *2216:A 0
90 *283:10 *543:10 0.000282353
91 *283:87 *2216:A 0
92 *283:87 *543:103 0
93 *283:104 *2216:A 0
94 *294:8 *543:59 2.59355e-05
95 *294:8 *543:72 2.89114e-05
96 *294:10 *543:59 0.000226745
97 *423:10 *543:72 0.000110793
98 *423:14 *543:72 1.437e-05
99 *471:94 *543:103 2.13481e-06
100 *496:18 *543:10 7.83659e-05
101 *496:18 *543:90 0.000258074
102 *516:85 *543:59 0.0011422
103 *516:85 *543:72 0.000105465
104 *520:70 *543:72 0
105 *524:31 *1987:A 0.000273269
106 *534:75 *543:72 0.000135846
107 *536:57 *543:59 0.000133656
*RES
1 *2451:X *543:4 9.3 
2 *543:4 *543:6 4.5 
3 *543:6 *543:10 12.7939 
4 *543:10 *543:16 5.97231 
5 *543:16 *2021:A 44.1393 
6 *543:16 *543:35 4.5 
7 *543:35 *2079:A 9.54107 
8 *543:35 *2078:B1 9.83571 
9 *543:10 *543:59 16.2364 
10 *543:59 *1961:A 9.3 
11 *543:59 *543:72 19.8571 
12 *543:72 *1988:A 9.3 
13 *543:72 *1987:A 11.8893 
14 *543:6 *543:90 8.5 
15 *543:90 *2093:A 9.3 
16 *543:90 *543:103 21.3036 
17 *543:103 *2149:C1 14.7464 
18 *543:103 *2216:A 38.2643 
19 *543:4 *2094:A 13.1571 
*END

*D_NET *544 0.012662
*CONN
*I *2201:A2 I *D sky130_fd_sc_hd__a22o_1
*I *2199:A1 I *D sky130_fd_sc_hd__o22a_1
*I *2435:A I *D sky130_fd_sc_hd__buf_4
*I *2478:X O *D sky130_fd_sc_hd__buf_1
*CAP
1 *2201:A2 0.000135022
2 *2199:A1 0.00016975
3 *2435:A 0
4 *2478:X 0.00133955
5 *544:31 0.00146124
6 *544:29 0.00160793
7 *544:18 0.00179101
8 *2199:A1 *2201:A1 0.000443654
9 *2201:A2 *2201:A1 3.25078e-05
10 *2201:A2 *2201:B1 0.000124708
11 *2201:A2 *549:119 3.50971e-05
12 *544:29 *566:22 0
13 *544:31 *549:119 9.21418e-06
14 *2205:B2 *2201:A2 5.52302e-05
15 *2258:A *544:31 5.34742e-05
16 *2348:A1 *544:29 3.19294e-05
17 *2348:B1 *544:29 0.000149911
18 *2366:B *544:18 2.27416e-05
19 *2366:C *544:18 7.74762e-05
20 *2367:A2 *544:18 4.97621e-05
21 *2411:A *544:18 9.80173e-05
22 *2411:B *544:18 0.000163999
23 *2437:A *544:31 0
24 *234:10 *544:31 4.38511e-05
25 *234:12 *544:31 6.5772e-05
26 *234:18 *544:31 4.34543e-05
27 *290:18 *544:31 0.000202697
28 *309:10 *544:29 1.0562e-05
29 *309:10 *544:31 3.37567e-05
30 *309:14 *544:29 0.000100009
31 *310:12 *544:29 0.000153182
32 *320:12 *544:29 0.000123912
33 *323:16 *544:29 0
34 *526:12 *544:29 7.58571e-05
35 *527:12 *544:31 0.000106403
36 *527:31 *544:31 0.000852766
37 *527:55 *544:31 0.00183788
38 *527:106 *2199:A1 5.33005e-05
39 *527:106 *2201:A2 0.000145411
40 *527:106 *544:31 0.000130034
41 *527:128 *544:29 1.17921e-05
42 *527:128 *544:31 0.000115206
43 *529:22 *544:29 0
44 *529:22 *544:31 2.91887e-05
45 *529:42 *544:31 0.000674732
*RES
1 *2478:X *544:18 40.4607 
2 *544:18 *2435:A 9.3 
3 *544:18 *544:29 15.3304 
4 *544:29 *544:31 38.5268 
5 *544:31 *2199:A1 18.0321 
6 *544:31 *2201:A2 17.1929 
*END

*D_NET *545 0.0238654
*CONN
*I *2225:A2_N I *D sky130_fd_sc_hd__o2bb2a_1
*I *2226:B I *D sky130_fd_sc_hd__and4b_1
*I *2231:B I *D sky130_fd_sc_hd__nand2_1
*I *2247:B I *D sky130_fd_sc_hd__nand2_1
*I *2301:A2 I *D sky130_fd_sc_hd__a31oi_2
*I *2302:B I *D sky130_fd_sc_hd__nand2_1
*I *2355:B I *D sky130_fd_sc_hd__nand2_1
*I *2401:B I *D sky130_fd_sc_hd__nand2_1
*I *1966:B I *D sky130_fd_sc_hd__or2_4
*I *1974:A1 I *D sky130_fd_sc_hd__a211oi_2
*I *2452:X O *D sky130_fd_sc_hd__clkbuf_4
*CAP
1 *2225:A2_N 0.000278951
2 *2226:B 0.000329756
3 *2231:B 0
4 *2247:B 0.000246906
5 *2301:A2 3.08434e-05
6 *2302:B 9.44489e-05
7 *2355:B 1.2683e-05
8 *2401:B 0.000581142
9 *1966:B 0
10 *1974:A1 0.000235632
11 *2452:X 0
12 *545:134 0.00329255
13 *545:115 0.00316668
14 *545:58 0.000622985
15 *545:54 0.000648459
16 *545:50 0.00135085
17 *545:38 0.00118926
18 *545:36 0.00092032
19 *545:27 0.00103991
20 *545:4 0.000985247
21 *1974:A1 *550:62 0
22 *1974:A1 *550:68 0.000318107
23 *2225:A2_N *2197:B 8.56716e-05
24 *2225:A2_N *2224:B 4.5539e-05
25 *2226:B *2222:A2 4.5534e-05
26 *2401:B *2358:A2 1.46576e-05
27 *2401:B *2358:B2 9.80173e-05
28 *2401:B *554:27 6.20656e-05
29 *545:27 *550:68 8.57023e-05
30 *545:50 *2276:B 2.59355e-05
31 *545:50 *2301:B1 0
32 *545:50 *548:14 0.000238652
33 *545:50 *548:96 0.000321807
34 *545:115 *1967:A1 0.000368104
35 *545:134 *549:117 0.0001151
36 *545:134 *555:41 0.000306513
37 op_out[6] *545:134 0
38 *1968:A1 *545:27 5.94433e-06
39 *1968:A3 *545:27 1.58163e-05
40 *1968:B1 *545:27 0.00015357
41 *2205:B2 *2225:A2_N 1.04232e-05
42 *2224:C *2225:A2_N 7.83587e-05
43 *2224:C *2226:B 9.47028e-05
44 *2225:B1 *2226:B 7.0528e-05
45 *2226:C *2225:A2_N 0.000108585
46 *2226:D *2226:B 5.52302e-05
47 *2227:B *2225:A2_N 0.000139907
48 *2246:B *2225:A2_N 7.22508e-05
49 *2246:B *2226:B 8.00652e-05
50 *2253:A_N *545:134 7.92975e-05
51 *2254:B *545:134 0
52 *2276:C *545:50 0
53 *2276:C *545:54 1.37116e-05
54 *2277:B1 *545:50 0.00011063
55 *2277:B1 *545:54 0.000106533
56 *2278:B *545:38 0.000129185
57 *2278:B *545:50 0.000201182
58 *2278:B *545:115 7.48356e-05
59 *2284:A *545:134 0
60 *2285:B *545:134 0
61 *2350:B *545:54 0
62 *2355:A *545:54 1.19309e-05
63 *2360:A *2302:B 5.7431e-05
64 *2360:A *2355:B 0
65 *2360:A *2401:B 3.18676e-05
66 *2360:A *545:58 1.74352e-05
67 *2381:A1 *545:134 6.21127e-05
68 *2385:B *545:115 0
69 *2386:A *545:115 0
70 *2391:A *2301:A2 5.03772e-05
71 *2391:B *2301:A2 5.03772e-05
72 *2394:A1 *545:50 0.000270498
73 *2400:A1 *2355:B 3.99614e-06
74 *2400:A1 *2401:B 8.74014e-05
75 *2400:A2 *2401:B 6.5299e-05
76 *2402:B *545:38 0
77 *2402:B *545:50 0
78 *2405:A *2401:B 7.49387e-06
79 *2410:A *545:54 0.000101545
80 *2413:A *545:134 4.01985e-05
81 *2414:B *545:134 2.89114e-05
82 *2419:A3 *545:134 0.000332768
83 *2419:B1 *545:134 0
84 *2432:A *545:50 2.1892e-05
85 *2491:A *545:134 9.55563e-05
86 *38:20 *545:50 0.000389018
87 *202:51 *2226:B 0
88 *227:10 *2226:B 4.66096e-05
89 *229:21 *2225:A2_N 0.00010326
90 *233:12 *2225:A2_N 0
91 *253:8 *2225:A2_N 2.14852e-05
92 *253:8 *2226:B 6.42338e-05
93 *253:8 *545:134 0.000329742
94 *259:24 *545:134 0
95 *263:12 *545:134 0
96 *292:20 *545:134 0
97 *337:14 *1974:A1 8.08022e-05
98 *369:6 *545:27 4.27437e-05
99 *369:10 *1974:A1 1.41706e-05
100 *373:8 *2401:B 2.14658e-05
101 *375:14 *2302:B 5.62995e-05
102 *388:12 *545:134 0.00015134
103 *397:12 *545:134 1.08359e-05
104 *448:27 *2401:B 0.000295415
105 *448:42 *2302:B 0.000138816
106 *448:42 *2401:B 0.00027595
107 *490:23 *545:54 0
108 *492:54 *545:36 0.000140933
109 *492:54 *545:38 0
110 *493:48 *545:50 6.32894e-05
111 *493:83 *2225:A2_N 5.07633e-05
112 *493:83 *545:134 0
113 *497:89 *545:50 7.83366e-05
114 *514:58 *545:134 0.000113362
115 *518:38 *2302:B 0.000233668
116 *518:38 *2401:B 4.59075e-05
117 *518:38 *545:58 5.52238e-05
118 *518:49 *545:54 0.00020518
119 *523:30 *545:50 0.00010326
120 *523:40 *545:50 7.79781e-06
121 *527:41 *545:134 3.80953e-06
122 *528:23 *2225:A2_N 0
123 *528:40 *2225:A2_N 1.32966e-05
124 *532:29 *545:27 0.000171375
125 *534:96 *545:27 2.59355e-05
126 *534:96 *545:36 0.000255204
127 *535:27 *545:27 1.17968e-05
128 *535:72 *545:115 0
129 *537:36 *545:50 0
130 *537:36 *545:54 0
131 *540:37 *545:27 0.000148196
*RES
1 *2452:X *545:4 9.3 
2 *545:4 *1974:A1 22.3357 
3 *545:4 *545:27 19.3036 
4 *545:27 *1966:B 9.3 
5 *545:27 *545:36 10.375 
6 *545:36 *545:38 3.16071 
7 *545:38 *545:50 29.375 
8 *545:50 *545:54 16.1607 
9 *545:54 *545:58 0.964286 
10 *545:58 *2401:B 23.0321 
11 *545:58 *2355:B 9.72857 
12 *545:54 *2302:B 13.9786 
13 *545:50 *2301:A2 14.7464 
14 *545:38 *2247:B 17.2107 
15 *545:36 *545:115 14.0179 
16 *545:115 *2231:B 9.3 
17 *545:115 *545:134 49.7857 
18 *545:134 *2226:B 30.3893 
19 *545:134 *2225:A2_N 21.9429 
*END

*D_NET *546 0.0216386
*CONN
*I *2234:A2 I *D sky130_fd_sc_hd__a32o_1
*I *2238:A3 I *D sky130_fd_sc_hd__o31a_1
*I *2233:A2 I *D sky130_fd_sc_hd__o22a_1
*I *2452:A I *D sky130_fd_sc_hd__clkbuf_4
*I *2451:A I *D sky130_fd_sc_hd__clkbuf_4
*I *2453:X O *D sky130_fd_sc_hd__clkbuf_2
*CAP
1 *2234:A2 1.41579e-05
2 *2238:A3 0.000666123
3 *2233:A2 0.000629921
4 *2452:A 0.000518141
5 *2451:A 0.000275756
6 *2453:X 0
7 *546:69 0.00107637
8 *546:44 0.00132478
9 *546:31 0.0037686
10 *546:27 0.00317768
11 *546:4 0.000501752
12 *2233:A2 *565:18 8.40034e-05
13 *2452:A *2176:A 0.000333493
14 *2452:A *550:62 5.41794e-05
15 *546:31 *1959:A 9.60875e-05
16 *546:44 *565:10 4.04691e-06
17 *546:69 *565:67 2.09495e-05
18 *1968:A1 *2452:A 6.05161e-06
19 *2093:B *2451:A 6.88463e-06
20 *2094:B *2451:A 9.90367e-05
21 *2101:B *546:31 2.87555e-06
22 *2148:A1 *546:31 1.30652e-05
23 *2148:A2 *546:31 4.61963e-05
24 *2148:B1 *546:31 1.92905e-05
25 *2149:B1 *546:31 2.69359e-05
26 *2150:B1 *546:27 0.000122887
27 *2151:A *2451:A 3.17163e-05
28 *2159:A *546:31 3.15101e-05
29 *2160:B *546:31 4.87953e-05
30 *2233:B2 *2233:A2 1.90936e-05
31 *2234:A1 *2234:A2 3.57366e-05
32 *2234:A1 *546:69 0.000287162
33 *2234:A3 *2238:A3 0.00014183
34 *2234:B1 *546:69 0.000134927
35 *2236:C1 *2238:A3 0.000139907
36 *2263:B1 *2238:A3 0.000581125
37 *2293:C1 *2233:A2 0.0015891
38 *2329:A *546:31 2.59355e-05
39 *2335:A2 *546:44 6.33321e-05
40 *2335:A2 *546:69 8.59242e-05
41 *2343:A1 *546:31 3.61629e-06
42 *2343:A2 *546:31 1.55885e-05
43 *2343:B1 *546:31 0.000119125
44 *2382:B1 *2452:A 0.00015304
45 *2382:B1 *546:44 3.34366e-05
46 *2420:A *546:44 5.58875e-06
47 *2449:A *2238:A3 3.52562e-05
48 *2490:A *2238:A3 0
49 *2490:A *546:69 3.27095e-05
50 *99:8 *2451:A 2.72449e-05
51 *110:16 *2451:A 0.000142579
52 *188:26 *2233:A2 2.59355e-05
53 *191:14 *2238:A3 0.000241352
54 *191:28 *2238:A3 3.18676e-05
55 *197:10 *2238:A3 0.000241594
56 *197:12 *2238:A3 0.000212015
57 *199:51 *546:44 0.000104778
58 *199:51 *546:69 9.11764e-05
59 *273:12 *546:31 2.88018e-06
60 *283:87 *546:27 0.000276913
61 *341:19 *546:31 0.000195184
62 *369:6 *2452:A 9.60875e-05
63 *471:94 *2451:A 3.05584e-05
64 *471:94 *546:27 5.30237e-05
65 *490:53 *2233:A2 0.000872095
66 *495:10 *2451:A 0.000248996
67 *497:62 *2452:A 0.000375687
68 *497:62 *546:44 0.000297493
69 *519:90 *2233:A2 9.86803e-05
70 *519:100 *2233:A2 7.15062e-05
71 *520:114 *546:69 4.02462e-05
72 *523:115 *2233:A2 2.06178e-05
73 *526:73 *546:69 1.76569e-05
74 *526:87 *546:31 2.27416e-05
75 *531:22 *2451:A 9.21418e-06
76 *537:107 *2452:A 0.000101545
77 *537:107 *546:44 0.000679307
78 *542:77 *546:27 5.37597e-05
79 *543:103 *2451:A 0.000139913
80 *543:103 *546:27 0.000312209
*RES
1 *2453:X *546:4 9.3 
2 *546:4 *2451:A 25.3 
3 *546:4 *546:27 15.7679 
4 *546:27 *546:31 39.125 
5 *546:31 *2452:A 26.4071 
6 *546:31 *546:44 9.6875 
7 *546:44 *2233:A2 24.0018 
8 *546:44 *546:69 12.0446 
9 *546:69 *2238:A3 36.3714 
10 *546:69 *2234:A2 9.72857 
*END

*D_NET *547 0.0182602
*CONN
*I *1972:A I *D sky130_fd_sc_hd__or2_1
*I *1970:A1 I *D sky130_fd_sc_hd__a211o_1
*I *2356:B I *D sky130_fd_sc_hd__nand2_1
*I *2003:A3 I *D sky130_fd_sc_hd__a31o_1
*I *2002:B1 I *D sky130_fd_sc_hd__a21o_1
*I *1971:A I *D sky130_fd_sc_hd__nor2_1
*I *1959:A I *D sky130_fd_sc_hd__inv_2
*I *2050:B1 I *D sky130_fd_sc_hd__a21o_1
*I *2029:C1 I *D sky130_fd_sc_hd__o211ai_2
*I *2051:A I *D sky130_fd_sc_hd__and3_1
*I *2454:X O *D sky130_fd_sc_hd__clkbuf_4
*CAP
1 *1972:A 0.000190597
2 *1970:A1 5.76996e-05
3 *2356:B 0
4 *2003:A3 0
5 *2002:B1 8.16138e-05
6 *1971:A 1.83027e-05
7 *1959:A 0.000766573
8 *2050:B1 0
9 *2029:C1 0.000828557
10 *2051:A 0
11 *2454:X 0
12 *547:93 0.000857028
13 *547:83 0.00181891
14 *547:37 0.00111459
15 *547:24 0.000557974
16 *547:18 0.00175298
17 *547:12 0.00095852
18 *547:8 0.00149979
19 *547:6 0.000550174
20 *547:4 0.00045254
21 *1959:A *2236:A2 9.91086e-05
22 *547:83 *1984:A 5.58941e-05
23 *547:83 *550:14 0.000116481
24 *547:83 *550:38 0.000261707
25 *547:83 *550:51 0.00131202
26 *547:83 *550:62 9.00763e-05
27 *547:93 *1984:A 7.57869e-05
28 *547:93 *554:39 4.07257e-05
29 *1970:B1 *1970:A1 6.21768e-05
30 *1970:B1 *1972:A 0
31 *1970:B1 *547:6 6.73496e-05
32 *1971:B *1970:A1 6.05161e-06
33 *1971:B *1971:A 0
34 *1971:B *547:8 2.80068e-05
35 *1972:B *1970:A1 1.98839e-05
36 *1972:B *1972:A 0.000178847
37 *1972:B *547:6 5.37908e-05
38 *1973:A1 *547:8 1.58163e-05
39 *1973:A2 *1970:A1 0
40 *1973:A2 *1971:A 5.7661e-06
41 *1973:A2 *547:8 6.05161e-06
42 *1973:A2 *547:12 0.000121967
43 *1980:A1 *547:83 0
44 *1991:A1 *547:83 0
45 *1999:C *547:93 0.000114655
46 *2002:A1 *2002:B1 0.000127446
47 *2002:A1 *547:93 1.02504e-05
48 *2002:A2 *2002:B1 0
49 *2003:B1 *547:93 1.98839e-05
50 *2010:A1 *547:18 0.000120519
51 *2010:A2 *1971:A 5.7661e-06
52 *2010:A2 *547:12 9.99644e-06
53 *2010:A2 *547:18 5.62995e-05
54 *2014:A *2029:C1 0
55 *2025:C1 *547:83 0.000128154
56 *2029:B1 *2029:C1 4.46186e-06
57 *2045:B *2029:C1 0.000129868
58 *2047:A *547:37 3.32631e-05
59 *2051:C *547:37 3.32213e-05
60 *2075:B1 *2029:C1 0.000160722
61 *2150:C1 *1959:A 0
62 *2159:A *1959:A 4.10638e-05
63 *2160:B *1959:A 0
64 *35:8 *2029:C1 2.89016e-05
65 *38:12 *2029:C1 9.02021e-05
66 *51:12 *2029:C1 0.000102839
67 *52:10 *2029:C1 0
68 *52:14 *547:37 1.15281e-05
69 *57:12 *547:37 9.90367e-05
70 *219:23 *1959:A 0
71 *273:12 *1959:A 2.89016e-05
72 *294:10 *1959:A 0
73 *369:18 *547:83 0
74 *380:19 *1970:A1 1.04232e-05
75 *391:6 *547:8 1.21258e-05
76 *413:16 *547:83 0
77 *423:10 *547:12 2.88018e-06
78 *423:10 *547:18 0.000107991
79 *434:8 *547:83 0
80 *441:8 *547:83 0
81 *448:27 *547:93 0.000185643
82 *462:12 *547:93 6.44345e-05
83 *462:25 *547:93 0.000450156
84 *463:10 *547:93 0
85 *466:10 *2002:B1 4.25809e-05
86 *466:10 *547:93 2.28159e-05
87 *467:8 *547:93 5.80706e-06
88 *475:24 *2029:C1 5.71472e-05
89 *475:64 *2029:C1 0
90 *475:73 *2029:C1 0
91 *517:23 *1959:A 1.99394e-05
92 *517:34 *1959:A 4.87834e-05
93 *517:86 *547:24 1.90303e-05
94 *524:33 *1959:A 4.66511e-05
95 *524:33 *547:24 0.000211798
96 *524:50 *1959:A 0.000673892
97 *542:92 *2029:C1 0
98 *543:59 *1959:A 0
99 *543:59 *547:18 9.41642e-05
100 *543:59 *547:24 0
101 *543:72 *547:18 0.000607488
102 *546:31 *1959:A 9.60875e-05
*RES
1 *2454:X *547:4 9.3 
2 *547:4 *547:6 3.41071 
3 *547:6 *547:8 2.58929 
4 *547:8 *547:12 3.32143 
5 *547:12 *547:18 19.5357 
6 *547:18 *547:24 9.125 
7 *547:24 *2051:A 9.3 
8 *547:24 *547:37 9.67857 
9 *547:37 *2029:C1 29.0321 
10 *547:37 *2050:B1 13.8 
11 *547:18 *1959:A 30.8179 
12 *547:12 *1971:A 9.72857 
13 *547:8 *547:83 28.5357 
14 *547:83 *547:93 21.5536 
15 *547:93 *2002:B1 16.05 
16 *547:93 *2003:A3 13.8 
17 *547:83 *2356:B 13.8 
18 *547:6 *1970:A1 10.9964 
19 *547:4 *1972:A 12.925 
*END

*D_NET *548 0.012678
*CONN
*I *2250:A2 I *D sky130_fd_sc_hd__a21oi_1
*I *2249:B I *D sky130_fd_sc_hd__and3_1
*I *1967:B1 I *D sky130_fd_sc_hd__a2111oi_1
*I *1968:A2 I *D sky130_fd_sc_hd__o41ai_4
*I *2276:B I *D sky130_fd_sc_hd__and3_1
*I *2358:B1 I *D sky130_fd_sc_hd__a22oi_1
*I *2304:A2 I *D sky130_fd_sc_hd__a21oi_1
*I *2303:B I *D sky130_fd_sc_hd__and3_1
*I *2357:B I *D sky130_fd_sc_hd__and3_1
*I *2248:B I *D sky130_fd_sc_hd__nand2_1
*I *2455:X O *D sky130_fd_sc_hd__buf_2
*CAP
1 *2250:A2 0.000121057
2 *2249:B 0
3 *1967:B1 0.00019602
4 *1968:A2 3.61152e-05
5 *2276:B 4.70928e-05
6 *2358:B1 0
7 *2304:A2 0
8 *2303:B 0.000149209
9 *2357:B 0
10 *2248:B 2.25532e-05
11 *2455:X 9.26386e-05
12 *548:104 0.00110384
13 *548:98 0.000927783
14 *548:96 0.000323938
15 *548:58 0.000723525
16 *548:47 0.000837062
17 *548:37 0.00104018
18 *548:16 0.000894997
19 *548:14 0.000251728
20 *548:12 0.000349071
21 *1967:B1 *551:29 0.000101444
22 *1967:B1 *552:26 0.00010694
23 *548:37 *2358:B2 6.2589e-06
24 *548:47 *2357:A 9.33978e-07
25 *548:47 *2358:A2 5.74562e-05
26 *548:104 *2454:A 5.58941e-05
27 *548:104 *552:26 8.50387e-05
28 *1968:A1 *1968:A2 4.58194e-05
29 *1968:B1 *1968:A2 9.41642e-05
30 *2248:A *2248:B 2.84398e-05
31 *2248:A *548:16 6.80677e-05
32 *2250:A1 *2250:A2 5.71472e-05
33 *2250:B1 *2250:A2 8.56752e-05
34 *2277:A2 *548:37 0.000183233
35 *2278:B *2248:B 4.56437e-05
36 *2278:B *548:14 0.000281242
37 *2278:B *548:16 0.00026367
38 *2278:B *548:96 0.000328628
39 *2302:A *2303:B 2.56694e-05
40 *2304:A1 *2303:B 2.72545e-05
41 *2304:A1 *548:58 0.00013478
42 *2304:B1 *2303:B 0.000101545
43 *2304:B1 *548:58 3.18676e-05
44 *2357:C *548:47 9.89442e-05
45 *2357:C *548:58 1.16848e-05
46 *2358:A1 *548:37 0.000142953
47 *2358:A1 *548:47 1.02504e-05
48 *2359:A *548:58 0.000105163
49 *2359:B *548:47 0
50 *2360:B *548:58 8.07313e-05
51 *2391:A *548:37 0.000137983
52 *2399:A *548:37 5.52302e-05
53 *2402:B *548:37 0
54 *2403:B *548:37 0
55 *2405:A *548:37 2.00751e-05
56 *2503:A *1967:B1 2.84398e-05
57 *285:12 *548:16 0.000125731
58 *286:10 *2248:B 1.02504e-05
59 *375:14 *2303:B 0
60 *412:12 *548:104 0.00012542
61 *448:27 *548:37 5.83233e-05
62 *448:27 *548:47 4.73656e-05
63 *493:31 *548:37 0.000242008
64 *493:48 *548:14 1.50181e-05
65 *493:48 *548:37 0.000126485
66 *518:10 *2303:B 4.46186e-06
67 *518:12 *2303:B 5.01117e-05
68 *523:40 *548:104 3.72932e-05
69 *523:51 *2250:A2 8.46829e-05
70 *523:51 *548:96 5.33005e-05
71 *523:51 *548:104 8.25843e-06
72 *523:57 *2250:A2 0.000309266
73 *529:22 *548:12 7.25116e-05
74 *535:27 *1967:B1 0.00038501
75 *535:27 *548:104 0.000311028
76 *545:50 *2276:B 2.59355e-05
77 *545:50 *548:14 0.000238652
78 *545:50 *548:96 0.000321807
*RES
1 *2455:X *548:12 15.3 
2 *548:12 *548:14 3.76786 
3 *548:14 *548:16 3.46429 
4 *548:16 *2248:B 14.5321 
5 *548:16 *548:37 25.0179 
6 *548:37 *548:47 9.26786 
7 *548:47 *2357:B 9.3 
8 *548:47 *548:58 11.5536 
9 *548:58 *2303:B 21.4607 
10 *548:58 *2304:A2 9.3 
11 *548:37 *2358:B1 13.8 
12 *548:14 *2276:B 14.3357 
13 *548:12 *548:96 9.41071 
14 *548:96 *548:98 1.03571 
15 *548:98 *548:104 16.9107 
16 *548:104 *1968:A2 14.7464 
17 *548:104 *1967:B1 18.7821 
18 *548:98 *2249:B 9.3 
19 *548:96 *2250:A2 13.1214 
*END

*D_NET *549 0.0344548
*CONN
*I *2455:A I *D sky130_fd_sc_hd__buf_2
*I *2201:B1 I *D sky130_fd_sc_hd__a22o_1
*I *2197:B I *D sky130_fd_sc_hd__and2_1
*I *2199:A2 I *D sky130_fd_sc_hd__o22a_1
*I *2176:B I *D sky130_fd_sc_hd__or3_1
*I *2215:A2 I *D sky130_fd_sc_hd__o21a_1
*I *2238:A2 I *D sky130_fd_sc_hd__o31a_1
*I *2100:B I *D sky130_fd_sc_hd__xnor2_4
*I *2454:A I *D sky130_fd_sc_hd__clkbuf_4
*I *2456:X O *D sky130_fd_sc_hd__clkbuf_4
*CAP
1 *2455:A 1.58456e-05
2 *2201:B1 0.000182072
3 *2197:B 0.000914347
4 *2199:A2 0.000271942
5 *2176:B 0
6 *2215:A2 0.000307456
7 *2238:A2 0
8 *2100:B 0.000117532
9 *2454:A 0.000456807
10 *2456:X 0.000147814
11 *549:121 0.00118629
12 *549:119 0.000890883
13 *549:117 0.00167925
14 *549:82 0.000975276
15 *549:62 0.00229169
16 *549:51 0.00307587
17 *549:24 0.0024498
18 *549:20 0.00103462
19 *549:18 0.00251486
20 *549:12 0.000717061
21 *2197:B *2201:A1 8.40933e-05
22 *2197:B *2224:B 9.25014e-06
23 *2199:A2 *2201:A1 9.02232e-05
24 *2215:A2 *2215:A1 5.10822e-05
25 *2454:A *552:26 2.84398e-05
26 *549:18 *555:31 0.000429528
27 *549:20 *1967:A1 0.000294827
28 *549:62 *2150:A2 0
29 *549:62 *2213:A1 0
30 *549:62 *564:37 0
31 *549:82 *551:71 0.000481568
32 *549:119 *566:22 0
33 *1965:C *549:51 0
34 *1970:B1 *2454:A 0.000123295
35 *1971:B *2454:A 1.33343e-05
36 *1972:B *2454:A 0.000303362
37 *2099:B *549:51 0
38 *2149:A1 *549:62 0.00011018
39 *2165:B1 *549:62 2.26973e-05
40 *2167:B1 *549:62 0.000286979
41 *2174:C *549:62 0.000272658
42 *2174:D *549:62 0.000187893
43 *2175:B1 *549:82 4.88546e-05
44 *2197:A *2197:B 9.90431e-05
45 *2201:A2 *2201:B1 0.000124708
46 *2201:A2 *549:119 3.50971e-05
47 *2205:A1 *2201:B1 0
48 *2205:A2 *2201:B1 0
49 *2205:B1 *2201:B1 2.8266e-06
50 *2205:B2 *2201:B1 0.00011497
51 *2208:A *2215:A2 0
52 *2208:A *549:62 0
53 *2209:A *549:82 4.46186e-06
54 *2209:B *2215:A2 9.80173e-05
55 *2212:A2 *549:82 5.71472e-05
56 *2213:B1 *549:82 9.25014e-06
57 *2215:B1 *2215:A2 0
58 *2219:B *549:82 9.41642e-05
59 *2221:B1 *549:82 5.33005e-05
60 *2222:A1 *2197:B 1.40415e-05
61 *2223:A *2197:B 0
62 *2225:A2_N *2197:B 8.56716e-05
63 *2225:B1 *2197:B 0
64 *2227:B *2197:B 0.000125731
65 *2228:B *2197:B 4.89867e-05
66 *2229:A *2197:B 2.27416e-05
67 *2244:B1 *549:82 1.21258e-05
68 *2260:B1 *2201:B1 5.41797e-06
69 *2260:B1 *549:119 0.00023446
70 *2273:A2 *549:117 2.26327e-05
71 *2274:B *549:117 3.52194e-05
72 *2275:B1_N *549:18 4.66511e-05
73 *2278:B *549:18 0.000108397
74 *2279:B *549:117 0.000114665
75 *2282:B *549:117 0
76 *2283:B1 *549:119 0.000434641
77 *2443:A *549:51 0.00071627
78 *103:6 *2100:B 0.000276211
79 *103:34 *549:62 0.000150269
80 *161:14 *549:62 6.91094e-05
81 *181:16 *549:82 0.000357392
82 *183:10 *549:20 0.000248138
83 *183:10 *549:24 5.33005e-05
84 *191:28 *549:82 0.000263524
85 *192:37 *549:82 1.38323e-05
86 *192:45 *549:82 0.000245131
87 *192:47 *549:82 0.000126439
88 *196:18 *2199:A2 0.000230475
89 *202:14 *2197:B 0.000186669
90 *202:24 *2201:B1 0.000210061
91 *215:12 *2215:A2 6.31747e-05
92 *215:12 *549:62 1.19309e-05
93 *215:12 *549:82 0.000268403
94 *216:19 *549:82 0.000134788
95 *233:12 *2197:B 0.000146308
96 *234:10 *2197:B 2.09915e-05
97 *256:10 *549:18 0.000101545
98 *280:12 *549:117 1.00375e-05
99 *289:10 *549:117 0.000392923
100 *291:8 *549:119 0.000693205
101 *337:36 *2454:A 0.000187726
102 *337:62 *2454:A 0.000162125
103 *440:16 *2454:A 0.000566088
104 *440:16 *549:51 1.04707e-05
105 *493:50 *549:18 7.80714e-06
106 *516:42 *549:62 0.000138588
107 *516:48 *549:51 6.98414e-05
108 *516:48 *549:62 0.000459363
109 *520:106 *2454:A 6.7611e-05
110 *520:106 *549:51 1.90936e-05
111 *523:51 *549:18 5.31113e-05
112 *523:88 *549:18 0.000811556
113 *524:31 *549:18 0
114 *524:74 *549:62 0
115 *524:127 *2215:A2 0
116 *524:127 *549:62 0
117 *525:120 *549:117 3.38136e-05
118 *526:111 *549:82 7.2754e-05
119 *527:41 *549:117 0.0004032
120 *527:55 *549:119 0.00181541
121 *527:106 *549:119 9.28054e-05
122 *529:22 *2455:A 1.5546e-05
123 *529:22 *549:12 7.91506e-05
124 *538:46 *549:117 0.000146316
125 *544:31 *549:119 9.21418e-06
126 *545:134 *549:117 0.0001151
127 *548:104 *2454:A 5.58941e-05
*RES
1 *2456:X *549:12 11.9518 
2 *549:12 *549:18 24.7054 
3 *549:18 *549:20 12.4464 
4 *549:20 *549:24 5.03571 
5 *549:24 *2454:A 33.9429 
6 *549:24 *549:51 13.6948 
7 *549:51 *2100:B 16.8 
8 *549:51 *549:62 25.0179 
9 *549:62 *549:82 43.1964 
10 *549:82 *2238:A2 9.3 
11 *549:62 *2215:A2 18.7464 
12 *549:20 *2176:B 9.3 
13 *549:18 *549:117 29.8393 
14 *549:117 *549:119 25.625 
15 *549:119 *549:121 4.5 
16 *549:121 *2199:A2 13.1214 
17 *549:121 *2197:B 32.8893 
18 *549:119 *2201:B1 18.9071 
19 *549:12 *2455:A 9.67946 
*END

*D_NET *550 0.0183608
*CONN
*I *2402:A I *D sky130_fd_sc_hd__nand2_1
*I *2022:A I *D sky130_fd_sc_hd__nand2_1
*I *2176:A I *D sky130_fd_sc_hd__or3_1
*I *1954:A I *D sky130_fd_sc_hd__inv_2
*I *2031:A I *D sky130_fd_sc_hd__nor2_1
*I *2033:A I *D sky130_fd_sc_hd__nand2_1
*I *1969:B I *D sky130_fd_sc_hd__and2b_1
*I *1981:A I *D sky130_fd_sc_hd__or2_1
*I *1983:A I *D sky130_fd_sc_hd__nor2_1
*I *1984:A I *D sky130_fd_sc_hd__and2_4
*I *2457:X O *D sky130_fd_sc_hd__buf_8
*CAP
1 *2402:A 0.000254167
2 *2022:A 0
3 *2176:A 0.000312923
4 *1954:A 3.79062e-05
5 *2031:A 0
6 *2033:A 0.000675118
7 *1969:B 0.000110654
8 *1981:A 0.000146593
9 *1983:A 0.000236735
10 *1984:A 0.000103682
11 *2457:X 0
12 *550:80 0.00122507
13 *550:68 0.00120665
14 *550:62 0.00114189
15 *550:51 0.000702403
16 *550:38 0.000633708
17 *550:14 0.000390972
18 *550:12 0.000227211
19 *550:8 0.000204087
20 *550:4 0.000387133
21 *1983:A *1998:B1 0
22 *1984:A *552:86 2.16719e-05
23 *1984:A *552:92 0.000106542
24 *1984:A *554:39 0
25 *2402:A *2457:A 0.000142856
26 *550:14 *552:86 6.19181e-05
27 *550:38 *552:86 0.000142327
28 *550:51 *552:86 0.000262485
29 *1965:C *550:68 0.000101825
30 *1967:C1 *2176:A 5.33005e-05
31 *1968:A1 *550:62 0.000258564
32 *1973:B1_N *550:62 0
33 *1974:A1 *550:62 0
34 *1974:A1 *550:68 0.000318107
35 *1977:A1 *1969:B 4.17014e-05
36 *1977:B1 *1969:B 9.41642e-05
37 *1982:A *2033:A 0
38 *1985:A *550:51 0.000794502
39 *2008:B *550:80 0
40 *2024:B *1981:A 1.24368e-05
41 *2031:B *2033:A 4.89167e-05
42 *2033:B *2033:A 5.33005e-05
43 *2037:A *550:80 1.98839e-05
44 *2037:B *550:80 0.00033994
45 *2045:A *550:80 2.59355e-05
46 *2051:B *2033:A 7.83659e-05
47 *2150:C1 *550:80 0.000147211
48 *2177:A *2176:A 0.000219711
49 *2395:A *2033:A 6.58289e-05
50 *2395:C *2033:A 0.000154433
51 *2395:D_N *2033:A 0.000528343
52 *2403:A *1983:A 5.33005e-05
53 *2427:A *550:80 1.58163e-05
54 *2452:A *2176:A 0.000333493
55 *2452:A *550:62 5.41794e-05
56 *43:6 *550:80 0.00035013
57 *49:20 *2033:A 9.31209e-05
58 *182:8 *2176:A 4.16984e-05
59 *183:10 *2176:A 9.0145e-05
60 *219:6 *1954:A 8.71761e-06
61 *219:6 *550:80 1.05729e-05
62 *219:23 *550:80 7.81028e-05
63 *241:25 *2033:A 5.4005e-05
64 *283:24 *2033:A 6.57914e-05
65 *294:10 *550:80 0.000441447
66 *337:14 *2176:A 0
67 *337:14 *550:68 4.58194e-05
68 *369:6 *550:68 0.000272371
69 *369:10 *550:62 0
70 *369:12 *550:62 0
71 *369:18 *550:62 0
72 *380:12 *1969:B 5.71472e-05
73 *412:12 *1969:B 5.33334e-05
74 *440:16 *1969:B 9.60939e-05
75 *470:12 *550:80 0
76 *475:73 *2033:A 0.000578696
77 *486:14 *1981:A 0.000183726
78 *497:62 *550:62 1.50087e-05
79 *517:62 *2033:A 0
80 *517:86 *1969:B 5.33005e-05
81 *517:88 *550:51 4.30452e-05
82 *517:88 *550:62 3.06511e-05
83 *518:65 *550:8 5.52238e-05
84 *518:75 *550:8 4.7194e-05
85 *518:75 *550:12 0.000183726
86 *524:31 *550:80 0.000117621
87 *540:8 *550:68 0.000119125
88 *542:128 *550:68 0.000599499
89 *542:128 *550:80 2.98258e-05
90 *545:27 *550:68 8.57023e-05
91 *547:83 *1984:A 5.58941e-05
92 *547:83 *550:14 0.000116481
93 *547:83 *550:38 0.000261707
94 *547:83 *550:51 0.00131202
95 *547:83 *550:62 9.00763e-05
96 *547:93 *1984:A 7.57869e-05
*RES
1 *2457:X *550:4 9.3 
2 *550:4 *550:8 2.60714 
3 *550:8 *550:12 6.26786 
4 *550:12 *550:14 1.64286 
5 *550:14 *1984:A 16.9607 
6 *550:14 *1983:A 17.2464 
7 *550:12 *550:38 3.46429 
8 *550:38 *1981:A 16.4071 
9 *550:38 *550:51 16.8214 
10 *550:51 *1969:B 16.8 
11 *550:51 *550:62 4.98214 
12 *550:62 *550:68 19.6339 
13 *550:68 *550:80 23.3482 
14 *550:80 *2033:A 35.7107 
15 *550:80 *2031:A 9.3 
16 *550:68 *1954:A 10.4696 
17 *550:62 *2176:A 21.175 
18 *550:8 *2022:A 9.3 
19 *550:4 *2402:A 13.9607 
*END

*D_NET *551 0.0259351
*CONN
*I *2202:A I *D sky130_fd_sc_hd__and3_1
*I *2238:A1 I *D sky130_fd_sc_hd__o31a_1
*I *2215:A1 I *D sky130_fd_sc_hd__o21a_1
*I *2207:A I *D sky130_fd_sc_hd__nand2_1
*I *2457:A I *D sky130_fd_sc_hd__buf_8
*I *2458:X O *D sky130_fd_sc_hd__buf_8
*CAP
1 *2202:A 0.0026315
2 *2238:A1 0
3 *2215:A1 8.28857e-05
4 *2207:A 0.000265499
5 *2457:A 0.000236048
6 *2458:X 0
7 *551:71 0.00138743
8 *551:49 0.00190761
9 *551:29 0.00847078
10 *551:6 0.00520676
11 *2202:A *2201:A1 0
12 *2457:A *554:64 0
13 *551:29 *552:26 0.000154205
14 *551:29 *554:64 0
15 *1967:B1 *551:29 0.000101444
16 *2196:B *551:49 0.000268403
17 *2201:B2 *2202:A 7.83659e-05
18 *2207:B *2207:A 1.90213e-05
19 *2210:A *551:71 0.000351156
20 *2210:B *2207:A 0.000312215
21 *2210:B *551:71 4.38128e-05
22 *2214:A *551:71 4.25809e-05
23 *2215:A2 *2215:A1 5.10822e-05
24 *2215:B1 *2215:A1 5.03787e-05
25 *2219:B *551:71 2.28499e-05
26 *2221:B1 *551:71 0.000233357
27 *2239:B *551:49 6.09572e-05
28 *2240:A *551:49 1.21289e-05
29 *2242:A *551:49 0.000139907
30 *2244:B1 *551:71 0.000222399
31 *2265:C1 *2202:A 0.000282485
32 *2265:C1 *551:49 8.99089e-05
33 *2266:A_N *551:49 0.000191403
34 *2402:A *2457:A 0.000142856
35 *2402:B *2457:A 0
36 *2402:B *551:29 0
37 *2485:A *551:49 3.15517e-05
38 *181:16 *551:49 0.000492257
39 *181:16 *551:71 2.05757e-05
40 *183:10 *551:29 0.000240632
41 *191:28 *551:71 0.000118457
42 *192:37 *551:49 0.00091442
43 *192:37 *551:71 0.000137983
44 *192:45 *551:71 3.31436e-05
45 *207:12 *2202:A 0
46 *224:10 *551:71 9.90431e-05
47 *225:6 *551:71 7.77751e-05
48 *524:127 *2215:A1 0
49 *527:106 *2202:A 0
50 *528:23 *2202:A 0
51 *530:45 *551:49 0
52 *532:29 *551:29 0.000102847
53 *535:27 *551:29 0.000125466
54 *549:82 *551:71 0.000481568
*RES
1 *2458:X *551:6 13.8 
2 *551:6 *2457:A 18.3179 
3 *551:6 *551:29 20.6005 
4 *551:29 *551:49 31.831 
5 *551:49 *551:71 30.3036 
6 *551:71 *2207:A 14.2643 
7 *551:71 *2215:A1 20.2464 
8 *551:49 *2238:A1 9.3 
9 *551:29 *2202:A 24.8575 
*END

*D_NET *552 0.0164358
*CONN
*I *2178:D I *D sky130_fd_sc_hd__or4_1
*I *2335:B2 I *D sky130_fd_sc_hd__a32o_1
*I *1969:A_N I *D sky130_fd_sc_hd__and2b_1
*I *2356:A I *D sky130_fd_sc_hd__nand2_1
*I *2357:A I *D sky130_fd_sc_hd__and3_1
*I *2358:A2 I *D sky130_fd_sc_hd__a22oi_1
*I *1979:A I *D sky130_fd_sc_hd__nand3_1
*I *1978:A I *D sky130_fd_sc_hd__and3_1
*I *1980:A2 I *D sky130_fd_sc_hd__a21o_1
*I *1992:A1 I *D sky130_fd_sc_hd__a22o_1
*I *2459:X O *D sky130_fd_sc_hd__buf_2
*CAP
1 *2178:D 0.000133322
2 *2335:B2 7.91801e-05
3 *1969:A_N 2.52056e-05
4 *2356:A 4.31276e-05
5 *2357:A 7.51952e-05
6 *2358:A2 9.07064e-05
7 *1979:A 0
8 *1978:A 0.000191155
9 *1980:A2 0
10 *1992:A1 3.61152e-05
11 *2459:X 0.000126369
12 *552:92 0.00119786
13 *552:86 0.00171578
14 *552:53 0.000285211
15 *552:42 0.000163175
16 *552:38 0.000317361
17 *552:32 0.00137393
18 *552:26 0.00137394
19 *552:16 0.00106311
20 *552:14 0.000343766
21 *2178:D *565:67 1.02936e-05
22 *552:16 *554:97 3.70213e-05
23 *552:26 *554:75 0.000260553
24 *552:26 *554:97 0.000274703
25 *552:32 *554:75 0.000235734
26 *552:86 *554:64 0
27 *552:86 *554:75 0
28 *552:92 *554:14 0
29 *552:92 *554:39 0
30 *1967:B1 *552:26 0.00010694
31 *1970:C1 *552:26 0.000168217
32 *1979:B *552:53 1.7721e-05
33 *1984:A *552:86 2.16719e-05
34 *1984:A *552:92 0.000106542
35 *1985:A *552:86 0.000391426
36 *1986:A *1978:A 2.06178e-05
37 *1986:B *1978:A 0.000435278
38 *1986:C *1978:A 0.000341119
39 *1991:A1 *552:38 9.90367e-05
40 *1992:A2 *552:42 0
41 *2007:A2 *1978:A 2.22043e-05
42 *2178:B *552:14 6.69697e-05
43 *2178:B *552:16 8.55772e-05
44 *2178:C *2178:D 6.86693e-05
45 *2180:A *552:14 8.00806e-05
46 *2277:A1 *552:86 5.98293e-05
47 *2335:A1 *2335:B2 0.00026353
48 *2358:A1 *2358:A2 9.25014e-06
49 *2359:A *2357:A 0
50 *2380:C1 *552:26 0.000146474
51 *2392:B2 *552:32 0.000154762
52 *2394:A2 *552:32 0
53 *2401:B *2358:A2 1.46576e-05
54 *2403:A *2356:A 9.71197e-05
55 *2404:A *552:92 0
56 *2441:A *552:26 4.15526e-05
57 *2454:A *552:26 2.84398e-05
58 *2503:A *552:26 0.000431654
59 *183:10 *552:14 0.000146564
60 *183:10 *552:16 7.94471e-05
61 *183:10 *552:26 0.000867118
62 *205:39 *2335:B2 0.000134471
63 *242:12 *552:14 5.33005e-05
64 *348:10 *552:26 0.000196269
65 *348:32 *552:26 0.00019384
66 *412:12 *1969:A_N 5.52302e-05
67 *441:23 *552:38 9.90367e-05
68 *441:32 *1992:A1 4.58194e-05
69 *441:32 *552:38 0.000128379
70 *441:32 *552:42 4.59075e-05
71 *443:6 *1992:A1 9.41642e-05
72 *443:6 *552:38 5.02242e-05
73 *443:6 *552:42 8.66063e-05
74 *448:27 *2358:A2 7.13226e-06
75 *449:27 *1978:A 0.000220019
76 *449:27 *552:53 2.91578e-05
77 *454:8 *552:53 9.49928e-05
78 *474:8 *552:53 2.03997e-05
79 *486:8 *552:86 5.26091e-05
80 *497:62 *552:86 9.9974e-05
81 *518:65 *552:86 0
82 *520:62 *552:86 0
83 *520:106 *2178:D 5.52238e-05
84 *535:27 *552:26 0
85 *535:27 *552:32 0
86 *537:10 *552:26 6.51976e-05
87 *537:26 *552:26 1.82528e-05
88 *548:47 *2357:A 9.33978e-07
89 *548:47 *2358:A2 5.74562e-05
90 *548:104 *552:26 8.50387e-05
91 *550:14 *552:86 6.19181e-05
92 *550:38 *552:86 0.000142327
93 *550:51 *552:86 0.000262485
94 *551:29 *552:26 0.000154205
*RES
1 *2459:X *552:14 17.2464 
2 *552:14 *552:16 2.25 
3 *552:16 *552:26 27.8571 
4 *552:26 *552:32 13.5 
5 *552:32 *552:38 5.60714 
6 *552:38 *552:42 1.375 
7 *552:42 *1992:A1 10.2464 
8 *552:42 *552:53 6.44643 
9 *552:53 *1980:A2 13.8 
10 *552:53 *1978:A 21.8086 
11 *552:38 *1979:A 9.3 
12 *552:32 *552:86 21.0179 
13 *552:86 *552:92 18.0357 
14 *552:92 *2358:A2 20.0902 
15 *552:92 *2357:A 10.2643 
16 *552:86 *2356:A 14.7464 
17 *552:26 *1969:A_N 14.3357 
18 *552:16 *2335:B2 16.3893 
19 *552:14 *2178:D 15.9786 
*END

*D_NET *553 0.0076728
*CONN
*I *2376:A1 I *D sky130_fd_sc_hd__a21oi_1
*I *2377:A1 I *D sky130_fd_sc_hd__o22a_1
*I *2378:A1 I *D sky130_fd_sc_hd__a32o_1
*I *2418:A1 I *D sky130_fd_sc_hd__a211o_1
*I *2382:A1 I *D sky130_fd_sc_hd__a21oi_1
*I *2342:A I *D sky130_fd_sc_hd__xor2_1
*I *2460:X O *D sky130_fd_sc_hd__clkbuf_2
*CAP
1 *2376:A1 0
2 *2377:A1 0.000365498
3 *2378:A1 0
4 *2418:A1 1.42796e-05
5 *2382:A1 0
6 *2342:A 0.000111111
7 *2460:X 0.000147761
8 *553:30 0.00072237
9 *553:24 0.000923303
10 *553:14 0.000327273
11 *553:12 0.000508111
12 *553:6 0.000260866
13 *2342:A *554:81 0.000578042
14 *553:30 *554:81 0.000336802
15 *2338:B *553:24 0.00026546
16 *2341:A *2342:A 0.000170964
17 *2376:A2 *553:12 7.14469e-05
18 *2376:A2 *553:14 4.45756e-05
19 *2377:A2 *2377:A1 2.24763e-05
20 *2377:B2 *2377:A1 0.000195504
21 *2378:A3 *2377:A1 9.60939e-05
22 *2380:A1 *553:30 0.000340059
23 *2382:A2 *2342:A 0.000188586
24 *2386:A *553:30 0.000189887
25 *2387:A *553:30 0.000125717
26 *2415:A2 *553:24 6.81294e-05
27 *2415:A2 *553:30 5.31122e-05
28 *2415:B1 *553:6 9.90367e-05
29 *2415:B1 *553:12 9.60939e-05
30 *2417:A3 *553:30 7.98428e-06
31 *2417:B1 *553:30 0.000103041
32 *2418:A2 *553:24 7.45123e-05
33 *2418:A2 *553:30 8.6229e-06
34 *2418:B1 *2418:A1 5.52302e-05
35 *2418:C1 *553:30 3.25078e-05
36 *2423:A *2377:A1 2.1842e-05
37 *183:10 *553:30 5.06981e-05
38 *188:26 *2377:A1 5.04705e-05
39 *190:67 *553:6 0.000127476
40 *197:68 *553:12 6.49408e-05
41 *197:68 *553:14 9.54798e-06
42 *199:51 *2418:A1 5.33005e-05
43 *353:16 *2342:A 1.04232e-05
44 *492:33 *553:14 2.30445e-05
45 *492:33 *553:24 0.000141498
46 *532:23 *553:30 9.74492e-05
47 *532:25 *553:30 0.000199315
48 *532:29 *553:30 3.17163e-05
49 *535:72 *553:24 9.39125e-05
50 *535:87 *553:14 1.02504e-05
51 *535:87 *553:24 4.7585e-05
52 *537:107 *2342:A 2.95641e-05
53 *537:107 *553:30 5.30637e-06
*RES
1 *2460:X *553:6 11.4786 
2 *553:6 *553:12 6.48214 
3 *553:12 *553:14 0.732143 
4 *553:14 *553:24 14.5714 
5 *553:24 *553:30 20.9286 
6 *553:30 *2342:A 15.1929 
7 *553:30 *2382:A1 9.3 
8 *553:24 *2418:A1 14.3357 
9 *553:14 *2378:A1 13.8 
10 *553:12 *2377:A1 19.175 
11 *553:6 *2376:A1 9.3 
*END

*D_NET *554 0.0210166
*CONN
*I *2358:B2 I *D sky130_fd_sc_hd__a22oi_1
*I *2178:A I *D sky130_fd_sc_hd__or4_1
*I *2290:A I *D sky130_fd_sc_hd__and2_1
*I *2328:A I *D sky130_fd_sc_hd__nand2_1
*I *2327:A I *D sky130_fd_sc_hd__or2_1
*I *1985:B I *D sky130_fd_sc_hd__or2_1
*I *1984:B I *D sky130_fd_sc_hd__and2_4
*I *1983:B I *D sky130_fd_sc_hd__nor2_1
*I *1998:B1 I *D sky130_fd_sc_hd__o21ai_1
*I *2401:A I *D sky130_fd_sc_hd__nand2_1
*I *2461:X O *D sky130_fd_sc_hd__clkbuf_4
*CAP
1 *2358:B2 0.000128187
2 *2178:A 2.4506e-05
3 *2290:A 0.00139958
4 *2328:A 6.01337e-05
5 *2327:A 0
6 *1985:B 0.000100896
7 *1984:B 0
8 *1983:B 0
9 *1998:B1 3.99697e-05
10 *2401:A 0
11 *2461:X 3.10251e-05
12 *554:97 0.00190615
13 *554:81 0.000947501
14 *554:75 0.00216483
15 *554:64 0.00159667
16 *554:39 0.000366389
17 *554:27 0.000507365
18 *554:14 0.000302257
19 *554:10 0.00146132
20 *554:6 0.000798852
21 *1970:C1 *554:75 0.000168224
22 *1983:A *1998:B1 0
23 *1984:A *554:39 0
24 *1998:A1 *1998:B1 9.7049e-06
25 *1998:A2 *1998:B1 5.7661e-06
26 *1999:B *1998:B1 3.18676e-05
27 *2178:B *2178:A 6.74867e-05
28 *2178:B *554:97 5.13009e-05
29 *2277:A1 *554:64 0
30 *2293:C1 *2290:A 4.26757e-05
31 *2327:B *2328:A 5.71472e-05
32 *2327:B *554:81 0
33 *2341:A *554:81 1.02821e-05
34 *2342:A *554:81 0.000578042
35 *2355:A *2358:B2 0
36 *2358:A1 *554:10 0.00018077
37 *2359:B *2358:B2 3.17148e-05
38 *2380:C1 *554:97 7.73662e-05
39 *2394:A2 *554:75 0
40 *2397:A1 *554:75 0
41 *2397:B1 *554:75 0
42 *2400:B1_N *2358:B2 5.59013e-05
43 *2401:B *2358:B2 9.80173e-05
44 *2401:B *554:27 6.20656e-05
45 *2403:B *554:10 4.89867e-05
46 *2403:B *554:64 0
47 *2404:A *554:10 1.74352e-05
48 *2404:A *554:14 8.00806e-05
49 *2404:A *554:64 7.05375e-05
50 *2404:B *554:10 7.77751e-05
51 *2405:B *554:10 0.000154027
52 *2457:A *554:64 0
53 *199:35 *2290:A 2.47517e-05
54 *348:10 *554:75 0.000189448
55 *348:32 *554:75 0.000185304
56 *353:16 *2328:A 0
57 *353:16 *554:81 0.000122101
58 *373:8 *2358:B2 9.60875e-05
59 *413:16 *1985:B 0.000230475
60 *448:27 *554:27 0.000407835
61 *448:27 *554:39 0.000102207
62 *462:12 *554:39 0
63 *493:14 *554:6 5.52302e-05
64 *493:14 *554:10 4.18895e-05
65 *518:65 *554:64 0.000118339
66 *519:80 *2290:A 5.83233e-05
67 *519:90 *2290:A 0.00179287
68 *519:100 *2290:A 7.46146e-05
69 *520:62 *554:75 0.000434655
70 *520:106 *2178:A 2.96842e-05
71 *520:106 *554:75 0.00105103
72 *520:106 *554:97 0.000570382
73 *525:120 *2290:A 0.000113056
74 *537:10 *554:97 6.2824e-05
75 *537:26 *554:97 8.66838e-05
76 *537:107 *2328:A 0.00014183
77 *537:107 *554:81 2.24079e-05
78 *547:93 *554:39 4.07257e-05
79 *548:37 *2358:B2 6.2589e-06
80 *551:29 *554:64 0
81 *552:16 *554:97 3.70213e-05
82 *552:26 *554:75 0.000260553
83 *552:26 *554:97 0.000274703
84 *552:32 *554:75 0.000235734
85 *552:86 *554:64 0
86 *552:86 *554:75 0
87 *552:92 *554:14 0
88 *552:92 *554:39 0
89 *553:30 *554:81 0.000336802
*RES
1 *2461:X *554:6 9.83571 
2 *554:6 *554:10 13.25 
3 *554:10 *554:14 6.44643 
4 *554:14 *2401:A 9.3 
5 *554:14 *554:27 5.21429 
6 *554:27 *554:39 15.1071 
7 *554:39 *1998:B1 10.2643 
8 *554:39 *1983:B 9.3 
9 *554:27 *1984:B 9.3 
10 *554:10 *554:64 13.2321 
11 *554:64 *1985:B 15.9786 
12 *554:64 *554:75 24.1071 
13 *554:75 *554:81 16.9643 
14 *554:81 *2327:A 9.3 
15 *554:81 *2328:A 11.0857 
16 *554:75 *554:97 14.5446 
17 *554:97 *2290:A 25.4731 
18 *554:97 *2178:A 14.6839 
19 *554:6 *2358:B2 21.1929 
*END

*D_NET *555 0.0215328
*CONN
*I *2233:A1 I *D sky130_fd_sc_hd__o22a_1
*I *2222:A2 I *D sky130_fd_sc_hd__a21o_1
*I *2224:B I *D sky130_fd_sc_hd__and3_1
*I *2433:A I *D sky130_fd_sc_hd__buf_2
*I *2479:X O *D sky130_fd_sc_hd__dlymetal6s2s_1
*CAP
1 *2233:A1 0.000492414
2 *2222:A2 0.000305762
3 *2224:B 6.03208e-05
4 *2433:A 6.55435e-05
5 *2479:X 0.00186262
6 *555:41 0.00393888
7 *555:31 0.00476734
8 *555:12 0.00263029
9 *2197:B *2224:B 9.25014e-06
10 *2224:C *2222:A2 4.1331e-06
11 *2225:A2_N *2224:B 4.5539e-05
12 *2226:B *2222:A2 4.5534e-05
13 *2232:B *2233:A1 0.000388715
14 *2233:B2 *2233:A1 0.000192293
15 *2275:B1_N *555:31 5.59013e-05
16 *2278:A *2233:A1 0.000134758
17 *2348:A2 *555:31 7.1271e-05
18 *2353:B *555:12 0.000142797
19 *2353:B *555:31 9.25014e-06
20 *2354:B *555:12 4.58976e-05
21 *2367:A1 *555:12 0.000357048
22 *2367:B1 *555:12 4.16984e-05
23 *2394:A1 *2433:A 0.000137983
24 *2407:B1 *555:12 0.000224473
25 *2409:A *555:12 1.11474e-05
26 *2423:A *2233:A1 0.000134773
27 *188:26 *2233:A1 2.28499e-05
28 *188:35 *2233:A1 0
29 *202:51 *2222:A2 1.12484e-05
30 *233:12 *2224:B 1.41231e-05
31 *253:8 *555:41 0.000132012
32 *256:10 *555:31 0.000101545
33 *259:24 *555:41 0.000720835
34 *311:10 *555:12 4.55135e-05
35 *368:14 *555:12 8.85761e-05
36 *490:23 *555:12 0.000175805
37 *490:23 *555:31 0.000201783
38 *493:48 *555:31 5.52238e-05
39 *493:50 *2233:A1 0.00129484
40 *493:50 *555:31 0.000985057
41 *493:83 *555:41 0.000128055
42 *523:88 *2233:A1 4.44568e-05
43 *523:88 *555:31 3.4323e-06
44 *523:115 *2233:A1 1.50132e-05
45 *524:31 *555:31 4.58976e-05
46 *525:14 *555:12 0.00018372
47 *526:18 *555:31 0
48 *526:43 *555:31 0
49 *540:52 *555:31 0.000351156
50 *545:134 *555:41 0.000306513
51 *549:18 *555:31 0.000429528
*RES
1 *2479:X *555:12 39.9786 
2 *555:12 *2433:A 15.1571 
3 *555:12 *555:31 30.4196 
4 *555:31 *555:41 18.9704 
5 *555:41 *2224:B 17.8734 
6 *555:41 *2222:A2 18.3058 
7 *555:31 *2233:A1 31.8446 
*END

*D_NET *556 0.00260783
*CONN
*I *2107:A2 I *D sky130_fd_sc_hd__o21ai_1
*I *2493:X O *D sky130_fd_sc_hd__dlygate4sd1_1
*CAP
1 *2107:A2 0.000477687
2 *2493:X 0.000477687
3 *2107:A2 *567:22 0.000106899
4 *2119:A1 *2107:A2 0.000141734
5 *2119:A2 *2107:A2 5.49489e-05
6 *2126:B1 *2107:A2 1.10856e-05
7 *112:21 *2107:A2 0.000266479
8 *117:14 *2107:A2 0.000341413
9 *117:22 *2107:A2 0.000212755
10 *117:51 *2107:A2 4.08637e-05
11 *118:19 *2107:A2 0.000168939
12 *539:26 *2107:A2 0.000307343
13 *539:30 *2107:A2 0
*RES
1 *2493:X *2107:A2 40.1714 
*END

*D_NET *557 0.000216573
*CONN
*I *2493:A I *D sky130_fd_sc_hd__dlygate4sd1_1
*I *2495:X O *D sky130_fd_sc_hd__dlygate4sd1_1
*CAP
1 *2493:A 8.41393e-05
2 *2495:X 8.41393e-05
3 *92:12 *2493:A 6.05161e-06
4 *92:26 *2493:A 4.22431e-05
*RES
1 *2495:X *2493:A 19.975 
*END

*D_NET *558 0.00270242
*CONN
*I *2236:A2 I *D sky130_fd_sc_hd__a211o_1
*I *2497:X O *D sky130_fd_sc_hd__dlygate4sd1_1
*CAP
1 *2236:A2 0.000748265
2 *2497:X 0.000748265
3 *1959:A *2236:A2 9.91086e-05
4 *2101:B *2236:A2 0
5 *2150:C1 *2236:A2 6.87574e-05
6 *2159:A *2236:A2 7.8327e-05
7 *2165:B1 *2236:A2 9.59532e-06
8 *107:10 *2236:A2 9.90367e-05
9 *178:25 *2236:A2 6.07232e-05
10 *219:23 *2236:A2 0
11 *273:12 *2236:A2 0.000239263
12 *326:66 *2236:A2 7.73662e-05
13 *475:98 *2236:A2 0.000304256
14 *516:25 *2236:A2 0
15 *529:78 *2236:A2 0.000169454
*RES
1 *2497:X *2236:A2 43.5643 
*END

*D_NET *559 0.00208975
*CONN
*I *2061:A1 I *D sky130_fd_sc_hd__a21o_1
*I *2046:A1 I *D sky130_fd_sc_hd__a21o_1
*I *2057:A1 I *D sky130_fd_sc_hd__a21oi_1
*I *2498:X O *D sky130_fd_sc_hd__dlygate4sd1_1
*CAP
1 *2061:A1 7.29598e-05
2 *2046:A1 0.000238921
3 *2057:A1 0.000177915
4 *2498:X 4.36033e-05
5 *559:10 0.000450055
6 *559:8 0.000149782
7 *2041:C *2061:A1 1.59312e-05
8 *2046:A2 *2046:A1 0.000134549
9 *2057:A2 *2057:A1 0.000142856
10 *2058:B1 *2057:A1 5.71472e-05
11 *2075:A1 *2057:A1 1.33343e-05
12 *2075:B1 *2057:A1 2.07382e-05
13 *2498:A *2046:A1 9.90431e-05
14 *45:42 *2046:A1 2.77258e-05
15 *45:42 *2057:A1 0
16 *45:42 *559:8 5.33005e-05
17 *471:43 *2057:A1 2.8266e-06
18 *471:43 *2061:A1 4.52914e-05
19 *471:43 *559:10 3.60626e-05
20 *513:10 *2061:A1 0.00010047
21 *513:10 *559:10 4.56437e-05
22 *513:12 *2057:A1 0.00010326
23 *513:12 *559:10 5.83304e-05
*RES
1 *2498:X *559:8 14.3357 
2 *559:8 *559:10 1.33929 
3 *559:10 *2057:A1 17.7464 
4 *559:10 *2046:A1 18.0321 
5 *559:8 *2061:A1 15.7464 
*END

*D_NET *560 0.00201159
*CONN
*I *2135:A2 I *D sky130_fd_sc_hd__o32a_1
*I *2499:X O *D sky130_fd_sc_hd__dlygate4sd1_1
*CAP
1 *2135:A2 0.000354257
2 *2499:X 0.000354257
3 *2135:A2 *568:29 0.000137983
4 *2123:A2 *2135:A2 0.000308146
5 *2126:A3 *2135:A2 9.58126e-05
6 *2135:A1 *2135:A2 2.05612e-05
7 *123:14 *2135:A2 5.65955e-05
8 *126:29 *2135:A2 0.000683976
*RES
1 *2499:X *2135:A2 27.35 
*END

*D_NET *561 0.00155603
*CONN
*I *2501:A I *D sky130_fd_sc_hd__dlygate4sd1_1
*I *2499:A I *D sky130_fd_sc_hd__dlygate4sd1_1
*I *2500:X O *D sky130_fd_sc_hd__buf_1
*CAP
1 *2501:A 0.000181511
2 *2499:A 0
3 *2500:X 0.000230939
4 *561:10 0.00041245
5 *130:10 *561:10 7.6644e-05
6 *130:29 *2501:A 0.000195555
7 *130:29 *561:10 4.66511e-05
8 *471:94 *2501:A 0
9 *471:94 *561:10 0
10 *498:25 *2501:A 0.000184745
11 *531:14 *561:10 0.000227532
*RES
1 *2500:X *561:10 17.6214 
2 *561:10 *2499:A 13.8 
3 *561:10 *2501:A 18.1214 
*END

*D_NET *562 0.000249394
*CONN
*I *2105:B I *D sky130_fd_sc_hd__nor2_1
*I *2501:X O *D sky130_fd_sc_hd__dlygate4sd1_1
*CAP
1 *2105:B 8.56551e-05
2 *2501:X 8.56551e-05
3 *2105:A *2105:B 5.52238e-05
4 *498:25 *2105:B 2.28598e-05
*RES
1 *2501:X *2105:B 20.2786 
*END

*D_NET *563 0.00142764
*CONN
*I *2072:A1 I *D sky130_fd_sc_hd__a21o_1
*I *2071:A1 I *D sky130_fd_sc_hd__a21oi_1
*I *2502:X O *D sky130_fd_sc_hd__buf_1
*CAP
1 *2072:A1 0
2 *2071:A1 6.82088e-05
3 *2502:X 0.000342618
4 *563:10 0.000410827
5 *2070:C *563:10 1.95435e-05
6 *2071:A2 *2071:A1 5.49489e-05
7 *2071:B1 *2071:A1 5.2027e-05
8 *2071:B1 *563:10 8.45367e-05
9 *283:48 *563:10 0.00014183
10 *283:54 *563:10 0.000253097
*RES
1 *2502:X *563:10 14.9071 
2 *563:10 *2071:A1 10.6571 
3 *563:10 *2072:A1 9.3 
*END

*D_NET *564 0.00871489
*CONN
*I *2213:A1 I *D sky130_fd_sc_hd__a22o_1
*I *2149:A2 I *D sky130_fd_sc_hd__o211a_1
*I *2155:A1 I *D sky130_fd_sc_hd__a211o_1
*I *2150:A2 I *D sky130_fd_sc_hd__o211a_1
*I *2130:C I *D sky130_fd_sc_hd__or3_1
*I *2424:X O *D sky130_fd_sc_hd__buf_6
*CAP
1 *2213:A1 0.00146851
2 *2149:A2 0
3 *2155:A1 0.000250804
4 *2150:A2 0.000284589
5 *2130:C 0.000426303
6 *2424:X 0
7 *564:39 0.000565491
8 *564:37 0.000175274
9 *564:35 0.00172814
10 *564:4 0.000540752
11 *2092:A *2155:A1 7.84853e-05
12 *2116:A *2130:C 0.000496602
13 *2149:A1 *2150:A2 0
14 *2149:A1 *564:37 0
15 *2149:A1 *564:39 0
16 *2149:B1 *2150:A2 7.83659e-05
17 *2149:B1 *564:39 4.73656e-05
18 *2154:B *564:35 0.000304786
19 *2155:A2 *2155:A1 0.000350901
20 *2157:A *564:35 0.00010911
21 *2157:B *2150:A2 0
22 *2157:B *564:37 0
23 *2166:A_N *564:35 5.94205e-05
24 *2174:C *2213:A1 0
25 *2175:A1 *2213:A1 0
26 *2213:B2 *2213:A1 5.41494e-05
27 *2216:A *2130:C 0
28 *2216:A *2213:A1 0
29 *2441:A *2130:C 0.000129601
30 *103:34 *2150:A2 0
31 *136:14 *2130:C 3.14048e-05
32 *155:12 *564:37 0
33 *161:14 *2213:A1 0
34 *162:6 *564:35 0.000123673
35 *163:10 *2213:A1 0.000338488
36 *283:104 *2130:C 0.000640854
37 *497:33 *2130:C 0.000431818
38 *543:103 *2150:A2 0
39 *549:62 *2150:A2 0
40 *549:62 *2213:A1 0
41 *549:62 *564:37 0
*RES
1 *2424:X *564:4 9.3 
2 *564:4 *2130:C 33.1304 
3 *564:4 *564:35 9.28571 
4 *564:35 *564:37 2.25 
5 *564:37 *564:39 0.732143 
6 *564:39 *2150:A2 18.7107 
7 *564:39 *2155:A1 17.9429 
8 *564:37 *2149:A2 13.8 
9 *564:35 *2213:A1 35.1929 
*END

*D_NET *565 0.0122893
*CONN
*I *2289:A2 I *D sky130_fd_sc_hd__o22a_1
*I *2288:A2 I *D sky130_fd_sc_hd__a21oi_1
*I *2291:A2 I *D sky130_fd_sc_hd__a32o_1
*I *2325:A1 I *D sky130_fd_sc_hd__o21a_1
*I *2268:A I *D sky130_fd_sc_hd__xor2_1
*I *2420:X O *D sky130_fd_sc_hd__clkbuf_1
*CAP
1 *2289:A2 0.000238245
2 *2288:A2 0
3 *2291:A2 0
4 *2325:A1 0.000654293
5 *2268:A 0.000179353
6 *2420:X 0.000262782
7 *565:67 0.00103553
8 *565:28 0.00161545
9 *565:18 0.00101806
10 *565:10 0.00129633
11 *2178:B *565:67 5.52238e-05
12 *2178:C *565:67 0.000309266
13 *2178:D *565:67 1.02936e-05
14 *2233:A2 *565:18 8.40034e-05
15 *2234:A1 *565:67 4.46186e-06
16 *2234:B1 *565:10 7.69776e-06
17 *2234:B1 *565:67 5.8881e-05
18 *2235:C1 *565:67 0.000143012
19 *2267:A *2325:A1 0
20 *2268:B *2325:A1 0
21 *2289:A1 *2289:A2 5.52302e-05
22 *2289:B1 *2289:A2 1.98839e-05
23 *2291:B2 *565:18 5.7836e-06
24 *2291:B2 *565:28 2.83284e-06
25 *2293:C1 *565:18 0.000138184
26 *2325:B1 *2325:A1 2.53504e-05
27 *2331:A *565:28 0.000180777
28 *2332:C *565:28 1.58163e-05
29 *2333:B1 *2289:A2 0.000143188
30 *2334:B2 *2289:A2 1.00375e-05
31 *2336:A2 *565:67 0.000134529
32 *2338:A *565:28 3.71731e-05
33 *2338:B *565:10 1.00073e-05
34 *2338:C *565:28 4.33466e-05
35 *2339:B1 *2325:A1 4.00121e-05
36 *2340:A *2325:A1 0
37 *2415:B1 *565:67 0.00012757
38 *2420:A *565:10 2.11419e-05
39 *2445:A *565:10 0.000254795
40 *2460:A *565:67 5.33005e-05
41 *188:41 *2289:A2 1.91414e-05
42 *188:41 *565:67 1.02504e-05
43 *190:28 *565:67 1.74766e-05
44 *190:34 *2289:A2 0.000197134
45 *190:67 *565:67 0.000294992
46 *191:54 *2325:A1 0
47 *192:74 *2325:A1 0.000138114
48 *199:51 *565:10 0.000113204
49 *205:24 *565:67 0.000673532
50 *276:10 *2268:A 9.90367e-05
51 *276:10 *2325:A1 3.06511e-05
52 *326:100 *565:28 0.000306855
53 *338:10 *2325:A1 4.70162e-05
54 *339:12 *2325:A1 6.42242e-05
55 *352:12 *2325:A1 0.00014101
56 *492:23 *565:67 0.000225193
57 *493:83 *565:67 0.000354098
58 *497:62 *565:10 4.38265e-05
59 *519:90 *565:67 2.06112e-05
60 *519:100 *565:18 0.000563243
61 *520:106 *565:10 4.99283e-06
62 *520:106 *565:67 0.000127368
63 *526:43 *2289:A2 0.000403339
64 *526:43 *565:67 7.71771e-05
65 *526:73 *565:28 0
66 *529:70 *565:28 0
67 *537:107 *565:28 0
68 *542:139 *2325:A1 0
69 *546:44 *565:10 4.04691e-06
70 *546:69 *565:67 2.09495e-05
*RES
1 *2420:X *565:10 18.7732 
2 *565:10 *565:18 8.00859 
3 *565:18 *565:28 18.0714 
4 *565:28 *2268:A 12.3 
5 *565:28 *2325:A1 30.8714 
6 *565:18 *2291:A2 13.8 
7 *565:10 *565:67 32.5982 
8 *565:67 *2288:A2 13.8 
9 *565:67 *2289:A2 20.5679 
*END

*D_NET *566 0.011066
*CONN
*I *2430:A I *D sky130_fd_sc_hd__clkbuf_4
*I *2431:A I *D sky130_fd_sc_hd__dlymetal6s2s_1
*I *2480:X O *D sky130_fd_sc_hd__buf_1
*CAP
1 *2430:A 0
2 *2431:A 3.36637e-05
3 *2480:X 0.000750563
4 *566:22 0.00247045
5 *566:20 0.00281031
6 *566:8 0.00112409
7 *566:20 *571:14 0.000108347
8 *2235:B1 *2431:A 5.03772e-05
9 *2260:B1 *566:22 0.000106533
10 *2264:A1 *566:22 0
11 *2264:B2 *566:22 2.61337e-05
12 *2281:A_N *566:22 0
13 *2282:A *566:22 0.000307727
14 *2282:B *566:22 1.41029e-05
15 *2283:B1 *566:22 0.000147294
16 *2292:A2 *566:22 0.000149754
17 *2292:B1 *566:22 0
18 *2293:C1 *566:22 9.59532e-06
19 *2295:A *566:22 0
20 *2298:A2 *566:22 0.000222878
21 *2299:C *566:22 0.000199691
22 *2305:B1 *566:20 1.33343e-05
23 *2306:C *566:20 0.000144038
24 *2308:B *566:20 1.50563e-05
25 *2308:B *566:22 0.000117421
26 *2309:B *566:22 0.000138826
27 *2315:A *566:22 2.18827e-05
28 *2408:A1 *566:20 2.69614e-05
29 *2408:A1 *566:22 0
30 *2408:B1 *566:20 0.000148911
31 *2409:B *566:22 0.000183684
32 *280:12 *566:22 2.37761e-05
33 *288:18 *566:22 0.000100823
34 *289:10 *566:22 1.01417e-05
35 *291:8 *566:22 0.000243184
36 *309:14 *566:22 5.75896e-05
37 *310:12 *566:22 0.000105583
38 *311:10 *566:22 0
39 *316:8 *566:20 1.00375e-05
40 *320:12 *566:22 0
41 *368:14 *566:22 0
42 *377:8 *566:20 0.000168217
43 *378:8 *566:20 0
44 *514:35 *566:22 0.000221137
45 *514:43 *566:22 7.72826e-05
46 *519:23 *566:22 0
47 *520:16 *566:20 0.00018077
48 *521:18 *566:22 5.72433e-05
49 *525:120 *566:22 0
50 *526:12 *566:22 0.0001098
51 *527:31 *566:22 0
52 *527:61 *2431:A 3.32631e-05
53 *534:96 *566:22 0.000304975
54 *538:22 *566:22 0
55 *538:46 *566:22 0
56 *540:56 *566:22 0
57 *541:41 *566:22 2.05938e-05
58 *544:29 *566:22 0
59 *549:119 *566:22 0
*RES
1 *2480:X *566:8 21.2464 
2 *566:8 *566:20 14.1339 
3 *566:20 *566:22 55.5268 
4 *566:22 *2431:A 14.7464 
5 *566:8 *2430:A 9.3 
*END

*D_NET *567 0.0232149
*CONN
*I *2138:A I *D sky130_fd_sc_hd__nor2_1
*I *2139:A I *D sky130_fd_sc_hd__nand2_1
*I *2295:B I *D sky130_fd_sc_hd__nand2_1
*I *573:DIODE I *D sky130_fd_sc_hd__diode_2
*I *2106:A I *D sky130_fd_sc_hd__xor2_1
*I *2122:B2 I *D sky130_fd_sc_hd__o2bb2a_1
*I *2421:X O *D sky130_fd_sc_hd__clkbuf_1
*CAP
1 *2138:A 5.98387e-05
2 *2139:A 0.000210172
3 *2295:B 6.30746e-05
4 *573:DIODE 0
5 *2106:A 1.11927e-05
6 *2122:B2 0.000100446
7 *2421:X 0
8 *567:72 0.000700438
9 *567:56 0.00500555
10 *567:22 0.00127316
11 *567:8 0.00613835
12 *567:6 0.000464784
13 *2138:A *568:51 1.69115e-05
14 *567:8 *2124:B1 3.19677e-05
15 *567:22 *2124:B1 3.43799e-05
16 *567:72 *2124:B1 2.87473e-05
17 *567:72 *568:8 1.07561e-05
18 *567:72 *568:51 9.23634e-05
19 *1965:C *567:56 0
20 *2106:B *567:22 7.77652e-05
21 *2107:A2 *567:22 0.000106899
22 *2119:A1 *567:22 0.000104704
23 *2119:B1 *567:22 0.000168607
24 *2119:B2 *567:22 3.83448e-05
25 *2122:A1_N *2122:B2 0
26 *2130:A *567:22 0.000458107
27 *2139:B *2139:A 2.44318e-05
28 *2142:B *567:72 0
29 *2153:A2 *567:8 1.07753e-05
30 *2153:A2 *567:22 4.65158e-06
31 *2156:B1 *567:72 0
32 *2156:C1 *567:72 4.57352e-05
33 *2393:B *567:56 0
34 *2421:A *567:8 3.07555e-05
35 *2421:A *567:72 0.000155304
36 *2440:A *567:72 0.000405038
37 *2443:A *567:56 0
38 *38:12 *567:56 0
39 *50:37 *567:56 4.94884e-05
40 *113:6 *2122:B2 9.71197e-05
41 *113:6 *567:22 0.000213172
42 *113:8 *2122:B2 9.60875e-05
43 *117:51 *567:22 4.22431e-05
44 *130:10 *567:22 0.000266473
45 *143:10 *2138:A 5.52302e-05
46 *143:10 *2139:A 0.000156557
47 *144:6 *2139:A 9.22103e-06
48 *145:10 *2139:A 2.27416e-05
49 *471:29 *567:56 0.000118391
50 *490:23 *567:56 1.01912e-05
51 *495:10 *567:56 0.000118697
52 *501:18 *567:72 4.50033e-05
53 *516:85 *567:56 0.000405124
54 *517:86 *567:56 0.000132088
55 *523:57 *2295:B 0
56 *523:66 *2295:B 5.62995e-05
57 *531:22 *567:22 0
58 *534:56 *567:56 0.000106924
59 *534:75 *567:56 0.00217727
60 *539:26 *567:22 0.000194799
61 *542:18 *567:22 0.000335393
62 *542:77 *567:56 0.000107879
63 *543:59 *567:56 0.00252521
*RES
1 *2421:X *567:6 13.8 
2 *567:6 *567:8 1.1875 
3 *567:8 *567:22 26.3125 
4 *567:22 *2122:B2 11.4964 
5 *567:22 *2106:A 9.72857 
6 *567:8 *567:56 31.5956 
7 *567:56 *573:DIODE 9.3 
8 *567:56 *2295:B 10.675 
9 *567:6 *567:72 10.75 
10 *567:72 *2139:A 17.1214 
11 *567:72 *2138:A 15.0679 
*END

*D_NET *568 0.00606686
*CONN
*I *2132:A I *D sky130_fd_sc_hd__and3_1
*I *2131:B1 I *D sky130_fd_sc_hd__a21oi_1
*I *2148:C1 I *D sky130_fd_sc_hd__a211o_1
*I *2153:C1 I *D sky130_fd_sc_hd__a211o_1
*I *2124:B1 I *D sky130_fd_sc_hd__a21oi_4
*I *2422:X O *D sky130_fd_sc_hd__clkbuf_1
*CAP
1 *2132:A 0.000410867
2 *2131:B1 0
3 *2148:C1 0.000131858
4 *2153:C1 0
5 *2124:B1 0.000336627
6 *2422:X 0
7 *568:51 0.000770501
8 *568:29 0.000431308
9 *568:8 0.000852772
10 *568:6 0.000576329
11 *2092:A *568:29 0
12 *2131:A1 *2132:A 1.90213e-05
13 *2131:A2 *2132:A 0.000271007
14 *2135:A2 *568:29 0.000137983
15 *2138:A *568:51 1.69115e-05
16 *2147:A2 *2148:C1 1.63539e-05
17 *2147:B2 *2148:C1 4.1479e-07
18 *2155:A2 *2148:C1 0.00014285
19 *2155:A2 *568:29 2.44073e-05
20 *2156:A1 *2148:C1 4.8843e-05
21 *2156:A1 *568:29 0.00010096
22 *2156:B1 *568:29 0.00010096
23 *2440:A *2124:B1 5.10822e-05
24 *2440:A *568:8 0.000161693
25 *126:29 *568:29 0.000234648
26 *126:37 *2148:C1 2.34204e-05
27 *126:37 *568:29 2.07382e-05
28 *130:10 *2124:B1 0.000288557
29 *130:29 *2124:B1 0.000125731
30 *130:29 *568:8 0.000115474
31 *136:14 *2132:A 1.95435e-05
32 *137:10 *2132:A 9.00795e-06
33 *137:10 *568:51 0
34 *158:12 *2148:C1 0
35 *283:87 *2148:C1 0.000121594
36 *471:94 *568:8 0
37 *471:94 *568:51 0
38 *496:18 *2124:B1 2.16719e-05
39 *497:33 *568:8 0
40 *497:33 *568:51 0
41 *501:18 *568:8 1.60795e-05
42 *542:18 *2124:B1 0.000269428
43 *567:8 *2124:B1 3.19677e-05
44 *567:22 *2124:B1 3.43799e-05
45 *567:72 *2124:B1 2.87473e-05
46 *567:72 *568:8 1.07561e-05
47 *567:72 *568:51 9.23634e-05
*RES
1 *2422:X *568:6 13.8 
2 *568:6 *568:8 4.98214 
3 *568:8 *2124:B1 22.2821 
4 *568:8 *568:29 10.8393 
5 *568:29 *2153:C1 9.3 
6 *568:29 *2148:C1 21.9071 
7 *568:6 *568:51 11.3036 
8 *568:51 *2131:B1 9.3 
9 *568:51 *2132:A 15.1036 
*END

*D_NET *569 0.000436426
*CONN
*I *2078:A1 I *D sky130_fd_sc_hd__a21oi_1
*I *2494:X O *D sky130_fd_sc_hd__buf_1
*CAP
1 *2078:A1 0.000181368
2 *2494:X 0.000181368
3 *2079:B *2078:A1 1.65437e-05
4 *2079:C *2078:A1 5.71472e-05
*RES
1 *2494:X *2078:A1 20.7786 
*END

*D_NET *570 0.000447086
*CONN
*I *2301:B1 I *D sky130_fd_sc_hd__a31oi_2
*I *2496:X O *D sky130_fd_sc_hd__dlymetal6s2s_1
*CAP
1 *2301:B1 6.32572e-05
2 *2496:X 6.32572e-05
3 *2432:A *2301:B1 0.000148196
4 *537:36 *2301:B1 0.000172375
5 *545:50 *2301:B1 0
*RES
1 *2496:X *2301:B1 29.85 
*END

*D_NET *571 0.00371672
*CONN
*I *2429:A I *D sky130_fd_sc_hd__clkbuf_4
*I *2481:X O *D sky130_fd_sc_hd__clkbuf_1
*CAP
1 *2429:A 0
2 *2481:X 0.0015322
3 *571:14 0.0015322
4 *2305:B1 *571:14 0.000125723
5 *2363:A *571:14 0.000101545
6 *312:6 *571:14 7.43578e-06
7 *313:8 *571:14 0.000309266
8 *313:10 *571:14 0
9 *566:20 *571:14 0.000108347
*RES
1 *2481:X *571:14 40.7643 
2 *571:14 *2429:A 9.3 
*END

*D_NET *572 0.0098619
*CONN
*I *2187:A1 I *D sky130_fd_sc_hd__a22oi_1
*I *2201:A1 I *D sky130_fd_sc_hd__a22o_1
*I *2194:A1 I *D sky130_fd_sc_hd__a32o_1
*I *2188:A1 I *D sky130_fd_sc_hd__o22a_1
*I *1967:A1 I *D sky130_fd_sc_hd__a2111oi_1
*I *2423:X O *D sky130_fd_sc_hd__clkbuf_1
*CAP
1 *2187:A1 0
2 *2201:A1 0.000470653
3 *2194:A1 3.57861e-05
4 *2188:A1 0
5 *1967:A1 0.00102338
6 *2423:X 3.98475e-05
7 *572:52 0.000757847
8 *572:44 0.000306059
9 *572:29 0.000671713
10 *572:6 0.00168029
11 *1967:A2 *1967:A1 9.71601e-05
12 *2187:B1 *572:44 5.52238e-05
13 *2187:B2 *572:44 5.52302e-05
14 *2188:A2 *572:44 5.31453e-05
15 *2188:B2 *572:44 0.000100273
16 *2192:A *2201:A1 1.81774e-05
17 *2192:B *2201:A1 2.14757e-05
18 *2194:A3 *2194:A1 3.66478e-05
19 *2194:A3 *572:52 2.61099e-05
20 *2194:B1 *2194:A1 3.52408e-05
21 *2194:B1 *2201:A1 2.62005e-05
22 *2194:B2 *2201:A1 5.33433e-05
23 *2195:B1 *572:52 0.000101169
24 *2197:B *2201:A1 8.40933e-05
25 *2199:A1 *2201:A1 0.000443654
26 *2199:A2 *2201:A1 9.02232e-05
27 *2199:B1 *2201:A1 9.60875e-05
28 *2201:A2 *2201:A1 3.25078e-05
29 *2201:B2 *2201:A1 2.56694e-05
30 *2202:A *2201:A1 0
31 *2278:B *1967:A1 0.000200413
32 *2377:A2 *572:29 0.00010096
33 *2385:B *1967:A1 0
34 *2387:B *1967:A1 9.24395e-05
35 *2416:B2 *1967:A1 0
36 *2418:B1 *1967:A1 0
37 *188:20 *572:29 0.000170381
38 *188:26 *572:6 2.28598e-05
39 *188:26 *572:29 0.000142856
40 *196:18 *2201:A1 0.000486435
41 *197:102 *2201:A1 0.00014183
42 *197:102 *572:52 6.13217e-05
43 *491:18 *572:29 0.000381724
44 *491:18 *572:52 0
45 *523:88 *1967:A1 7.08001e-05
46 *523:115 *1967:A1 0.000247932
47 *523:115 *572:29 0
48 *523:115 *572:52 0.000497917
49 *527:106 *2201:A1 0.000143893
50 *535:72 *1967:A1 0
51 *535:87 *572:29 0
52 *545:115 *1967:A1 0.000368104
53 *549:20 *1967:A1 0.000294827
*RES
1 *2423:X *572:6 9.83571 
2 *572:6 *1967:A1 42.3357 
3 *572:6 *572:29 21.2321 
4 *572:29 *2188:A1 9.3 
5 *572:29 *572:44 2.28571 
6 *572:44 *572:52 16.6071 
7 *572:52 *2194:A1 10.675 
8 *572:52 *2201:A1 32.2286 
9 *572:44 *2187:A1 9.3 
*END
